Name: para-Fluoro Cyclopentyl fentanyl
InChIKey: FHNWCPRXMDUFOQ-UHFFFAOYSA-N
Synon: N-(4-fluorophenyl)-N-(1-phenethylpiperidin-4-yl)cyclopentanecarboxamide
Synon: 4-Fluoro Cyclopentanoyl fentanyl
Synon: p-Fluoro Cyclopentanoyl fentanyl
Synon: para-Fluoro Cyclopentanoyl fentanyl
Synon: 4-Fluoro Cyclopentyl fentanyl
Synon: p-Fluoro Cyclopentyl fentanyl
Formula: C25H31FN2O
MW: 394
ExactMass: 394.242043
DB#: 4967
Comments: Provided by www.caymanchem.com/app/template/landing%2CForensic.vm / Item#23114 Batch#0513020
Num Peaks: 141
40 9; 41 229; 42 106; 43 26; 44 56; 
45 1; 50 8; 51 10; 52 6; 53 13; 
54 13; 55 48; 56 18; 57 17; 58 3; 
61 2; 62 3; 63 7; 64 4; 65 47; 
66 10; 67 63; 68 50; 69 934; 70 115; 
71 7; 73 4; 74 2; 75 19; 76 6; 
77 32; 78 16; 79 59; 80 7; 81 11; 
82 24; 83 32; 84 25; 85 2; 89 8; 
90 3; 91 176; 92 20; 93 3; 94 15; 
95 90; 96 170; 97 130; 98 10; 99 1; 
101 2; 102 6; 103 54; 104 39; 105 225; 
106 18; 107 4; 108 5; 109 21; 110 25; 
111 153; 112 16; 113 2; 115 5; 116 3; 
117 10; 118 2; 119 2; 120 2; 121 6; 
122 44; 123 20; 124 14; 125 1; 128 3; 
129 2; 130 19; 131 5; 132 11; 133 7; 
134 7; 135 28; 136 37; 137 29; 138 7; 
139 12; 140 1; 144 3; 146 5; 147 2; 
148 62; 149 60; 150 65; 151 12; 152 3; 
156 2; 158 4; 160 19; 161 7; 162 10; 
163 12; 164 317; 165 37; 166 6; 167 2; 
174 2; 175 2; 176 11; 177 11; 178 6; 
184 9; 185 10; 186 17; 187 4; 188 38; 
189 8; 190 4; 191 4; 192 2; 193 2; 
205 21; 206 10; 207 479; 208 69; 209 5; 
218 2; 231 3; 253 3; 254 2; 260 10; 
261 3; 269 2; 274 2; 281 3; 297 2; 
301 2; 303 999; 304 198; 305 21; 306 1; 
392 3; 

