Name: Ethyltolylbarbituric acid
InChIKey: HXOISWUIJDHACR-UHFFFAOYSA-N
Formula: C13H14N2O3
MW: 246
ExactMass: 246.100442
CASNO: 0
ID: 1096
Comment: AAFS / Probability Based Matching Data Base Entry
Num Peaks: 129
37 1; 38 4; 39 41; 40 3; 41 11; 
42 3; 43 10; 44 27; 45 2; 50 18; 
51 51; 52 17; 53 20; 54 5; 55 1; 
56 1; 57 61; 58 33; 61 2; 62 14; 
63 48; 64 52; 65 122; 66 11; 67 1; 
68 2; 69 4; 70 31; 71 4; 72 27; 
74 13; 75 20; 76 25; 77 109; 78 38; 
79 21; 80 15; 82 2; 83 1; 85 1; 
86 13; 88 5; 89 53; 90 23; 91 223; 
92 91; 93 7; 94 2; 98 3; 99 3; 
101 10; 102 45; 103 68; 104 30; 105 31; 
106 9; 107 6; 108 13; 112 2; 113 2; 
114 2; 115 198; 116 96; 117 279; 118 151; 
119 97; 120 12; 126 3; 127 16; 128 44; 
129 62; 130 34; 131 76; 132 103; 133 14; 
134 2; 141 3; 142 7; 143 3; 144 5; 
145 8; 146 153; 147 66; 148 7; 149 1; 
154 2; 155 3; 156 10; 157 58; 158 44; 
159 15; 160 107; 161 14; 162 1; 170 6; 
171 4; 172 5; 173 5; 174 67; 175 120; 
176 21; 177 2; 185 3; 186 21; 187 3; 
188 57; 189 17; 190 12; 199 14; 200 18; 
201 51; 202 8; 203 36; 204 5; 214 2; 
215 2; 217 177; 218 999; 219 125; 220 14; 
229 28; 230 4; 231 30; 232 21; 233 2; 
244 1; 246 455; 247 68; 248 8; 
