Name: Reboxetine
Synon: (R*,R*)-2-[(2-ethoxyphenoxy)-phenyl-methyl]morpholine
InChIKey: CBQGYUDMJHNJBX-RTBURBONSA-N
Formula: C19H23NO3
MW: 313
ExactMass: 313.167793
CASNO: 98769814
ID: 1100
Comment: AAFS
Num Peaks: 114
42 27; 43 18; 44 34; 45 5; 50 5; 
51 20; 52 22; 53 14; 54 8; 56 701; 
57 80; 58 21; 59 1; 62 1; 63 15; 
64 11; 65 47; 66 4; 67 2; 68 11; 
69 2; 70 6; 72 40; 73 2; 74 3; 
75 1; 76 4; 77 73; 78 10; 79 12; 
80 7; 81 47; 82 4; 84 39; 85 144; 
86 183; 87 9; 88 2; 89 14; 91 454; 
92 41; 93 5; 94 2; 95 2; 98 17; 
99 1; 101 1; 102 11; 103 41; 104 209; 
105 55; 106 4; 107 1; 109 53; 110 94; 
111 7; 115 61; 116 19; 117 68; 118 21; 
119 9; 120 9; 121 20; 122 3; 123 2; 
127 3; 128 4; 129 8; 130 10; 131 32; 
132 27; 133 24; 134 2; 135 2; 136 1; 
137 1; 138 56; 139 5; 141 2; 142 1; 
143 2; 144 30; 145 29; 146 20; 147 5; 
148 2; 149 2; 151 2; 152 4; 153 3; 
155 1; 158 14; 159 2; 160 5; 161 1; 
165 2; 172 1; 173 2; 174 174; 175 999; 
176 676; 177 80; 178 6; 181 2; 183 4; 
190 1; 197 7; 198 1; 199 1; 211 2; 
227 4; 228 1; 313 13; 314 2; 
