Name: Ropivacaine
Synon: (S)-N-(2,6-dimethylphenyl)-1-propylpiperidine-2-carboxamide
InChIKey: ZKMNUMMKYBVTFN-HNNXBMFYSA-N
Formula: C17H26N2O
MW: 274
ExactMass: 274.204514
CASNO: 84057954
ID: 1103
Comment: AAFS
Num Peaks: 55
42 14; 43 14; 44 1; 51 2; 52 1; 
53 3; 54 7; 55 20; 56 33; 57 3; 
63 1; 65 4; 66 1; 67 6; 68 5; 
69 5; 70 4; 77 11; 78 2; 79 4; 
80 3; 81 1; 82 8; 83 4; 84 58; 
85 3; 91 8; 92 1; 93 1; 94 1; 
96 10; 97 3; 98 16; 99 1; 103 3; 
104 1; 105 6; 106 2; 107 1; 110 3; 
115 1; 117 1; 118 2; 119 1; 120 7; 
121 2; 122 2; 124 14; 126 999; 127 89; 
128 3; 132 1; 134 1; 148 1; 245 1; 
