Name: Efavirenz
Synon: (4S)-6-chloro-4-(2-cyclopropylethynyl)-4-(trifluoromethyl)-2,4-dihydro-1H-3,1-benzoxazin-2-one
InChIKey: XPOQHMRABVBWPR-ZDUSSCGKSA-N
Formula: C14H9ClF3NO2
MW: 315
ExactMass: 315.027391
CASNO: 154598524
ID: 1110
Comment: AAFS
Num Peaks: 224
42 1; 43 4; 44 5; 45 3; 47 2; 
49 6; 50 31; 51 46; 52 28; 53 38; 
54 4; 55 18; 56 10; 57 11; 58 1; 
59 1; 60 3; 61 23; 62 59; 63 101; 
64 31; 65 54; 66 13; 67 7; 68 8; 
69 82; 71 4; 72 7; 73 43; 74 65; 
75 89; 76 30; 77 37; 78 14; 79 6; 
80 9; 81 23; 83 13; 84 11; 85 28; 
86 64; 87 78; 88 44; 89 30; 90 20; 
92 30; 93 51; 94 16; 95 13; 96 8; 
97 30; 98 55; 99 76; 100 40; 101 25; 
102 17; 103 7; 104 6; 105 12; 106 10; 
107 20; 109 35; 110 49; 111 66; 112 43; 
113 47; 114 28; 115 17; 116 9; 117 15; 
118 7; 119 8; 120 7; 121 10; 122 17; 
123 50; 124 177; 125 53; 126 108; 127 67; 
128 32; 129 15; 130 7; 131 31; 132 14; 
133 13; 134 7; 135 19; 136 24; 137 53; 
138 81; 139 105; 140 62; 141 24; 142 10; 
143 16; 144 16; 145 23; 146 8; 147 34; 
148 13; 149 30; 150 21; 151 31; 152 19; 
153 28; 154 98; 155 64; 156 39; 157 45; 
158 67; 159 15; 160 9; 161 36; 162 63; 
163 33; 164 68; 165 29; 166 100; 167 294; 
168 66; 169 35; 170 17; 171 15; 172 9; 
173 17; 174 63; 175 26; 176 45; 177 12; 
178 6; 179 9; 180 631; 181 84; 182 242; 
183 83; 184 28; 185 27; 186 28; 187 23; 
188 87; 189 57; 190 54; 191 14; 192 30; 
193 89; 194 25; 195 38; 196 22; 197 9; 
198 7; 199 6; 200 69; 201 91; 202 125; 
203 67; 204 45; 205 12; 206 66; 207 25; 
208 75; 209 21; 210 21; 211 33; 212 17; 
213 10; 214 17; 215 17; 216 38; 217 26; 
218 30; 219 23; 220 20; 221 25; 222 7; 
223 61; 224 198; 225 45; 226 63; 227 8; 
228 8; 229 3; 230 8; 231 15; 232 101; 
233 17; 234 43; 235 24; 236 22; 237 11; 
238 6; 239 3; 240 1; 241 1; 242 18; 
243 875; 244 118; 245 294; 246 999; 247 139; 
248 326; 249 46; 250 59; 251 12; 252 21; 
253 4; 254 2; 255 5; 256 67; 257 11; 
258 22; 259 3; 268 3; 269 7; 270 32; 
271 10; 272 10; 273 2; 276 2; 315 266; 
316 41; 317 87; 318 12; 319 1; 
