Name: Dolasetron
Synon: Anzemet
Synon: (3R)-10-oxo-8-azatricyclo[5.3.1.03,8]undec-5-yl 1H-indole-3-carboxylate
InChIKey: UKTAZPQNNNJVKR-DBBXXEFVSA-N
Formula: C19H20N2O3
MW: 324
ExactMass: 324.147392
CASNO: 115956122
ID: 1113
Comment: AAFS
Num Peaks: 72
42 46; 43 8; 44 6; 50 5; 51 11; 
52 8; 53 30; 54 40; 55 59; 56 21; 
57 11; 58 4; 62 13; 63 34; 64 5; 
65 20; 66 13; 67 51; 68 27; 69 7; 
70 6; 72 3; 76 3; 77 28; 78 11; 
79 42; 80 66; 81 25; 82 16; 87 6; 
88 15; 89 111; 90 15; 91 18; 93 438; 
94 172; 95 17; 96 4; 103 3; 104 3; 
105 7; 106 25; 107 21; 108 17; 110 4; 
114 12; 115 27; 116 139; 117 22; 118 11; 
119 4; 120 49; 121 6; 130 5; 132 9; 
134 999; 135 230; 136 75; 137 6; 144 262; 
145 28; 148 4; 152 16; 161 29; 162 55; 
163 10; 164 6; 180 12; 296 67; 297 13; 
324 36; 325 8; 
