Name: Aripiprazole
Synon: Abilify
Synon: 7-{4-[4-(2,3-dichlorophenyl)piperazin-1-yl]butoxy}-3,4-dihydroquinolin-2(1H)-one
InChIKey: CEUORZQYGODEFX-UHFFFAOYSA-N
Formula: C23H27Cl2N3O2
MW: 447
ExactMass: 447.148033
CASNO: 129722129
ID: 1114
Comment: AAFS
Num Peaks: 184
43 27; 44 22; 50 3; 51 10; 52 6; 
53 12; 54 22; 55 173; 56 163; 57 30; 
58 14; 60 3; 63 7; 64 3; 65 17; 
66 6; 67 9; 68 15; 69 20; 70 183; 
71 21; 72 6; 73 6; 75 11; 76 6; 
77 25; 78 10; 79 13; 80 7; 81 7; 
82 25; 83 31; 84 245; 85 19; 86 4; 
89 11; 90 8; 91 25; 92 13; 93 5; 
94 5; 95 3; 96 20; 97 14; 98 96; 
99 8; 102 10; 103 6; 104 23; 105 8; 
106 16; 107 10; 108 9; 109 12; 110 19; 
111 26; 112 20; 113 6; 115 3; 116 10; 
117 24; 118 23; 119 5; 120 9; 121 3; 
122 11; 123 4; 124 3; 125 8; 127 3; 
128 4; 129 3; 130 11; 131 7; 132 3; 
133 8; 134 33; 135 25; 136 5; 137 20; 
138 16; 139 6; 140 6; 142 10; 143 9; 
144 9; 145 20; 146 36; 147 18; 148 8; 
149 3; 151 7; 152 5; 153 7; 154 3; 
159 18; 160 6; 161 16; 162 10; 163 34; 
164 16; 165 8; 166 22; 167 5; 168 7; 
172 70; 173 53; 174 65; 175 37; 176 43; 
177 11; 178 5; 179 5; 180 4; 187 8; 
188 25; 189 11; 190 16; 191 5; 192 5; 
193 6; 194 9; 195 11; 196 4; 197 3; 
200 71; 201 17; 202 58; 203 13; 204 15; 
205 3; 207 17; 208 9; 209 16; 210 4; 
211 4; 212 3; 213 3; 214 3; 215 22; 
216 10; 217 17; 218 7; 219 3; 224 4; 
227 3; 228 50; 229 14; 230 37; 231 9; 
232 9; 241 11; 243 999; 244 129; 245 632; 
246 81; 247 150; 248 22; 249 4; 251 3; 
257 7; 259 6; 261 7; 273 10; 283 7; 
285 218; 286 35; 287 138; 288 22; 289 23; 
290 3; 411 10; 412 10; 413 6; 414 3; 
432 12; 433 3; 434 8; 446 6; 447 43; 
448 14; 449 27; 450 7; 451 5; 
