Name: Etodolac
Synon: Lodine
Synon: (RS)-2-(1,8-Diethyl-4,9-dihydro-3H-pyrano[3,4-b]indol-1-yl)acetic acid
InChIKey: NNYBQONXHNTVIJ-UHFFFAOYSA-N
Formula: C17H21NO3
MW: 287
ExactMass: 287.152143
CASNO: 41340254
ID: 1116
Comment: AAFS
Num Peaks: 92
43 22; 45 15; 51 5; 55 18; 57 65; 
63 8; 65 6; 72 5; 75 5; 76 5; 
77 19; 78 5; 84 13; 87 6; 89 12; 
91 16; 97 11; 99 21; 102 6; 103 6; 
107 11; 113 7; 114 8; 115 47; 116 12; 
117 9; 120 6; 122 7; 126 5; 127 24; 
128 45; 129 46; 130 15; 139 9; 140 13; 
141 17; 142 21; 143 39; 144 21; 151 5; 
152 12; 153 12; 154 55; 155 27; 156 56; 
157 14; 158 11; 166 14; 167 54; 168 60; 
169 23; 170 39; 171 25; 172 56; 173 7; 
178 6; 179 5; 180 32; 181 25; 182 35; 
183 29; 184 29; 185 10; 186 11; 193 5; 
194 10; 195 6; 196 24; 197 14; 198 234; 
199 44; 200 12; 210 16; 211 5; 212 35; 
213 26; 214 49; 215 9; 224 7; 226 15; 
228 999; 229 170; 230 17; 240 5; 242 6; 
243 5; 258 701; 259 126; 260 14; 287 402; 
288 78; 289 9; 
