Name: Tolcapone
Synon: (3,4-dihydroxy-5-nitrophenyl)(4-methylphenyl)methanone
InChIKey: MIQPIUSUKVNLNT-UHFFFAOYSA-N
Formula: C14H11NO5
MW: 273
ExactMass: 273.063723
CASNO: 134308137
ID: 1117
Comment: AAFS
Num Peaks: 66
50 17; 51 28; 52 11; 53 19; 62 13; 
63 26; 64 11; 65 95; 66 8; 69 6; 
75 5; 76 7; 77 13; 78 9; 79 17; 
80 5; 84 6; 89 31; 90 23; 91 314; 
92 30; 107 14; 108 29; 115 28; 116 6; 
119 999; 120 91; 121 6; 122 7; 127 8; 
128 9; 129 34; 135 16; 136 62; 137 11; 
139 10; 140 5; 141 23; 142 6; 152 10; 
153 6; 154 8; 155 10; 165 6; 169 26; 
170 7; 171 5; 182 227; 183 29; 184 9; 
197 54; 198 14; 199 5; 210 6; 211 7; 
212 7; 225 7; 226 20; 227 11; 228 7; 
243 8; 256 5; 258 21; 273 723; 274 117; 
275 16; 
