Name: N-Desalkylflurazepam
InChIKey: UVCOILFBWYKHHB-UHFFFAOYSA-N
Formula: C15H10ClFN2O
MW: 288
ExactMass: 288.046568
CASNO: 0
ID: 1119
Comment: AAFS / Probability Based Matching Data Base Entry
Num Peaks: 185
38 12; 39 26; 41 9; 42 9; 43 7; 
49 7; 50 41; 51 66; 52 31; 55 6; 
56 7; 57 38; 61 19; 62 58; 63 91; 
64 22; 65 12; 68 22; 69 25; 70 16; 
72 27; 73 38; 74 81; 75 228; 76 77; 
77 103; 78 23; 79 6; 80 15; 81 49; 
82 16; 83 39; 85 143; 86 46; 87 39; 
88 106; 90 34; 92 20; 93 31; 94 47; 
95 58; 96 17; 98 113; 99 110; 100 48; 
102 280; 104 30; 105 32; 106 34; 107 88; 
108 27; 109 80; 110 42; 111 101; 112 221; 
114 31; 115 11; 116 70; 117 37; 118 18; 
119 27; 120 91; 121 48; 122 71; 123 49; 
124 36; 125 37; 126 45; 127 18; 128 7; 
129 43; 130 45; 131 36; 132 25; 133 19; 
134 76; 135 27; 136 38; 137 25; 138 164; 
139 29; 140 53; 141 10; 142 7; 143 13; 
144 64; 145 28; 146 14; 147 8; 149 46; 
150 62; 151 62; 152 21; 153 10; 154 7; 
155 12; 156 12; 157 31; 158 18; 162 15; 
163 115; 164 34; 165 61; 166 38; 167 28; 
168 72; 169 105; 170 110; 171 25; 174 7; 
175 20; 176 64; 177 138; 178 56; 179 35; 
180 14; 181 42; 182 30; 183 36; 184 14; 
185 7; 186 7; 190 7; 191 10; 192 12; 
193 11; 194 16; 195 92; 196 91; 197 89; 
198 60; 199 9; 202 6; 203 16; 204 24; 
205 36; 206 19; 207 9; 208 20; 209 10; 
210 13; 211 51; 212 21; 213 25; 214 32; 
215 12; 216 12; 217 15; 223 60; 224 56; 
225 153; 226 31; 231 25; 232 137; 233 36; 
234 55; 235 8; 239 65; 240 28; 241 40; 
242 14; 243 9; 245 8; 246 24; 248 8; 
252 57; 253 70; 254 12; 257 11; 259 946; 
260 999; 261 570; 262 349; 263 89; 264 10; 
268 21; 269 236; 270 49; 271 77; 272 15; 
287 702; 288 882; 289 365; 290 291; 291 45; 
