Name: N,N-Didesmethylvenlafaxine
InChIKey: SUQHIQRIIBKNOR-UHFFFAOYSA-N
Formula: C15H23NO2
MW: 249
ExactMass: 249.172879
CASNO: 0
ID: 1149
Comment: AAFS
Num Peaks: 122
42 17; 43 27; 44 2; 45 4; 50 3; 
51 14; 52 6; 53 20; 54 4; 55 77; 
56 7; 57 16; 62 1; 63 10; 64 5; 
65 32; 66 7; 67 14; 68 2; 69 13; 
70 8; 71 1; 74 1; 75 2; 76 4; 
77 77; 78 33; 79 65; 80 13; 81 95; 
82 7; 83 12; 89 17; 90 14; 91 130; 
92 19; 93 15; 94 28; 95 4; 97 2; 
98 4; 99 41; 100 3; 101 2; 102 9; 
103 28; 104 14; 105 22; 106 19; 107 20; 
108 39; 109 29; 110 2; 111 1; 115 25; 
116 8; 117 20; 118 38; 119 113; 120 33; 
121 266; 122 122; 123 16; 124 1; 127 7; 
128 16; 129 18; 130 6; 131 16; 132 14; 
133 33; 134 999; 135 176; 136 18; 137 53; 
138 4; 139 1; 141 6; 142 4; 143 6; 
144 12; 145 18; 146 10; 147 36; 148 30; 
149 27; 150 24; 151 4; 152 1; 153 1; 
155 1; 157 2; 158 9; 159 59; 160 22; 
161 10; 162 8; 163 9; 164 6; 165 1; 
169 1; 170 1; 171 14; 172 5; 173 28; 
174 11; 175 6; 176 4; 177 2; 185 1; 
187 10; 188 2; 200 2; 201 18; 202 371; 
203 62; 204 5; 219 11; 220 18; 221 2; 
232 1; 249 1; 
