Name: Desmethylclobazam
Synon: N-desmethylclobazam
InChIKey: RRTVVRIFVKKTJK-UHFFFAOYSA-N
Formula: C15H11ClN2O2
MW: 286
ExactMass: 286.050905
CASNO: 0
ID: 1161
Comment: AAFS
Num Peaks: 196
36 2; 37 7; 38 16; 39 55; 40 9; 
41 32; 42 170; 43 12; 45 3; 46 1; 
47 1; 49 5; 50 105; 51 403; 52 89; 
53 22; 54 3; 55 11; 56 3; 59 2; 
60 9; 61 11; 62 51; 63 101; 64 51; 
65 57; 66 72; 67 8; 68 3; 69 140; 
70 8; 71 4; 72 8; 73 32; 74 38; 
75 69; 76 172; 77 532; 78 182; 79 21; 
80 5; 81 14; 82 12; 83 17; 84 2; 
85 12; 86 16; 87 22; 88 26; 89 33; 
90 80; 91 27; 92 15; 93 7; 94 5; 
95 4; 96 3; 97 4; 98 13; 99 28; 
100 18; 101 25; 102 24; 103 94; 104 70; 
105 18; 106 10; 107 3; 108 8; 109 4; 
110 8; 111 16; 112 37; 113 28; 114 41; 
115 20; 116 18; 117 23; 118 1; 119 2; 
120 3; 121 1; 122 9; 123 11; 124 38; 
125 19; 126 41; 127 61; 128 33; 129 15; 
130 7; 131 1; 132 1; 133 1; 135 2; 
136 4; 137 7; 138 13; 139 44; 140 51; 
141 21; 142 15; 143 12; 144 17; 145 3; 
147 1; 148 2; 150 6; 151 19; 152 52; 
153 61; 154 108; 155 24; 156 4; 157 1; 
161 2; 162 5; 163 9; 164 23; 165 26; 
166 59; 167 204; 168 39; 169 14; 170 3; 
173 1; 175 2; 176 3; 177 11; 178 13; 
179 102; 180 79; 181 104; 182 111; 183 27; 
188 9; 189 5; 190 19; 191 7; 192 13; 
193 8; 194 12; 195 3; 197 1; 200 7; 
201 12; 202 18; 203 142; 204 28; 205 63; 
206 14; 207 6; 208 53; 209 23; 210 5; 
213 6; 214 3; 215 386; 216 308; 217 348; 
218 382; 219 110; 220 85; 221 13; 227 4; 
228 4; 229 37; 230 4; 231 11; 234 1; 
239 8; 240 13; 241 175; 242 72; 243 110; 
244 782; 245 153; 246 267; 247 47; 254 1; 
255 4; 257 4; 267 6; 268 18; 269 82; 
270 22; 271 26; 272 4; 281 1; 283 1; 
285 1; 286 999; 287 177; 288 343; 289 62; 
290 4; 
