Name: Norketamine
Synon: N-Demethylketamine
Synon: 2-Amino-2-(o-chlorophenyl) cyclohexanone
Synon: 2-(o-Chlorophenyl)-2-aminocyclohexanone
InChIKey: BEQZHFIKTBVCAU-UHFFFAOYSA-N
Formula: C12H14ClNO
MW: 223
ExactMass: 223.076392
CASNO: 35211100
ID: 1162
Comment: AAFS
Num Peaks: 117
42 54; 43 6; 44 4; 49 1; 50 24; 
51 51; 52 18; 53 10; 54 37; 55 19; 
56 20; 57 3; 59 9; 61 2; 62 7; 
63 19; 65 28; 67 7; 68 3; 69 2; 
70 2; 72 11; 73 5; 74 16; 75 63; 
76 38; 77 99; 78 19; 79 5; 80 3; 
82 5; 84 12; 85 5; 86 4; 87 6; 
88 4; 89 35; 90 16; 91 53; 92 5; 
93 1; 97 1; 98 1; 99 6; 100 4; 
101 32; 102 151; 103 52; 104 84; 105 10; 
106 2; 107 1; 110 1; 111 8; 112 8; 
113 10; 114 9; 115 62; 116 21; 117 46; 
118 49; 119 8; 120 1; 123 3; 125 32; 
126 5; 127 20; 128 21; 129 8; 130 138; 
131 224; 132 107; 133 10; 136 3; 137 11; 
138 198; 139 56; 140 92; 141 27; 142 18; 
143 15; 144 13; 145 3; 146 9; 147 2; 
149 26; 150 4; 151 15; 152 5; 153 26; 
154 4; 155 8; 156 2; 157 1; 158 4; 
159 2; 160 43; 161 6; 162 2; 163 1; 
164 5; 166 999; 167 136; 168 399; 169 42; 
170 2; 171 1; 178 2; 179 1; 180 6; 
182 2; 194 35; 195 233; 196 41; 197 70; 
198 8; 223 1; 
