Name: Pramipexole
Synon: Mirapex
Synon: (S)-N6-propyl-4,5,6,7-tetrahydro-1,3-benzothiazole-2,6-diamine
InChIKey: FASDKYOPVNHBLU-ZETCQYMHSA-N
Formula: C10H17N3S
MW: 211
ExactMass: 211.114319
CASNO: 104632260
ID: 1171
Comment: AAFS
Num Peaks: 131
42 135; 43 179; 44 75; 45 112; 46 8; 
47 9; 49 4; 50 13; 51 39; 52 38; 
53 85; 54 61; 55 51; 56 972; 57 193; 
58 146; 59 80; 60 115; 61 17; 62 9; 
63 8; 64 23; 65 97; 66 79; 67 134; 
68 68; 69 82; 70 715; 71 77; 72 28; 
73 16; 74 6; 75 5; 76 10; 77 64; 
78 47; 79 23; 80 77; 81 30; 82 62; 
83 40; 84 230; 85 312; 86 123; 87 16; 
88 4; 90 10; 91 39; 92 116; 93 90; 
94 63; 95 33; 96 28; 97 63; 98 32; 
99 136; 100 38; 101 9; 102 3; 103 2; 
104 3; 105 9; 106 32; 107 15; 108 28; 
109 104; 110 57; 111 83; 112 29; 113 19; 
114 19; 115 9; 116 6; 117 3; 118 24; 
119 54; 120 15; 121 10; 122 6; 123 13; 
124 59; 125 41; 126 999; 127 657; 128 199; 
129 42; 130 3; 132 3; 133 8; 134 16; 
135 10; 136 19; 137 23; 138 9; 139 24; 
140 18; 141 58; 142 54; 143 7; 144 3; 
146 2; 147 3; 148 3; 149 3; 150 15; 
151 619; 152 527; 153 207; 154 122; 155 17; 
156 10; 159 6; 162 3; 164 8; 165 10; 
166 15; 168 205; 169 14; 170 6; 178 11; 
179 6; 182 28; 183 5; 194 3; 196 8; 
209 5; 210 8; 211 391; 212 44; 213 25; 
214 3; 
