Name: Norhydrocodone
InChIKey: JGORUXKMRLIJSV-LRGFGTOESA-N
Formula: C17H19NO3
MW: 285
ExactMass: 285.136494
CASNO: 0
ID: 1172
Comment: AAFS
Num Peaks: 216
42 46; 43 28; 44 20; 45 183; 46 8; 
50 15; 51 53; 52 20; 53 41; 54 33; 
55 126; 56 78; 57 11; 58 8; 61 1; 
62 12; 63 57; 64 24; 65 55; 66 13; 
67 27; 68 136; 69 27; 70 51; 71 8; 
74 12; 75 28; 76 31; 77 126; 78 43; 
79 29; 80 43; 81 16; 82 168; 83 19; 
84 4; 85 8; 86 8; 87 14; 88 14; 
89 63; 90 23; 91 94; 92 25; 93 23; 
94 23; 95 9; 96 11; 97 2; 98 14; 
99 18; 100 7; 101 24; 102 67; 103 88; 
104 29; 105 25; 106 23; 107 18; 108 11; 
109 4; 110 42; 111 5; 112 1; 113 25; 
114 24; 115 361; 116 86; 117 60; 118 30; 
119 15; 120 31; 122 28; 123 7; 124 2; 
125 3; 126 31; 127 143; 128 241; 129 105; 
130 55; 131 73; 132 35; 133 15; 134 10; 
135 10; 136 3; 137 14; 138 7; 139 53; 
140 27; 141 107; 142 54; 143 69; 144 85; 
145 57; 146 29; 147 37; 148 32; 149 6; 
150 6; 151 16; 152 58; 153 61; 154 45; 
155 99; 156 56; 157 67; 158 59; 159 50; 
160 31; 161 46; 162 44; 163 11; 164 6; 
165 30; 166 15; 167 31; 168 61; 169 66; 
170 83; 171 84; 172 41; 173 51; 174 65; 
175 253; 176 58; 177 11; 178 6; 179 7; 
180 10; 181 57; 182 44; 183 76; 184 59; 
185 348; 186 114; 187 82; 188 160; 189 41; 
190 8; 191 2; 192 1; 193 3; 194 18; 
195 17; 196 34; 197 60; 198 132; 199 142; 
200 143; 201 67; 202 36; 203 11; 204 3; 
205 1; 206 1; 207 4; 208 5; 209 9; 
210 20; 211 32; 212 166; 213 146; 214 256; 
215 88; 216 37; 217 6; 218 1; 221 1; 
222 2; 223 5; 224 17; 225 25; 226 25; 
227 44; 228 126; 229 107; 230 33; 231 5; 
234 1; 235 1; 236 1; 237 3; 238 9; 
239 9; 240 98; 241 78; 242 436; 243 91; 
244 12; 245 1; 250 1; 251 1; 252 4; 
253 3; 254 5; 255 8; 256 83; 257 48; 
258 10; 259 1; 266 4; 267 1; 268 14; 
269 3; 270 88; 271 16; 272 2; 282 1; 
283 3; 284 51; 285 999; 286 195; 287 24; 
288 2; 
