Name: N-acetyl-3-fluoroamphetamine
Synon: N-acetyl-m-fluoroamphetamine
InChIKey: QFPFLEYSVZFVJT-UHFFFAOYSA-N
Formula: C11H14FNO
MW: 195
ExactMass: 195.105943
CASNO: 0
ID: 1181
Comment: ENFSI / NFI inhouse reference
Num Peaks: 78
38 2; 39 19; 40 3; 41 13; 42 48; 
43 199; 44 999; 45 26; 50 6; 51 10; 
52 2; 54 1; 56 6; 57 31; 58 5; 
59 9; 60 27; 61 2; 62 6; 63 20; 
64 3; 65 3; 67 1; 68 2; 69 3; 
70 6; 74 2; 75 11; 76 2; 77 4; 
78 1; 81 8; 82 2; 83 78; 84 4; 
85 2; 86 469; 87 23; 88 3; 89 12; 
90 2; 91 5; 94 2; 95 6; 96 9; 
97 2; 101 9; 102 2; 103 2; 105 1; 
107 22; 108 7; 109 180; 110 19; 111 2; 
115 14; 116 6; 117 4; 118 4; 120 2; 
121 5; 122 4; 124 1; 125 1; 133 16; 
134 5; 135 77; 136 105; 137 14; 138 23; 
139 2; 148 1; 150 2; 151 2; 152 9; 
153 1; 195 3; 196 1; 
