Name: 4-Fluorotropacocaine
Synon: p-FBT
Synon: 3-(p-Fluorobenzoyloxy)tropane
InChIKey: YXDFSLSXLYAAPF-UHFFFAOYSA-N
Formula: C15H18FNO2
MW: 263
ExactMass: 263.132156
CASNO: 0
ID: 1198
Comment: ENFSI / Univ Aarhus&For Inst Copenhagen; Seizure, Copenhagen 2008
Num Peaks: 67
40 3; 41 35; 42 109; 43 11; 44 18; 
45 1; 50 7; 51 7; 52 3; 53 12; 
54 14; 55 35; 56 20; 57 22; 58 6; 
62 1; 63 2; 65 11; 66 4; 67 111; 
68 36; 69 14; 70 18; 71 2; 74 5; 
75 48; 76 5; 77 11; 78 5; 79 7; 
80 15; 81 37; 82 368; 83 314; 84 25; 
85 1; 91 12; 92 3; 93 14; 94 265; 
95 237; 96 130; 97 36; 98 12; 106 2; 
107 3; 108 14; 109 5; 110 3; 112 3; 
120 2; 121 1; 122 25; 123 213; 124 999; 
125 94; 126 5; 132 1; 140 138; 141 14; 
142 1; 219 2; 248 1; 262 4; 263 153; 
264 26; 265 2; 
