Name: HU-210-BSA derivative
InChIKey: LVXNYMSXBNXXNH-CLJLJLNGSA-N
Formula: C31H54O3Si2
MW: 530
ExactMass: 530.36115
CASNO: 0
ID: 1205
Comment: Jason Nawyn
Num Peaks: 382
39 5; 40 1; 41 45; 42 4; 43 116; 
45 29; 46 2; 47 10; 50 1; 53 6; 
55 39; 56 4; 57 63; 58 4; 59 26; 
60 2; 61 10; 65 5; 67 17; 69 50; 
70 4; 71 66; 72 7; 73 704; 74 60; 
75 186; 76 16; 77 18; 78 1; 79 17; 
80 3; 81 13; 83 14; 85 39; 86 3; 
89 4; 91 46; 92 5; 93 20; 94 2; 
95 17; 96 1; 97 4; 99 4; 101 1; 
103 15; 104 4; 105 43; 106 6; 107 20; 
108 2; 109 8; 111 3; 113 1; 115 14; 
116 6; 117 24; 118 4; 119 26; 120 3; 
121 11; 122 1; 123 3; 125 2; 127 6; 
128 8; 129 15; 130 3; 131 25; 132 24; 
133 55; 134 8; 135 7; 137 2; 139 1; 
141 13; 142 6; 143 10; 144 2; 145 6; 
146 1; 147 33; 148 7; 149 12; 151 7; 
152 6; 153 8; 154 2; 155 12; 156 6; 
157 9; 158 1; 159 6; 161 7; 163 7; 
164 2; 165 20; 166 7; 167 15; 168 4; 
169 8; 170 3; 171 7; 172 1; 173 5; 
175 6; 176 1; 177 10; 178 12; 179 24; 
180 10; 181 13; 182 5; 183 11; 184 3; 
185 11; 186 1; 187 6; 188 2; 189 9; 
190 3; 191 16; 192 7; 193 29; 194 10; 
195 34; 196 10; 197 6; 198 2; 199 7; 
200 6; 201 18; 203 14; 204 4; 205 18; 
206 8; 207 20; 208 28; 209 33; 210 5; 
211 8; 212 1; 213 6; 214 2; 215 4; 
216 92; 217 20; 218 4; 219 28; 220 10; 
221 46; 222 11; 223 44; 224 31; 225 13; 
226 1; 227 7; 228 2; 229 6; 230 8; 
231 14; 232 8; 233 26; 234 8; 235 33; 
236 52; 237 25; 238 10; 239 11; 240 2; 
241 10; 242 4; 243 10; 244 6; 245 20; 
246 13; 247 30; 248 9; 249 21; 250 15; 
251 16; 252 6; 253 11; 254 4; 255 13; 
256 5; 257 22; 258 11; 259 68; 260 27; 
261 27; 262 5; 263 9; 264 5; 265 9; 
266 7; 267 14; 268 2; 269 13; 270 7; 
271 29; 272 12; 273 74; 274 54; 275 46; 
276 6; 277 8; 278 3; 279 8; 280 2; 
281 10; 282 6; 283 15; 284 7; 285 27; 
286 11; 287 40; 288 19; 289 45; 290 22; 
291 5; 292 2; 293 8; 294 2; 295 9; 
296 5; 297 18; 298 9; 299 28; 300 14; 
301 14; 302 7; 303 11; 304 4; 305 3; 
307 5; 308 4; 309 14; 310 6; 311 11; 
312 10; 313 59; 314 28; 315 16; 316 4; 
317 9; 318 3; 319 5; 320 1; 321 62; 
322 16; 323 13; 324 4; 325 13; 326 7; 
327 18; 328 15; 329 10; 330 4; 331 4; 
332 2; 333 1; 335 5; 336 1; 337 4; 
338 2; 339 12; 340 8; 341 48; 342 16; 
343 16; 344 6; 345 13; 346 5; 347 6; 
348 2; 349 2; 351 1; 353 5; 354 2; 
355 62; 356 146; 357 63; 358 34; 359 255; 
360 77; 361 22; 362 4; 363 2; 367 1; 
369 6; 370 10; 371 18; 372 22; 373 31; 
374 15; 375 5; 377 1; 383 8; 384 8; 
385 17; 386 3; 387 34; 388 11; 389 8; 
390 2; 391 2; 393 21; 394 7; 395 10; 
396 4; 397 43; 398 19; 399 7; 400 1; 
401 3; 403 2; 405 3; 409 2; 411 4; 
412 7; 413 4; 414 1; 417 3; 418 15; 
419 7; 420 1; 423 5; 424 3; 425 65; 
426 20; 427 26; 428 7; 429 4; 430 2; 
431 54; 432 35; 433 12; 434 5; 439 10; 
440 29; 441 14; 442 9; 443 2; 444 1; 
445 138; 446 999; 447 374; 448 138; 449 29; 
450 4; 457 8; 458 2; 459 7; 460 104; 
461 40; 462 16; 463 3; 473 4; 474 92; 
475 36; 476 14; 477 2; 485 4; 487 6; 
488 54; 489 20; 490 8; 491 1; 501 2; 
511 1; 513 1; 515 42; 516 20; 517 6; 
528 3; 529 4; 530 592; 531 259; 532 100; 
533 25; 534 4; 
