Name: 2,5-Dimethoxy-4-ethylthio-benzaldehyde
InChIKey: NLFKCRKWYGOBKL-UHFFFAOYSA-N
Formula: C11H14O3S
MW: 226
ExactMass: 226.066365
CASNO: 0
ID: 1208
Comment: ENFSI / J. of the CLIC Assoc., Vol. 9, no.4. October 1999, pp 17-20
Num Peaks: 162
30 3; 31 2; 33 1; 35 2; 37 3; 
38 11; 39 66; 40 3; 41 17; 42 2; 
43 17; 44 2; 45 109; 46 6; 47 16; 
48 1; 49 2; 50 26; 51 70; 52 20; 
53 152; 54 17; 55 30; 56 3; 57 19; 
58 23; 59 173; 60 9; 61 22; 62 24; 
63 48; 64 13; 65 61; 66 18; 67 20; 
68 5; 69 61; 70 17; 71 18; 72 5; 
73 5; 74 8; 75 29; 76 12; 77 44; 
78 18; 79 40; 80 10; 81 13; 82 28; 
83 31; 84 22; 85 80; 86 7; 87 5; 
88 1; 89 5; 90 5; 91 29; 92 19; 
93 51; 94 29; 95 96; 96 57; 97 58; 
98 14; 99 15; 100 1; 101 2; 102 1; 
103 4; 104 4; 105 11; 106 17; 107 47; 
108 66; 109 100; 110 26; 111 92; 112 24; 
113 15; 114 2; 115 1; 117 1; 118 4; 
119 27; 120 18; 121 48; 122 47; 123 175; 
124 146; 125 80; 126 28; 127 53; 128 5; 
129 3; 131 2; 132 5; 133 18; 134 31; 
135 55; 136 28; 137 76; 138 32; 139 74; 
140 27; 141 26; 142 3; 143 2; 146 1; 
147 4; 148 31; 149 31; 150 71; 151 101; 
152 155; 153 74; 154 102; 155 75; 156 12; 
157 4; 159 2; 160 2; 161 4; 162 1; 
163 7; 164 3; 165 32; 166 43; 167 45; 
168 72; 169 29; 170 6; 171 1; 177 25; 
178 13; 179 14; 180 68; 181 52; 182 69; 
183 164; 184 17; 185 8; 186 1; 193 4; 
194 2; 195 35; 196 50; 197 58; 198 11; 
199 3; 208 2; 209 26; 210 4; 211 165; 
212 17; 213 9; 225 57; 226 999; 227 134; 
228 56; 229 6; 
