Name: Acetanthranil
Synon: 2-methyl-4H-3,1-benzoxazin-4-one
InChIKey: WMQSKECCMQRJRX-UHFFFAOYSA-N
Formula: C9H7NO2
MW: 161
ExactMass: 161.047678
CASNO: 525768
ID: 1214
Comment: DEA WRL / unconfirmed structure
Num Peaks: 52
42 47; 43 255; 48 1; 49 17; 50 171; 
51 52; 52 38; 53 11; 58 1; 59 1; 
60 2; 61 46; 62 79; 63 236; 64 166; 
65 23; 66 8; 73 29; 74 136; 75 95; 
76 160; 77 126; 78 9; 79 1; 85 2; 
86 7; 87 21; 88 25; 89 37; 90 579; 
91 86; 92 182; 93 8; 99 2; 100 1; 
102 4; 104 3; 105 1; 114 1; 115 1; 
116 14; 117 757; 118 147; 119 269; 120 23; 
132 16; 146 999; 147 84; 148 9; 161 934; 
162 86; 163 8; 
