Name: Acetaminophen di-TMS Derivative
InChIKey: OJLUOGJEWJTAQZ-UHFFFAOYSA-N
Synon: Acetaminophen 2TMS Derivative
Formula: C14H25NO2Si2
MW: 295
ExactMass: 295.142382
CASNO: 0
ID: 1219
Comment: DEA WRL
Num Peaks: 157
42 3; 43 72; 44 33; 45 155; 46 4; 
47 24; 50 2; 51 3; 52 2; 53 6; 
54 2; 55 7; 57 9; 58 15; 59 31; 
60 4; 61 12; 63 17; 64 16; 65 8; 
66 4; 67 7; 69 7; 70 8; 71 2; 
72 18; 73 999; 74 96; 75 191; 76 33; 
77 29; 78 11; 79 8; 80 9; 81 5; 
82 2; 83 13; 84 9; 85 11; 86 6; 
87 3; 88 3; 89 16; 90 17; 91 60; 
92 8; 93 13; 94 3; 95 24; 97 4; 
100 7; 102 3; 103 10; 104 6; 105 37; 
106 13; 107 7; 108 5; 109 8; 110 4; 
111 6; 114 62; 115 33; 116 214; 117 31; 
118 14; 119 9; 120 12; 121 19; 122 5; 
123 5; 124 5; 125 1; 128 1; 129 1; 
130 5; 131 10; 133 67; 134 18; 135 75; 
136 20; 137 9; 139 2; 140 3; 141 1; 
145 1; 146 5; 147 17; 148 11; 149 63; 
150 40; 151 27; 152 8; 153 5; 157 1; 
160 5; 161 5; 162 11; 163 35; 164 19; 
165 70; 166 43; 167 9; 168 1; 174 3; 
176 17; 177 3; 178 9; 179 11; 180 46; 
181 77; 182 15; 183 4; 188 1; 189 2; 
190 18; 191 3; 192 56; 193 11; 194 5; 
204 34; 206 803; 207 159; 208 52; 209 8; 
218 2; 220 3; 221 3; 222 14; 223 22; 
224 2; 225 1; 235 1; 236 4; 237 50; 
238 21; 239 22; 240 6; 241 2; 250 1; 
251 1; 252 5; 253 1; 254 17; 255 3; 
256 1; 278 6; 279 1; 280 522; 281 120; 
282 51; 283 6; 294 25; 295 338; 296 90; 
297 32; 298 5; 
