Name: 3,4,5-Trimethoxy-B-Nitrostyrene
InChIKey: PEPYBEJQAIGLRE-SNAWJCMRSA-N
Formula: C11H13NO5
MW: 239
ExactMass: 239.079372
CASNO: 0
ID: 1224
Comment: DEA WRL
Num Peaks: 133
20 8; 25 13; 26 16; 27 12; 28 11; 
29 40; 30 190; 31 22; 37 12; 38 65; 
39 89; 43 34; 49 9; 50 211; 51 177; 
52 44; 53 215; 54 23; 55 41; 56 8; 
57 20; 59 45; 61 36; 62 126; 63 382; 
64 205; 65 109; 66 214; 67 58; 68 29; 
69 80; 70 25; 73 10; 74 100; 75 208; 
76 266; 77 396; 78 140; 79 198; 80 69; 
81 71; 83 24; 85 49; 87 43; 88 34; 
89 291; 90 63; 91 141; 92 371; 93 118; 
94 57; 95 110; 96 26; 97 18; 98 26; 
99 42; 100 18; 102 68; 103 97; 104 81; 
105 133; 106 147; 107 147; 108 130; 109 110; 
110 90; 115 17; 116 43; 117 226; 118 132; 
119 269; 120 209; 121 94; 122 102; 123 81; 
124 46; 125 188; 126 32; 127 61; 130 14; 
131 75; 132 109; 133 207; 134 291; 135 248; 
136 206; 137 82; 138 151; 140 16; 141 50; 
145 19; 146 41; 147 164; 148 144; 149 458; 
150 91; 151 132; 152 47; 153 162; 155 59; 
157 9; 161 17; 162 91; 163 207; 164 117; 
165 83; 166 46; 167 18; 168 41; 169 44; 
170 7; 173 6; 174 6; 176 28; 177 657; 
178 196; 179 47; 180 23; 181 82; 190 19; 
191 14; 192 490; 193 127; 194 34; 196 25; 
207 29; 208 49; 209 37; 222 11; 223 18; 
224 32; 239 999; 240 142; 
