Name: Acetylprocaine
InChIKey: YMABTXMPJQRLCQ-UHFFFAOYSA-N
Formula: C15H22N2O3
MW: 278
ExactMass: 278.163042
CASNO: 0
ID: 1226
Comment: DEA WRL / unconfirmed structure
Num Peaks: 96
14 1; 16 1; 23 1; 29 40; 30 60; 
31 3; 32 1; 34 1; 37 2; 38 3; 
39 11; 40 1; 41 13; 42 63; 43 235; 
44 28; 45 3; 50 3; 51 5; 52 7; 
53 2; 56 60; 57 18; 58 96; 59 3; 
61 1; 62 6; 63 25; 64 29; 65 64; 
66 7; 67 1; 68 3; 69 2; 70 30; 
71 49; 72 13; 74 3; 75 2; 76 6; 
77 6; 78 3; 79 3; 80 1; 82 1; 
84 51; 86 999; 87 58; 88 3; 89 1; 
90 20; 91 43; 92 99; 93 15; 96 3; 
98 4; 99 194; 100 26; 102 1; 103 1; 
104 5; 105 3; 106 2; 108 1; 110 1; 
115 2; 116 1; 117 1; 118 10; 119 54; 
120 179; 121 28; 122 2; 132 3; 133 2; 
134 3; 136 2; 137 8; 141 1; 146 13; 
147 1; 148 1; 150 1; 162 77; 163 29; 
164 13; 165 9; 166 1; 178 1; 190 3; 
206 55; 207 6; 208 1; 233 1; 262 1; 
263 4; 
