Name: 1-Methyl-4-phenyl-4-propionoxypiperidine
InChIKey: BCQMRZRAWHNSBF-UHFFFAOYSA-N
Formula: C15H21NO2
MW: 247
ExactMass: 247.157228
CASNO: 13147096
ID: 1228
Comment: DEA WRL
Num Peaks: 106
12 1; 14 4; 15 21; 26 10; 27 89; 
28 51; 29 212; 30 17; 31 4; 32 5; 
37 1; 39 37; 40 8; 41 36; 42 536; 
43 208; 44 240; 45 12; 49 3; 50 26; 
51 88; 52 23; 53 50; 54 14; 55 32; 
56 34; 57 275; 58 19; 63 18; 64 6; 
65 33; 66 3; 67 5; 68 8; 69 2; 
70 174; 71 40; 72 4; 73 4; 74 7; 
75 9; 76 15; 77 202; 78 40; 79 20; 
81 8; 82 114; 83 9; 84 7; 85 8; 
87 21; 89 17; 90 4; 91 230; 92 22; 
93 2; 94 55; 95 29; 96 428; 97 31; 
98 2; 101 4; 102 31; 103 174; 104 28; 
105 78; 106 8; 107 1; 112 10; 113 2; 
114 4; 115 131; 116 43; 117 27; 118 7; 
119 4; 120 6; 127 28; 128 68; 129 113; 
130 155; 131 87; 132 16; 133 5; 141 6; 
142 7; 143 12; 144 105; 145 24; 146 5; 
147 1; 154 3; 156 9; 157 10; 158 46; 
159 9; 160 2; 170 11; 172 630; 173 999; 
174 192; 175 16; 190 4; 191 1; 247 18; 
248 3; 
