Name: 2,3,4-Trimethoxyphenylethylamine
InChIKey: PVLFQRLVSMMSQK-UHFFFAOYSA-N
Formula: C11H17NO3
MW: 211
ExactMass: 211.120843
CASNO: 3937164
ID: 1236
Comment: DEA WRL
Num Peaks: 108
42 9; 43 11; 44 4; 45 9; 46 3; 
50 14; 51 34; 52 49; 53 40; 54 7; 
55 14; 56 1; 57 1; 58 2; 59 5; 
62 8; 63 22; 64 23; 65 47; 66 21; 
67 17; 68 4; 69 5; 74 1; 75 5; 
76 8; 77 59; 78 41; 79 40; 80 69; 
81 24; 82 3; 83 1; 84 1; 87 1; 
88 1; 89 16; 90 18; 91 159; 92 36; 
93 27; 94 15; 95 54; 96 6; 97 2; 
99 1; 102 1; 103 3; 104 8; 105 29; 
106 76; 107 86; 108 28; 109 27; 110 6; 
111 3; 116 2; 117 1; 118 5; 119 12; 
120 33; 121 63; 122 23; 123 64; 124 41; 
125 8; 131 1; 132 7; 133 14; 134 16; 
135 26; 136 137; 137 35; 138 9; 139 51; 
140 4; 146 2; 147 13; 148 13; 149 19; 
150 6; 151 80; 152 27; 153 11; 154 1; 
162 1; 163 6; 164 10; 165 33; 166 424; 
167 285; 168 33; 169 2; 178 6; 179 39; 
180 129; 181 295; 182 999; 183 108; 184 12; 
185 1; 192 2; 194 3; 195 1; 207 1; 
209 1; 211 46; 212 6; 
