Name: N-Benzyl, N-Methyl Benzylamine
Synon: N-methyl, N-benzyl Benzylamine
InChIKey: WYZDCUGWXKHESN-UHFFFAOYSA-N
Formula: C15H17N
MW: 211
ExactMass: 211.1361
CASNO: 0
ID: 1247
Comment: DEA WRL
Num Peaks: 52
15 2; 27 2; 38 1; 39 39; 40 4; 
41 14; 42 79; 43 3; 44 2; 50 14; 
51 39; 52 8; 53 1; 62 5; 63 29; 
64 9; 65 151; 66 9; 74 2; 75 3; 
76 5; 77 33; 78 17; 79 2; 89 33; 
90 14; 91 999; 92 130; 93 7; 103 4; 
104 8; 105 5; 116 2; 117 5; 118 31; 
120 179; 121 18; 132 38; 133 5; 134 335; 
135 34; 152 1; 165 4; 166 1; 167 1; 
179 1; 181 1; 208 2; 210 68; 211 245; 
212 40; 213 3; 
