Name: 1,4-dimethoxybenzene
InChIKey: OHBQPCCCRFSCAX-UHFFFAOYSA-N
Formula: C8H10O2
MW: 138
ExactMass: 138.06808
CASNO: 150787
ID: 1260
Comment: ENFSI / 2C-T-2 precursor; J. of the CLIC Assoc., Vol. 9, no.4. October 1999, pp 17-20
Num Peaks: 56
31 3; 32 1; 37 10; 38 43; 39 61; 
40 4; 41 157; 42 8; 43 2; 45 1; 
49 4; 50 47; 51 64; 52 92; 53 60; 
54 56; 55 7; 60 1; 61 9; 62 28; 
63 83; 64 74; 65 58; 66 13; 67 11; 
69 12; 73 2; 74 11; 75 5; 76 4; 
77 42; 78 6; 79 22; 80 46; 81 3; 
82 12; 91 1; 92 40; 93 4; 94 6; 
95 237; 96 17; 105 1; 107 15; 108 15; 
109 4; 120 3; 121 3; 122 7; 123 999; 
124 77; 125 6; 135 2; 138 768; 139 69; 
140 5; 
