Name: Dimethyl terephthalate
Synon: 1,4-Benzenedicarboxylic acid, dimethyl ester
InChIKey: WOZVHXUHUFLZGK-UHFFFAOYSA-N
Formula: C10H10O4
MW: 194
ExactMass: 194.057909
CASNO: 120616
ID: 1262
Comment: DEA WRL
Num Peaks: 50
44 1; 45 2; 49 6; 50 165; 51 31; 
52 43; 53 17; 59 30; 61 3; 62 6; 
63 19; 64 15; 65 11; 66 40; 73 11; 
74 69; 75 111; 76 159; 77 86; 78 7; 
79 9; 81 2; 82 1; 90 1; 91 10; 
92 34; 93 2; 103 133; 104 96; 105 17; 
107 13; 118 9; 119 61; 120 77; 121 7; 
132 6; 133 4; 135 228; 136 21; 149 4; 
161 1; 163 999; 164 103; 165 11; 179 43; 
180 4; 193 13; 194 251; 195 30; 196 3; 
