Name: Boldenone
Synon: 1-dehydrotestosterone
Synon: 1,4-Androstadien-17.beta.-ol-3-one
InChIKey: RSIHSRDYCUFFLA-UHFFFAOYSA-N
Formula: C19H26O2
MW: 286
ExactMass: 286.19328
CASNO: 846480
ID: 1264
Comment: DEA SWL
Num Peaks: 167
40 11; 41 85; 42 6; 43 44; 44 11; 
45 4; 50 3; 51 14; 52 11; 53 48; 
54 9; 55 75; 56 6; 57 41; 58 5; 
63 6; 64 5; 65 44; 66 14; 67 68; 
68 17; 69 18; 70 2; 71 7; 72 1; 
73 1; 75 1; 77 110; 78 32; 79 100; 
80 21; 81 49; 82 7; 83 12; 84 4; 
85 2; 86 1; 87 1; 89 7; 91 270; 
92 53; 93 93; 94 23; 95 35; 96 7; 
97 19; 98 2; 99 1; 102 7; 103 29; 
104 11; 105 86; 106 22; 107 95; 108 78; 
109 40; 110 19; 111 5; 112 1; 113 1; 
115 55; 116 23; 117 45; 118 12; 119 49; 
120 33; 121 240; 122 999; 123 119; 124 11; 
126 2; 127 11; 128 38; 129 38; 130 15; 
131 44; 132 15; 133 53; 134 68; 135 39; 
136 6; 137 5; 138 1; 139 2; 141 21; 
142 13; 143 16; 144 13; 145 46; 146 21; 
147 108; 148 17; 149 8; 150 3; 151 22; 
152 8; 153 9; 154 5; 155 10; 156 3; 
157 18; 158 14; 159 35; 160 21; 161 20; 
162 3; 163 5; 164 4; 165 17; 166 4; 
167 4; 168 3; 169 7; 170 4; 171 17; 
172 11; 173 20; 174 7; 175 3; 176 2; 
177 2; 178 4; 179 3; 180 1; 181 4; 
182 1; 183 5; 184 3; 185 9; 186 6; 
187 5; 188 2; 189 1; 193 1; 194 1; 
195 1; 196 2; 197 5; 198 3; 199 11; 
200 2; 201 2; 207 2; 209 3; 211 6; 
212 3; 213 4; 214 2; 215 1; 225 7; 
226 2; 227 13; 228 3; 229 1; 235 1; 
239 2; 240 2; 242 1; 243 2; 251 2; 
253 8; 254 1; 258 3; 268 3; 271 2; 
286 25; 287 5; 
