Name: Terazosin
Synon: 1-(4-Amino-6,7-dimethoxy-2-quinazolinyl)-4-(tetrahydro-2-furoyl)piperazine
InChIKey: VCKUSRYTPJJLNI-UHFFFAOYSA-N
Formula: C19H25N5O4
MW: 387
ExactMass: 387.190655
CASNO: 63590647
ID: 1265
Comment: AAFS
Num Peaks: 155
42 14; 43 62; 44 8; 52 3; 53 4; 
54 3; 55 9; 56 33; 57 3; 65 2; 
66 2; 68 6; 69 8; 70 8; 71 90; 
72 4; 76 3; 77 4; 78 4; 79 2; 
80 3; 81 2; 83 2; 84 2; 85 4; 
90 4; 91 3; 92 5; 93 4; 94 2; 
98 6; 101 2; 102 2; 103 2; 104 7; 
105 5; 106 4; 107 3; 108 2; 110 2; 
115 2; 116 3; 117 8; 118 5; 119 4; 
120 5; 121 2; 129 2; 130 7; 131 4; 
132 4; 133 8; 134 3; 135 12; 136 2; 
142 2; 143 4; 144 4; 145 6; 146 6; 
147 16; 148 3; 150 4; 158 2; 159 7; 
160 13; 161 7; 162 6; 163 5; 172 8; 
173 7; 174 7; 175 9; 176 3; 177 18; 
178 2; 184 2; 186 4; 187 8; 188 12; 
189 17; 190 45; 191 20; 192 2; 198 2; 
200 4; 201 9; 202 5; 203 7; 204 47; 
205 86; 206 21; 213 2; 214 3; 215 8; 
216 4; 217 41; 218 18; 219 13; 220 55; 
221 59; 222 6; 227 3; 228 2; 229 20; 
230 6; 231 28; 233 999; 234 141; 235 15; 
243 20; 244 6; 245 169; 246 88; 247 104; 
248 17; 255 3; 256 2; 257 10; 258 4; 
259 101; 260 21; 261 7; 270 2; 271 15; 
272 17; 273 14; 274 13; 275 3; 286 5; 
287 4; 288 74; 289 32; 290 10; 291 2; 
300 18; 301 5; 302 2; 314 3; 316 261; 
317 51; 318 6; 319 11; 342 5; 344 20; 
345 4; 358 2; 359 9; 360 2; 372 12; 
373 2; 386 28; 387 232; 388 53; 389 7; 
