Name: Meconin
Synon: Meconine
Synon: 1(3H)-Isobenzofuranone, 6,7-dimethoxy-
InChIKey: ORFFGRQMMWVHIB-UHFFFAOYSA-N
Formula: C10H10O4
MW: 194
ExactMass: 194.057909
CASNO: 569313
ID: 1268
Comment: DEA WRL
Num Peaks: 105
11 15; 12 6; 14 8; 15 91; 16 22; 
17 8; 18 11; 19 7; 21 8; 27 26; 
28 12; 29 130; 30 19; 31 34; 32 22; 
35 3; 36 10; 37 29; 38 81; 39 81; 
40 15; 42 13; 44 47; 45 3; 46 8; 
47 9; 48 14; 49 37; 50 241; 51 272; 
52 137; 53 180; 54 14; 55 45; 56 7; 
59 12; 61 96; 62 148; 63 317; 64 149; 
65 146; 66 125; 67 40; 68 23; 73 24; 
74 85; 75 110; 76 171; 77 424; 78 316; 
79 215; 80 80; 82 9; 87 19; 89 118; 
90 155; 91 138; 92 250; 93 137; 94 54; 
95 178; 97 3; 101 4; 103 10; 104 75; 
105 182; 106 170; 107 256; 108 96; 109 62; 
110 7; 116 28; 117 18; 118 426; 119 281; 
120 386; 121 426; 122 414; 123 119; 131 16; 
132 12; 133 102; 134 211; 135 204; 136 122; 
137 28; 147 813; 148 226; 149 168; 150 166; 
151 84; 161 72; 163 166; 165 999; 166 118; 
175 13; 176 441; 177 75; 178 13; 179 45; 
191 14; 193 78; 194 696; 195 65; 196 7; 
