Name: 1,3-Benzodioxole-5-carboxylic acid
InChIKey: VDVJGIYXDVPQLP-UHFFFAOYSA-N
Formula: C8H6O4
MW: 166
ExactMass: 166.026608
CASNO: 94531
ID: 1271
Comment: ENFSI / found as impurity in clandestine PMK sample
Num Peaks: 70
36 2; 37 22; 38 32; 39 44; 40 9; 
41 3; 42 6; 44 2; 45 35; 46 1; 
48 1; 49 10; 50 39; 51 49; 52 30; 
53 63; 54 9; 55 10; 57 1; 60 17; 
61 48; 62 119; 63 225; 64 28; 65 128; 
66 19; 67 3; 68 6; 69 37; 71 1; 
73 3; 74 56; 77 3; 78 1; 79 22; 
80 9; 81 33; 82 11; 83 6; 84 1; 
90 5; 91 80; 92 15; 93 8; 94 1; 
95 1; 96 2; 102 2; 103 3; 105 2; 
107 6; 108 4; 109 7; 110 2; 119 158; 
120 26; 121 130; 122 13; 123 1; 137 10; 
138 3; 147 1; 149 314; 150 28; 151 2; 
165 999; 166 909; 167 86; 168 10; 169 1; 
