Name: Isosafrole
Synon: 1,3-Benzodioxole, 5-(1-propenyl)-
InChIKey: VHVOLFRBFDOUSH-NSCUHMNNSA-N
Formula: C10H10O2
MW: 162
ExactMass: 162.06808
CASNO: 120581
ID: 1272
Comment: DEA SCL / LOT# 33227
Num Peaks: 82
40 21; 41 27; 42 10; 43 6; 44 2; 
45 3; 49 17; 50 203; 51 306; 52 97; 
53 107; 54 9; 55 19; 56 1; 60 4; 
61 43; 62 133; 63 265; 64 45; 65 103; 
66 29; 67 8; 68 3; 69 2; 73 17; 
74 109; 75 97; 76 110; 77 461; 78 389; 
79 91; 80 12; 81 15; 84 1; 85 7; 
86 18; 87 26; 88 14; 89 74; 90 14; 
91 159; 92 31; 93 7; 94 2; 95 1; 
97 2; 98 11; 99 4; 101 24; 102 159; 
103 650; 104 794; 105 166; 106 22; 107 7; 
108 3; 113 1; 115 27; 116 9; 117 9; 
118 6; 119 40; 120 11; 121 22; 122 10; 
123 1; 129 7; 131 531; 132 121; 133 37; 
135 184; 136 17; 137 1; 145 12; 146 4; 
147 12; 148 1; 159 4; 161 289; 162 999; 
163 112; 164 9; 
