Name: Piperine
Synon: 1-Piperoylpiperidine
Synon: 1,3-Benzodioxol-5-yl-1-oxo-2,4-pentadienyl-piperidine
InChIKey: MXXWOMGUGJBKIW-YPCIICBESA-N
Formula: C17H19NO3
MW: 285
ExactMass: 285.136494
CASNO: 94622
ID: 1274
Comment: AAFS
Num Peaks: 168
42 65; 43 12; 44 8; 45 2; 50 16; 
51 37; 52 9; 53 23; 54 15; 55 59; 
56 45; 57 27; 59 1; 61 2; 62 22; 
63 82; 64 17; 65 57; 66 6; 67 10; 
68 6; 69 49; 70 12; 71 6; 72 5; 
74 9; 75 16; 76 12; 77 29; 78 8; 
79 12; 80 5; 81 3; 82 7; 83 17; 
84 248; 85 40; 86 22; 87 18; 88 29; 
89 105; 90 12; 91 20; 92 4; 93 1; 
94 3; 95 2; 96 9; 97 2; 98 5; 
100 65; 102 12; 103 25; 104 6; 105 5; 
106 2; 107 2; 108 4; 109 5; 110 4; 
111 3; 112 67; 113 64; 114 95; 115 720; 
116 152; 117 34; 118 4; 119 1; 120 4; 
121 6; 122 26; 123 3; 124 1; 125 1; 
126 5; 127 27; 128 21; 129 8; 130 11; 
131 14; 132 2; 133 1; 134 2; 135 42; 
136 31; 137 104; 138 28; 139 4; 140 3; 
141 8; 143 238; 144 114; 145 28; 146 9; 
147 6; 148 32; 149 7; 150 30; 151 3; 
152 1; 154 1; 156 24; 157 9; 158 6; 
159 59; 160 11; 161 4; 162 2; 163 1; 
164 19; 165 2; 168 1; 169 3; 170 6; 
171 202; 172 202; 173 392; 174 240; 175 28; 
176 2; 183 1; 184 1; 185 5; 186 3; 
187 15; 188 4; 195 1; 196 1; 197 1; 
198 5; 199 10; 200 235; 201 999; 202 282; 
203 32; 204 3; 212 1; 213 1; 214 3; 
216 3; 217 1; 226 2; 227 1; 228 7; 
229 9; 230 1; 231 2; 238 2; 240 1; 
242 10; 243 2; 244 1; 254 11; 255 8; 
256 25; 257 10; 258 1; 266 1; 267 1; 
268 19; 269 4; 270 2; 284 116; 285 712; 
286 139; 287 17; 288 1; 
