Name: Sesamol
Synon: 1,3-Benzodioxol-5-ol
InChIKey: LUSZGTFNYDARNI-UHFFFAOYSA-N
Formula: C7H6O3
MW: 138
ExactMass: 138.031694
CASNO: 533313
ID: 1275
Comment: ENFSI / impurity in clandestine PMK sample
Num Peaks: 23
38 33; 39 61; 40 38; 41 38; 44 21; 
50 81; 51 186; 52 237; 53 140; 54 38; 
55 43; 62 45; 68 40; 69 129; 79 73; 
80 105; 81 46; 82 41; 107 63; 108 42; 
137 774; 138 999; 139 77; 
