Name: Resorcinol
Synon: 1,3-benzenediol
InChIKey: GHMLBKRAJCXXBS-UHFFFAOYSA-N
Formula: C6H6O2
MW: 110
ExactMass: 110.0367794
CASNO: 108463
ID: 1276
Comment: DEA SWL / Sigma lot 93H2607
Num Peaks: 37
40 19; 41 31; 42 34; 43 27; 49 11; 
50 42; 51 52; 52 31; 53 158; 54 72; 
55 96; 56 7; 60 2; 61 19; 62 31; 
63 75; 64 59; 65 18; 66 14; 67 2; 
68 23; 69 102; 70 5; 71 18; 74 2; 
77 2; 79 5; 81 214; 82 208; 83 12; 
84 2; 92 9; 95 20; 109 13; 110 999; 
111 66; 112 4; 
