Name: Dimethylisophthalate
Synon: 1,3-Benzenedicarboxylic acid, dimethyl ester
InChIKey: VNGOYPQMJFJDLV-UHFFFAOYSA-N
Formula: C10H10O4
MW: 194
ExactMass: 194.057909
CASNO: 1459934
ID: 1277
Comment: DEA SCL / LOT#HR-02313HQ
Num Peaks: 54
41 2; 43 1; 44 1; 45 3; 50 152; 
51 29; 52 15; 53 12; 59 22; 60 1; 
61 3; 62 6; 63 20; 64 16; 65 11; 
66 21; 73 11; 74 72; 75 107; 76 203; 
77 96; 78 7; 79 8; 81 1; 86 1; 
89 1; 90 1; 91 9; 92 40; 93 3; 
103 85; 104 62; 105 14; 107 19; 108 1; 
119 80; 120 89; 121 9; 132 2; 133 3; 
135 270; 136 25; 137 2; 147 3; 149 23; 
150 2; 161 4; 163 999; 164 99; 165 10; 
179 4; 194 208; 195 22; 196 2; 
