Name: Cortisone
Synon: 11-Dehydro-17-hydroxycorticosterone
Synon: 17.alpha.-Hydroxy-11-dehydrocorticosterone
Synon: 17-Hydroxy-11-dehydrocorticosterone
Synon: Pregn-4-en-17.alpha.,21-diol-3,11,20-trione
InChIKey: MFYSYFVPBJMHGN-UHFFFAOYSA-N
Formula: C21H28O5
MW: 360
ExactMass: 360.193674
CASNO: 53065
ID: 1283
Comment: AAFS / Probability Based Matching Data Base Entry
Num Peaks: 187
40 35; 41 249; 42 145; 43 292; 51 49; 
52 32; 53 176; 54 32; 55 406; 56 32; 
57 71; 58 66; 60 34; 65 170; 66 74; 
67 326; 68 91; 69 172; 70 30; 71 68; 
73 26; 77 521; 78 160; 79 550; 80 81; 
81 189; 82 56; 83 99; 85 30; 87 24; 
89 26; 91 886; 92 117; 93 306; 94 79; 
95 221; 96 64; 97 228; 98 39; 99 35; 
103 120; 104 61; 105 468; 106 115; 107 320; 
108 104; 109 164; 110 57; 111 62; 115 181; 
116 57; 117 193; 118 60; 119 214; 120 102; 
121 568; 122 753; 123 360; 124 90; 125 31; 
127 44; 128 90; 129 104; 130 56; 131 176; 
132 57; 133 272; 134 193; 135 323; 136 236; 
137 85; 139 69; 141 51; 143 128; 144 57; 
145 193; 146 86; 147 320; 148 90; 149 99; 
150 30; 153 35; 155 54; 157 81; 158 47; 
159 155; 160 81; 161 290; 162 125; 163 247; 
164 43; 165 61; 169 43; 170 26; 171 71; 
172 34; 173 130; 174 66; 175 83; 176 28; 
177 40; 178 26; 179 51; 181 28; 183 54; 
184 27; 185 74; 186 32; 187 107; 188 51; 
189 107; 191 26; 195 53; 197 73; 198 32; 
199 60; 200 26; 201 75; 202 34; 203 27; 
205 26; 207 35; 209 44; 211 64; 213 69; 
214 34; 215 125; 216 40; 221 30; 223 70; 
225 116; 226 30; 227 44; 228 37; 229 44; 
230 83; 231 31; 237 35; 238 31; 239 79; 
240 31; 241 128; 242 43; 243 160; 244 71; 
245 37; 253 35; 255 112; 256 134; 257 462; 
258 562; 259 137; 265 95; 267 40; 271 28; 
272 64; 273 30; 281 44; 282 31; 283 129; 
284 40; 285 61; 286 34; 297 26; 299 52; 
300 236; 301 895; 302 193; 303 31; 309 44; 
311 243; 312 92; 313 167; 314 61; 315 56; 
324 36; 327 30; 328 44; 330 200; 331 58; 
332 41; 342 214; 343 60; 358 26; 360 999; 
361 247; 362 30; 
