Name: PCPy
Synon: Rolicyclidine
Synon: PCP pyrrolidine analog
Synon: 1-(1-phenylcyclohexyl)pyrrolidine
Synon: PHP
InChIKey: FYOWWXMGDATDQY-UHFFFAOYSA-N
Formula: C16H23N
MW: 229
ExactMass: 229.18305
CASNO: 2201390
ID: 1285
Comment: DEA SWL
Num Peaks: 112
40 4; 41 57; 42 25; 43 21; 44 2; 
50 5; 51 23; 52 6; 53 19; 54 11; 
55 43; 56 8; 57 1; 62 1; 63 8; 
64 3; 65 22; 66 4; 67 18; 68 19; 
69 9; 70 178; 71 14; 72 17; 74 2; 
75 4; 76 10; 77 76; 78 21; 79 25; 
80 9; 81 40; 82 6; 83 2; 84 5; 
86 1; 87 1; 89 11; 90 5; 91 332; 
92 27; 93 2; 94 3; 95 1; 96 4; 
97 2; 98 1; 100 1; 101 2; 102 18; 
103 81; 104 85; 105 19; 106 4; 108 2; 
110 12; 111 1; 114 1; 115 117; 116 30; 
117 164; 118 42; 119 4; 120 1; 122 3; 
123 1; 124 1; 126 1; 127 14; 128 43; 
129 61; 130 130; 131 23; 132 4; 136 2; 
139 1; 141 9; 142 6; 143 32; 144 46; 
145 24; 146 8; 147 1; 148 4; 150 10; 
151 2; 152 253; 153 31; 154 3; 155 2; 
156 8; 157 9; 158 45; 159 25; 160 14; 
161 1; 170 6; 171 2; 172 184; 173 57; 
174 7; 184 6; 186 999; 187 147; 188 10; 
198 1; 200 20; 201 3; 228 36; 229 109; 
230 18; 231 1; 
