Name: 1,2,3-trimethoxy-5-(2-propenyl)benzene
InChIKey: BPLQKQKXWHCZSS-UHFFFAOYSA-N
Formula: C12H16O3
MW: 208
ExactMass: 208.109944
CASNO: 487116
ID: 1286
Comment: ENFSI / found as byproduct in sassefras oil
Num Peaks: 137
37 4; 38 22; 39 99; 40 14; 41 67; 
42 5; 43 24; 44 5; 45 27; 46 1; 
47 1; 49 3; 50 36; 51 88; 52 60; 
53 87; 54 8; 55 39; 56 3; 57 51; 
58 3; 59 13; 60 1; 61 6; 62 19; 
63 57; 64 23; 65 100; 66 41; 67 20; 
68 5; 69 37; 70 1; 71 4; 72 1; 
73 3; 74 8; 75 22; 76 23; 77 265; 
78 104; 79 188; 80 30; 81 14; 82 3; 
83 4; 85 5; 86 3; 87 3; 88 5; 
89 43; 90 40; 91 209; 92 44; 93 40; 
94 15; 95 29; 96 11; 98 1; 99 1; 
101 3; 102 20; 103 123; 104 48; 105 187; 
106 58; 107 118; 108 27; 109 40; 110 8; 
111 2; 113 2; 114 1; 115 82; 116 18; 
117 19; 118 215; 119 86; 120 58; 121 103; 
122 60; 123 20; 124 66; 125 12; 126 1; 
127 2; 128 2; 129 3; 130 4; 131 44; 
132 21; 133 248; 134 103; 135 122; 136 28; 
137 39; 138 11; 139 5; 143 1; 144 1; 
145 12; 146 47; 147 37; 148 46; 149 48; 
150 146; 151 49; 152 8; 153 1; 154 1; 
159 1; 160 3; 161 58; 162 30; 163 18; 
164 5; 165 100; 166 15; 167 3; 168 1; 
175 7; 176 16; 177 158; 178 32; 179 14; 
180 2; 181 37; 182 4; 191 8; 192 19; 
193 619; 194 78; 195 7; 208 999; 209 136; 
210 12; 211 1; 
