Name: Benzylmethylketoxime
Synon: 1-phenyl-2-propanone oxime
InChIKey: AUYFJUMCPAMOKN-CSKARUKUSA-N
Formula: C9H11NO
MW: 149
ExactMass: 149.084064
CASNO: 13213360
ID: 1302
Comment: ENFSI / MICROGRAM, Vol. XXVII, No. 5, May 1994, pp 153-167
Num Peaks: 75
37 5; 38 25; 39 150; 40 30; 41 73; 
42 110; 43 9; 44 22; 46 2; 49 3; 
50 53; 51 113; 52 35; 53 10; 54 7; 
55 2; 56 13; 58 133; 60 4; 61 8; 
62 36; 63 115; 64 36; 65 280; 66 22; 
67 2; 71 4; 73 2; 74 18; 75 16; 
76 13; 77 82; 78 36; 79 33; 80 4; 
85 2; 86 7; 87 8; 88 5; 89 168; 
90 189; 91 999; 92 289; 93 21; 94 4; 
99 1; 101 2; 102 13; 103 40; 104 28; 
105 75; 106 20; 107 12; 108 2; 109 1; 
113 1; 114 3; 115 78; 116 428; 117 290; 
118 35; 119 3; 120 3; 122 1; 128 2; 
130 214; 131 238; 132 176; 133 51; 134 8; 
147 1; 148 123; 149 486; 150 54; 151 3; 
