Name: 1-Phenyl-1-Cyclohexene
InChIKey: WCMSFBRREKZZFL-UHFFFAOYSA-N
Formula: C12H14
MW: 158
ExactMass: 158.10955
CASNO: 771982
ID: 1306
Comment: DEA SWL / Pfaltz and Bauer lot P10510
Num Peaks: 75
40 5; 41 22; 42 1; 50 32; 51 85; 
52 26; 53 19; 54 2; 55 3; 58 6; 
61 3; 62 16; 63 60; 64 25; 65 60; 
66 16; 67 40; 68 2; 71 19; 72 7; 
74 24; 75 29; 76 46; 77 148; 78 63; 
79 65; 80 82; 81 13; 85 1; 86 7; 
87 13; 88 7; 89 51; 91 234; 92 21; 
93 1; 98 5; 99 3; 100 2; 101 12; 
102 95; 103 55; 104 107; 105 13; 110 1; 
111 1; 113 9; 115 626; 116 111; 117 127; 
118 15; 119 1; 126 20; 127 131; 128 417; 
129 935; 130 689; 131 70; 132 4; 139 11; 
141 73; 142 55; 143 529; 144 64; 145 3; 
150 3; 151 8; 152 26; 153 23; 154 15; 
155 15; 157 102; 158 999; 159 119; 160 7; 
