Name: 1-benzyl-4-piperidone
InChIKey: SJZKULRDWHPHGG-UHFFFAOYSA-N
Formula: C12H15NO
MW: 189
ExactMass: 189.115364
CASNO: 3612202
ID: 1312
Comment: DEA SWL
Num Peaks: 76
40 4; 41 20; 42 79; 43 10; 44 1; 
46 1; 50 9; 51 24; 52 7; 53 4; 
54 12; 55 25; 56 48; 57 4; 59 2; 
60 1; 62 5; 63 26; 65 127; 66 8; 
67 1; 68 3; 69 2; 70 2; 71 4; 
73 1; 74 3; 75 3; 76 5; 77 24; 
78 10; 79 4; 80 1; 81 1; 82 4; 
83 9; 84 17; 85 1; 86 1; 87 1; 
89 38; 91 999; 92 210; 93 13; 96 1; 
98 178; 99 11; 102 1; 103 7; 104 36; 
105 15; 106 4; 112 202; 113 14; 115 2; 
116 2; 117 15; 118 60; 119 10; 120 1; 
129 2; 130 12; 131 14; 132 12; 133 2; 
144 2; 146 92; 147 12; 158 3; 170 1; 
172 3; 174 1; 188 230; 189 296; 190 39; 
191 3; 
