Name: Hydralazine
Synon: Apresoline
Synon: 1-hydrazinylphthalazine
InChIKey: RPTUSVTUFVMDQK-UHFFFAOYSA-N
Formula: C8H8N4
MW: 160
ExactMass: 160.074896
CASNO: 86544
ID: 1314
Comment: DEA SCL / LOT#D-2125
Num Peaks: 54
41 8; 42 7; 43 16; 44 17; 49 15; 
50 144; 51 133; 52 55; 53 14; 58 10; 
59 10; 61 23; 62 82; 63 145; 64 46; 
65 31; 66 7; 73 14; 74 58; 75 110; 
76 225; 77 143; 78 25; 79 11; 80 31; 
85 8; 86 12; 87 30; 88 152; 89 283; 
90 67; 91 16; 99 10; 100 10; 101 10; 
102 99; 103 608; 104 202; 105 33; 114 148; 
115 281; 116 59; 117 35; 122 8; 128 18; 
129 112; 130 148; 131 322; 132 34; 145 86; 
146 9; 159 32; 160 999; 161 108; 
