Name: Hexylamine
Synon: 1-Hexanamine
InChIKey: BMVXCPBXGZKUPN-UHFFFAOYSA-N
Formula: C6H15N
MW: 101
ExactMass: 101.1204495
CASNO: 111262
ID: 1315
Comment: DEA SWL / Aldrich lot 18324AH
Num Peaks: 43
15 2; 17 1; 18 13; 26 5; 27 51; 
28 50; 30 999; 31 22; 32 1; 37 1; 
38 5; 39 57; 40 12; 41 91; 42 51; 
43 46; 44 80; 45 73; 46 2; 50 3; 
51 5; 52 2; 53 10; 54 9; 55 51; 
56 47; 57 5; 58 4; 59 16; 63 1; 
65 1; 67 3; 68 2; 69 12; 70 2; 
72 22; 73 1; 83 2; 84 3; 86 12; 
100 11; 101 36; 102 7; 
