Name: Procyclidine
Synon: 1-Cyclohexyl-1-phenyl-3-(1-pyrrolidinyl)-1-propanol
InChIKey: WYDUSKDSKCASEF-UHFFFAOYSA-N
Formula: C19H29NO
MW: 287
ExactMass: 287.224915
CASNO: 77372
ID: 1316
Comment: AAFS / Probability Based Matching Data Base Entry
Num Peaks: 61
41 20; 42 34; 43 9; 44 1; 51 3; 
53 4; 54 6; 55 64; 56 15; 57 3; 
58 1; 65 2; 67 4; 68 3; 69 6; 
70 23; 71 24; 72 3; 76 1; 77 29; 
78 8; 79 11; 80 2; 81 3; 82 9; 
83 27; 84 999; 85 63; 86 1; 91 15; 
92 1; 96 5; 97 4; 98 21; 99 6; 
100 5; 102 1; 103 4; 104 1; 105 22; 
106 2; 107 8; 115 5; 117 2; 120 1; 
127 1; 128 3; 129 3; 130 1; 133 3; 
186 1; 189 1; 190 2; 202 1; 204 88; 
205 52; 206 7; 210 2; 269 14; 270 5; 
287 4; 
