Name: Phenylacetoacetonitrile
Synon: Benzeneacetonitrile, .alpha.-acetyl-
Synon: 1-Cyano-1-phenyl-2-propanone
InChIKey: KHNWFTMUBKJWRZ-UHFFFAOYSA-N
Formula: C10H9NO
MW: 159
ExactMass: 159.068414
CASNO: 4468488
ID: 1317
Comment: DEA WRL
Num Peaks: 62
12 1; 13 4; 14 20; 15 109; 16 1; 
18 1; 26 9; 27 16; 28 12; 29 3; 
37 15; 38 29; 39 91; 40 8; 41 6; 
42 21; 43 999; 44 22; 45 2; 49 4; 
50 48; 51 53; 52 14; 53 2; 58 1; 
61 15; 62 41; 63 101; 64 30; 65 17; 
66 3; 73 2; 74 12; 75 12; 76 12; 
77 16; 78 3; 79 1; 85 3; 86 7; 
87 12; 88 21; 89 135; 90 120; 91 11; 
99 1; 100 1; 101 1; 102 2; 103 5; 
104 1; 105 1; 113 1; 114 9; 115 8; 
116 93; 117 496; 118 45; 119 2; 144 2; 
159 25; 160 2; 
