Name: Bromobenzene
Synon: Phenyl bromide
Synon: 1-Bromobenzene
InChIKey: QARVLSVVCXYDNA-UHFFFAOYSA-N
Formula: C6H5Br
MW: 156
ExactMass: 155.957462
CASNO: 108861
ID: 1318
Comment: DEA SWL / Sigma-Aldrich lot 04413DC
Num Peaks: 31
49 39; 50 277; 51 352; 52 16; 60 1; 
61 11; 62 11; 63 5; 72 1; 73 31; 
74 112; 75 74; 76 57; 77 999; 78 97; 
79 42; 80 5; 81 15; 82 3; 104 1; 
117 4; 119 4; 129 1; 130 1; 131 1; 
141 3; 143 1; 156 632; 157 47; 158 612; 
159 41; 
