Name: Atropine
InChIKey: RKUNBYITZUJHSG-CIDNJEQPSA-N
Synon: 1.alpha.H,5.alpha.H-Tropan-3.alpha.-ol (.+-.)-tropate
Synon: Atropen
Synon: Daturin
Formula: C17H23NO3
MW: 289
ExactMass: 289.167793
CASNO: 51558
ID: 1320
Comment: DEA SWL
Num Peaks: 75
40 4; 41 37; 42 103; 43 15; 44 19; 
45 1; 50 3; 51 12; 52 4; 53 10; 
54 11; 55 29; 56 18; 57 19; 58 6; 
62 2; 63 8; 64 3; 65 21; 66 3; 
67 93; 68 26; 69 5; 70 14; 71 1; 
75 1; 76 1; 77 42; 78 13; 79 20; 
80 11; 81 24; 82 211; 83 176; 84 17; 
89 16; 90 20; 91 51; 92 5; 93 13; 
94 190; 95 73; 96 96; 97 23; 98 8; 
102 3; 103 54; 104 12; 105 2; 106 2; 
107 5; 108 10; 109 3; 110 1; 112 2; 
117 1; 118 11; 119 2; 120 4; 121 20; 
122 15; 123 35; 124 999; 125 92; 126 4; 
135 2; 140 66; 141 7; 200 1; 271 2; 
272 7; 273 1; 289 67; 290 12; 291 1; 
