Name: Acetylcarbromal
Synon: N-((Acetylamino)carbonyl)-2-bromo-2-ethylbutanamide
Synon: 1-Acetyl-3-(.alpha.-bromo-.alpha.-ethylbutyryl)urea
InChIKey: SAZUGELZHZOXHB-UHFFFAOYSA-N
Formula: C9H15BrN2O3
MW: 278
ExactMass: 278.026604
CASNO: 77667
ID: 1322
Comment: AAFS
Num Peaks: 118
42 88; 43 791; 44 135; 45 7; 46 2; 
50 5; 51 11; 52 8; 53 49; 54 24; 
55 140; 56 19; 57 6; 59 67; 60 26; 
61 10; 63 2; 65 7; 66 5; 67 34; 
68 17; 69 593; 70 229; 71 46; 72 4; 
74 2; 79 3; 80 5; 81 9; 82 10; 
83 69; 84 16; 85 9; 86 300; 87 197; 
88 7; 89 3; 93 2; 95 6; 96 61; 
97 200; 98 65; 99 7; 100 3; 101 2; 
102 32; 103 27; 105 3; 107 23; 109 20; 
110 2; 111 2; 112 20; 113 14; 114 46; 
115 3; 119 4; 121 6; 122 2; 123 3; 
124 5; 126 3; 127 5; 129 999; 130 59; 
131 10; 133 7; 134 2; 135 7; 139 4; 
140 51; 141 10; 144 4; 147 4; 148 70; 
149 139; 150 98; 151 133; 152 30; 155 3; 
156 12; 157 24; 158 2; 164 13; 165 71; 
166 16; 167 71; 168 3; 171 9; 172 2; 
176 12; 177 18; 178 13; 179 16; 180 2; 
191 28; 192 3; 193 30; 194 8; 195 3; 
196 5; 199 8; 208 66; 209 5; 210 67; 
211 4; 237 12; 239 12; 250 219; 251 18; 
252 211; 253 18; 263 19; 264 2; 265 18; 
266 2; 278 4; 280 4; 
