Name: Mibolerone
Synon: 17.beta.-Hydroxy-7.alpha.,17-dimethylestr-4-en-3-one
InChIKey: PTQMMNYJKCSPET-UHFFFAOYSA-N
Formula: C20H30O2
MW: 302
ExactMass: 302.22458
CASNO: 3704094
ID: 1328
Comment: DEA SWL
Num Peaks: 222
40 21; 41 243; 43 566; 44 16; 45 26; 
50 3; 51 28; 52 23; 53 124; 54 26; 
55 296; 56 20; 57 120; 58 87; 59 29; 
60 2; 63 7; 64 8; 65 104; 66 49; 
67 279; 68 57; 69 104; 71 432; 72 77; 
73 9; 74 1; 75 2; 77 302; 78 88; 
79 419; 80 84; 81 311; 82 47; 83 79; 
84 10; 85 28; 86 5; 87 4; 88 1; 
89 11; 91 544; 92 90; 93 316; 94 73; 
95 226; 96 42; 97 67; 98 7; 99 11; 
100 4; 101 5; 102 14; 103 71; 104 45; 
105 410; 106 92; 107 326; 108 152; 109 247; 
110 354; 111 59; 112 6; 113 11; 115 121; 
116 45; 117 186; 118 62; 119 304; 120 98; 
121 249; 122 112; 123 175; 124 28; 125 12; 
126 4; 127 27; 128 89; 129 111; 130 46; 
131 194; 132 92; 133 280; 134 190; 135 341; 
136 232; 137 171; 138 27; 139 10; 141 51; 
142 38; 143 86; 144 53; 145 167; 146 89; 
147 224; 148 112; 149 238; 150 57; 151 28; 
152 12; 153 16; 154 11; 155 30; 156 27; 
157 80; 158 47; 159 206; 160 83; 161 203; 
162 92; 163 98; 164 14; 165 20; 166 6; 
167 11; 168 8; 169 30; 170 21; 171 82; 
172 73; 173 176; 174 192; 175 258; 176 129; 
177 86; 178 14; 179 4; 180 2; 181 7; 
182 5; 183 24; 184 29; 185 66; 186 58; 
187 149; 188 72; 189 189; 190 53; 191 12; 
192 11; 193 25; 194 5; 195 15; 196 7; 
197 34; 198 16; 199 45; 200 51; 201 93; 
202 89; 203 74; 204 19; 205 6; 206 1; 
207 3; 208 1; 209 11; 210 7; 211 43; 
213 282; 214 98; 215 65; 216 33; 217 92; 
218 18; 219 2; 220 2; 223 3; 224 4; 
225 13; 226 36; 227 102; 228 141; 229 309; 
230 65; 231 116; 232 85; 233 16; 234 1; 
237 2; 238 1; 239 3; 240 30; 241 45; 
242 58; 243 19; 244 54; 245 259; 246 48; 
247 5; 251 12; 252 4; 253 1; 255 10; 
256 20; 257 7; 258 4; 259 7; 260 17; 
261 3; 266 35; 267 10; 269 473; 270 89; 
271 10; 272 1; 273 2; 274 7; 275 2; 
281 1; 282 1; 284 999; 285 216; 286 27; 
287 94; 288 20; 289 2; 302 259; 303 59; 
304 7; 305 1; 
