Name: Methandrostenolone
Synon: Methandienone
Synon: 17.beta.-Hydroxy-17.alpha.-methylandrosta-1,4-dien-3-one
InChIKey: XWALNWXLMVGSFR-UHFFFAOYSA-N
Formula: C20H28O2
MW: 300
ExactMass: 300.208931
CASNO: 72639
ID: 1331
Comment: DEA SWL
Num Peaks: 189
40 14; 41 132; 43 377; 44 11; 45 14; 
50 3; 51 23; 52 17; 53 73; 54 16; 
55 114; 56 7; 57 42; 58 42; 59 13; 
62 1; 63 9; 65 74; 66 22; 67 114; 
68 35; 69 41; 71 114; 72 13; 73 1; 
75 3; 77 179; 78 52; 79 181; 80 27; 
81 82; 82 12; 83 25; 84 4; 85 14; 
86 3; 87 1; 89 11; 91 473; 92 115; 
93 184; 94 43; 95 90; 96 13; 97 15; 
98 5; 99 4; 100 1; 101 1; 102 8; 
103 50; 104 24; 105 206; 106 49; 107 199; 
108 185; 109 121; 110 17; 111 26; 112 3; 
113 2; 115 94; 116 35; 117 76; 118 23; 
119 143; 120 87; 121 701; 122 999; 123 105; 
124 12; 125 11; 126 3; 127 23; 128 65; 
129 65; 130 24; 131 71; 132 28; 133 99; 
134 162; 135 110; 136 40; 137 15; 138 2; 
139 3; 141 34; 142 21; 143 29; 144 22; 
145 77; 146 53; 147 221; 148 66; 149 17; 
150 3; 151 11; 152 11; 153 14; 154 8; 
155 17; 156 8; 157 33; 158 33; 159 97; 
160 54; 161 216; 162 32; 163 7; 165 31; 
166 9; 167 9; 168 3; 169 9; 170 7; 
171 32; 172 32; 173 66; 174 30; 175 23; 
176 5; 177 3; 178 7; 179 43; 180 6; 
181 5; 182 4; 183 11; 184 6; 185 26; 
186 15; 187 18; 188 17; 189 4; 190 1; 
191 2; 192 1; 193 2; 194 1; 195 5; 
196 3; 197 11; 198 6; 199 28; 200 8; 
201 9; 202 2; 205 1; 207 4; 208 1; 
209 4; 210 2; 211 13; 212 11; 213 16; 
214 10; 215 5; 223 1; 224 3; 225 15; 
226 10; 227 30; 228 6; 229 8; 230 7; 
231 1; 239 9; 240 6; 241 10; 242 73; 
243 16; 244 2; 249 3; 253 3; 254 4; 
258 1; 264 2; 265 4; 267 35; 268 8; 
269 1; 272 2; 282 35; 283 7; 285 5; 
286 1; 300 16; 301 6; 302 1; 
