Name: Spironolactone
Synon: Aldactone
Synon: Pregn-4-ene-21-carboxylic acid, 7-(acetylthio)-17-hydroxy-3-oxo-, .gamma.-lactone, (7.alpha.,17.alpha.)-
Synon: 17.alpha.-Pregn-4-ene-21-carboxylic acid, 17-hydroxy-7.alpha.-mercapto-3-oxo-, .gamma.-lactone, acetate
InChIKey: LXMSZDCAJNLERA-UHFFFAOYSA-N
Formula: C24H32O4S
MW: 416
ExactMass: 416.202131
CASNO: 52017
ID: 1335
Comment: AAFS / Probability Based Matching Data Base Entry
Num Peaks: 279
41 91; 42 32; 43 387; 44 62; 45 66; 
46 4; 47 7; 50 6; 51 12; 52 8; 
53 46; 54 19; 55 262; 56 65; 57 81; 
58 12; 59 57; 60 36; 61 16; 63 12; 
64 9; 65 60; 66 20; 67 135; 68 33; 
69 109; 70 37; 71 62; 72 8; 73 44; 
74 7; 76 9; 77 184; 78 45; 79 154; 
80 24; 81 99; 82 32; 83 91; 84 41; 
85 63; 86 11; 87 20; 89 10; 90 9; 
91 206; 92 50; 93 96; 94 22; 95 84; 
96 31; 97 118; 98 36; 99 46; 100 11; 
101 12; 102 6; 103 26; 104 16; 105 141; 
106 24; 107 93; 108 37; 109 56; 110 18; 
111 134; 112 31; 113 17; 114 6; 115 62; 
116 25; 117 69; 118 26; 119 90; 120 15; 
121 55; 122 25; 123 58; 124 56; 125 32; 
126 10; 127 23; 128 44; 129 62; 130 25; 
131 73; 132 19; 133 46; 134 21; 135 47; 
136 35; 137 31; 138 12; 139 18; 140 11; 
141 37; 142 29; 143 65; 144 20; 145 58; 
146 15; 147 40; 148 13; 149 54; 150 11; 
151 27; 152 16; 153 74; 154 19; 155 43; 
156 34; 157 56; 158 18; 159 46; 160 25; 
161 50; 162 12; 163 15; 164 6; 165 24; 
166 18; 167 48; 168 16; 169 38; 170 11; 
171 51; 172 21; 173 65; 174 23; 175 17; 
176 8; 178 7; 179 23; 180 11; 181 21; 
182 10; 183 28; 184 12; 185 47; 186 18; 
187 30; 188 9; 189 10; 191 8; 192 6; 
193 15; 194 12; 195 16; 196 8; 197 24; 
198 22; 199 36; 200 13; 201 15; 202 5; 
203 6; 205 15; 206 7; 207 15; 208 10; 
209 25; 210 8; 211 21; 212 9; 213 26; 
214 11; 215 18; 216 7; 217 22; 218 6; 
219 12; 220 4; 221 10; 222 5; 223 26; 
224 6; 225 22; 226 14; 227 45; 228 16; 
229 65; 230 23; 231 7; 232 5; 233 7; 
234 4; 235 16; 236 20; 237 11; 238 5; 
239 14; 240 9; 241 20; 242 27; 243 36; 
244 7; 245 8; 247 7; 248 3; 249 14; 
250 9; 251 21; 252 8; 253 10; 255 9; 
256 9; 257 13; 258 4; 259 11; 261 16; 
262 4; 263 17; 264 6; 265 21; 266 8; 
267 107; 268 29; 269 12; 270 6; 271 6; 
273 6; 274 8; 275 24; 276 28; 277 11; 
278 5; 279 9; 280 5; 281 16; 282 6; 
283 64; 284 15; 285 20; 286 5; 289 8; 
294 4; 295 8; 296 13; 297 10; 298 7; 
299 4; 301 71; 302 15; 303 10; 304 4; 
305 16; 306 6; 307 20; 308 4; 311 4; 
312 5; 313 7; 322 17; 323 53; 324 12; 
325 66; 326 15; 327 5; 328 3; 340 238; 
341 999; 342 229; 343 43; 344 4; 355 4; 
356 10; 357 4; 359 143; 360 40; 361 12; 
373 9; 374 285; 375 67; 376 27; 377 4; 
382 4; 383 19; 416 16; 417 5; 
