Name: Methylandrostanolone
Synon: 17.alpha.-Methyl-17.beta.-hydroxy-5.alpha.-androstan-3-one
Synon: Mestanolone
InChIKey: WYZDXEKUWRCKOB-UHFFFAOYSA-N
Formula: C20H32O2
MW: 304
ExactMass: 304.24023
CASNO: 521119
ID: 1337
Comment: DEA SWL
Num Peaks: 200
40 46; 41 581; 42 90; 43 999; 44 31; 
45 42; 50 3; 51 24; 52 27; 53 268; 
54 94; 55 957; 56 67; 57 210; 58 250; 
59 60; 60 5; 63 8; 65 146; 66 72; 
67 821; 68 308; 69 301; 71 656; 72 141; 
73 19; 74 6; 75 3; 77 381; 78 92; 
79 843; 80 154; 81 813; 82 173; 83 205; 
84 25; 85 66; 87 3; 88 3; 89 8; 
91 672; 92 137; 93 720; 94 174; 95 647; 
96 130; 97 211; 98 30; 99 44; 100 3; 
101 3; 102 5; 103 50; 104 41; 105 521; 
106 150; 107 580; 108 286; 109 507; 110 185; 
111 184; 112 13; 113 8; 115 71; 116 26; 
117 138; 118 105; 119 388; 120 169; 121 471; 
122 276; 123 899; 124 400; 125 101; 126 10; 
127 14; 128 45; 129 51; 130 31; 131 158; 
132 64; 133 310; 134 126; 135 327; 136 138; 
137 233; 138 29; 139 14; 141 21; 142 16; 
143 53; 144 24; 145 197; 146 70; 147 270; 
148 92; 149 220; 150 50; 151 56; 152 14; 
153 7; 154 3; 155 16; 156 5; 157 53; 
158 29; 159 268; 160 74; 161 323; 162 256; 
163 812; 164 161; 165 64; 166 12; 168 5; 
169 8; 170 4; 171 56; 172 47; 173 186; 
174 152; 175 263; 176 157; 177 127; 178 48; 
179 61; 180 11; 181 5; 183 7; 184 3; 
185 21; 186 23; 187 87; 188 50; 189 178; 
190 58; 191 36; 192 18; 193 5; 197 15; 
198 7; 199 36; 200 9; 201 69; 202 16; 
203 65; 204 83; 205 28; 206 11; 207 5; 
211 33; 212 9; 213 99; 214 35; 215 247; 
216 76; 217 193; 218 55; 219 29; 220 6; 
225 3; 226 4; 227 10; 228 29; 229 291; 
230 159; 231 754; 232 141; 233 135; 234 110; 
235 19; 244 269; 245 56; 246 272; 247 757; 
248 147; 249 14; 253 30; 254 5; 257 46; 
258 10; 260 3; 261 4; 268 3; 269 4; 
271 401; 272 78; 273 7; 275 3; 276 10; 
281 3; 283 2; 286 276; 287 54; 289 704; 
290 140; 291 13; 304 252; 305 60; 306 7; 
