Name: Stanozolol
Synon: 17.alpha.-methyl-17.alpha.-hydroxy-[5.alpha.]-androst-2-eno(3,2-c)pyrazole
InChIKey: LKAJKIOFIWVMDJ-UHFFFAOYSA-N
Formula: C21H32N2O
MW: 328
ExactMass: 328.251463
CASNO: 10418038
ID: 1338
Comment: DEA SWL
Num Peaks: 181
40 18; 41 145; 42 29; 43 315; 44 17; 
45 24; 51 9; 52 22; 53 83; 54 40; 
55 159; 56 20; 57 60; 58 53; 59 14; 
63 3; 65 53; 66 26; 67 167; 68 60; 
69 65; 71 203; 72 21; 73 17; 77 134; 
78 32; 79 196; 80 60; 81 200; 82 32; 
83 40; 85 13; 86 5; 89 6; 91 189; 
92 67; 93 198; 94 940; 95 306; 96 999; 
97 117; 98 14; 99 6; 102 8; 103 33; 
104 31; 105 163; 106 100; 107 140; 108 49; 
109 68; 110 14; 111 12; 112 4; 114 6; 
115 32; 116 17; 117 51; 118 57; 119 240; 
120 63; 121 114; 122 25; 123 37; 124 6; 
125 11; 127 7; 128 23; 129 20; 130 24; 
131 190; 132 95; 133 322; 134 73; 135 147; 
136 25; 137 9; 141 13; 142 9; 143 29; 
144 26; 145 154; 146 114; 147 215; 148 56; 
149 70; 150 16; 151 6; 152 4; 153 5; 
154 9; 155 11; 156 15; 157 26; 158 15; 
159 154; 160 41; 161 131; 162 31; 163 48; 
164 10; 169 14; 170 10; 171 31; 172 27; 
173 57; 174 38; 175 174; 176 40; 177 9; 
182 4; 183 7; 184 12; 185 31; 186 13; 
187 48; 188 16; 189 21; 190 5; 191 6; 
193 4; 197 4; 198 4; 199 18; 200 13; 
201 40; 202 21; 203 17; 207 25; 208 5; 
213 21; 214 12; 215 104; 216 15; 217 7; 
225 6; 226 3; 227 10; 228 11; 229 10; 
230 8; 233 8; 234 4; 239 4; 240 4; 
241 26; 242 12; 243 45; 244 12; 251 7; 
253 21; 254 7; 255 94; 256 38; 257 269; 
258 90; 259 18; 267 9; 268 8; 269 32; 
270 188; 271 167; 272 28; 273 9; 281 10; 
282 4; 283 6; 285 18; 286 15; 295 59; 
296 10; 297 3; 301 5; 309 26; 310 9; 
313 47; 314 14; 327 83; 328 566; 329 113; 
330 18; 
