Name: Mestranol
Synon: 17.alpha.-Ethynyl-3-methoxy-17.beta.-hydroxy-.delta.-1,3,5(10)-estratriene
Synon: 3-Methoxy-17-.alpha.-19-norpregna-1,3,5(10)-trien-20-yn-17-ol
InChIKey: IMSSROKUHAOUJS-UHFFFAOYSA-N
Formula: C21H26O2
MW: 310
ExactMass: 310.19328
CASNO: 72333
ID: 1340
Comment: AAFS / Probability Based Matching Data Base Entry
Num Peaks: 209
42 21; 43 53; 44 14; 45 16; 50 4; 
51 22; 52 9; 53 91; 54 20; 55 76; 
56 16; 57 22; 58 16; 59 4; 60 10; 
61 3; 62 7; 63 14; 64 6; 65 40; 
66 12; 67 68; 68 70; 69 40; 70 18; 
71 30; 72 17; 73 16; 74 4; 75 7; 
76 11; 77 88; 78 37; 79 62; 80 9; 
81 79; 82 17; 83 27; 84 9; 85 9; 
86 23; 87 9; 88 3; 89 19; 90 9; 
91 154; 92 19; 93 27; 94 9; 95 21; 
96 16; 97 16; 98 7; 99 11; 100 48; 
101 10; 102 24; 103 57; 104 27; 105 36; 
106 15; 107 41; 108 17; 109 11; 110 4; 
111 8; 112 5; 113 4; 114 9; 115 182; 
116 54; 117 48; 118 10; 119 18; 120 7; 
121 75; 122 22; 123 11; 124 24; 125 7; 
127 48; 128 113; 129 76; 130 28; 131 54; 
132 20; 133 14; 134 39; 135 36; 137 14; 
138 3; 139 10; 140 9; 141 57; 142 24; 
143 34; 144 68; 145 80; 146 40; 147 196; 
148 28; 149 24; 150 9; 151 27; 153 28; 
155 20; 156 9; 157 21; 158 87; 159 139; 
160 114; 161 41; 162 5; 163 4; 165 29; 
167 15; 168 7; 169 11; 170 11; 171 88; 
172 71; 173 178; 174 284; 175 55; 176 8; 
177 11; 179 11; 180 11; 182 6; 183 13; 
184 21; 185 51; 186 97; 187 45; 188 8; 
189 10; 190 4; 193 8; 194 10; 196 12; 
197 24; 198 21; 199 54; 200 38; 201 10; 
203 3; 205 5; 207 3; 208 16; 210 12; 
211 27; 212 22; 213 41; 214 34; 215 8; 
218 5; 220 6; 221 10; 223 15; 224 16; 
225 51; 227 999; 228 176; 229 33; 230 10; 
231 5; 232 5; 234 3; 235 11; 236 9; 
238 11; 239 12; 240 22; 241 15; 242 142; 
243 27; 244 4; 245 7; 247 12; 248 4; 
249 10; 250 9; 251 10; 252 3; 253 25; 
254 6; 255 4; 256 4; 261 5; 263 15; 
264 25; 265 7; 266 3; 267 10; 268 6; 
277 14; 278 3; 279 4; 281 6; 282 21; 
283 4; 284 7; 291 3; 292 12; 293 8; 
295 8; 310 721; 311 169; 312 16; 
