Name: Norethindrone
InChIKey: VIKNJXKGJWUCNN-UHFFFAOYSA-N
Synon: 19-Nor-17.alpha.-pregn-4-en-20-yn-3-one, 17-hydroxy-
Synon: 17.alpha.-Ethynyl-19-nortestosterone
Synon: 17.alpha.-Ethynyl-17.beta.-hydroxyestr-4-en-3-one
Formula: C20H26O2
MW: 298
ExactMass: 298.19328
CASNO: 68224
ID: 1341
Comment: AAFS / Probability Based Matching Data Base Entry
Num Peaks: 187
41 214; 42 66; 43 146; 44 10; 50 16; 
51 114; 52 67; 53 508; 54 115; 55 425; 
56 23; 57 21; 63 43; 64 39; 65 262; 
66 110; 67 463; 68 322; 69 92; 70 16; 
71 14; 75 8; 77 644; 78 224; 79 743; 
80 155; 81 469; 83 61; 85 9; 89 36; 
91 999; 92 161; 93 306; 94 93; 95 188; 
96 42; 97 81; 99 11; 101 29; 103 126; 
104 81; 105 424; 106 130; 107 338; 108 145; 
109 174; 110 333; 111 52; 112 8; 113 18; 
115 214; 116 74; 117 257; 118 90; 119 248; 
120 170; 121 204; 122 141; 123 116; 124 79; 
125 10; 127 42; 128 125; 129 166; 131 220; 
132 93; 133 215; 134 139; 135 235; 136 62; 
137 62; 139 13; 141 81; 143 117; 144 57; 
145 182; 146 121; 147 254; 148 111; 149 99; 
150 29; 151 19; 152 21; 153 31; 154 21; 
155 72; 156 35; 157 90; 158 76; 159 175; 
160 227; 161 171; 162 299; 163 71; 164 16; 
165 24; 167 25; 168 16; 169 58; 170 67; 
171 91; 172 61; 173 193; 174 98; 175 136; 
176 46; 177 36; 178 27; 179 21; 181 30; 
182 20; 183 50; 184 34; 185 63; 186 59; 
187 99; 188 92; 189 139; 190 43; 191 15; 
193 11; 195 40; 196 21; 197 70; 198 35; 
199 82; 200 45; 201 69; 202 49; 203 20; 
204 7; 205 10; 207 14; 208 12; 209 39; 
210 35; 211 41; 212 61; 213 183; 214 72; 
215 295; 216 52; 217 38; 218 23; 219 10; 
221 14; 222 7; 223 45; 224 33; 225 27; 
226 49; 227 45; 228 112; 229 39; 230 54; 
231 397; 232 65; 233 15; 237 42; 238 33; 
239 21; 240 8; 241 86; 242 33; 243 17; 
247 13; 251 25; 252 37; 253 12; 254 8; 
255 47; 256 37; 257 17; 263 10; 265 52; 
266 11; 269 80; 270 113; 271 24; 272 11; 
279 10; 280 36; 281 19; 283 76; 284 16; 
298 557; 299 127; 
