Name: Ethinyl estradiol
Synon: Ethynyl estradiol
Synon: 19-Nor-17.alpha.-pregna-1,3,5(10)-trien-20-yne-3,17-diol
Synon: 17.alpha.-ethinylestra-1,3,5(10)-triene-3,17.beta.-diol
Synon: 17-Ethynylestra-1(10),2,4-triene-3,17-diol
InChIKey: BFPYWIDHMRZLRN-UHFFFAOYSA-N
Formula: C20H24O2
MW: 296
ExactMass: 296.17763
CASNO: 57636
ID: 1343
Comment: AAFS / Probability Based Matching Data Base Entry
Num Peaks: 126
42 22; 43 17; 51 32; 52 12; 53 89; 
54 22; 55 55; 63 14; 64 12; 65 29; 
66 15; 67 59; 68 52; 69 25; 77 89; 
78 32; 79 63; 80 12; 81 75; 82 18; 
83 15; 89 16; 91 110; 92 21; 93 32; 
94 15; 95 15; 97 12; 102 16; 103 34; 
104 15; 105 61; 106 11; 107 60; 108 22; 
109 13; 115 122; 116 42; 117 41; 118 15; 
119 24; 120 30; 121 27; 122 12; 123 11; 
124 36; 127 59; 128 50; 129 34; 130 17; 
131 111; 132 42; 133 148; 134 33; 135 15; 
136 34; 137 22; 139 13; 141 38; 142 15; 
143 18; 144 74; 145 144; 146 90; 147 38; 
152 26; 153 23; 155 14; 157 99; 158 77; 
159 147; 160 258; 161 44; 165 28; 167 11; 
169 17; 170 25; 171 50; 172 68; 173 42; 
174 12; 177 11; 181 22; 182 13; 183 30; 
184 24; 185 50; 186 32; 187 14; 195 24; 
196 18; 197 28; 198 22; 199 39; 200 28; 
207 17; 208 20; 209 30; 210 28; 211 56; 
212 27; 213 999; 214 148; 215 27; 221 15; 
223 13; 224 19; 225 20; 226 30; 227 19; 
228 111; 229 30; 235 17; 236 19; 237 15; 
239 41; 249 14; 250 23; 253 19; 263 24; 
268 28; 278 17; 281 14; 296 568; 297 141; 
298 23; 
