Name: 2-Methyl-2-(phenylmethyl)-1,3-dioxalane
InChIKey: DJQYVIFTPKYDDG-UHFFFAOYSA-N
Formula: C11H14O2
MW: 178
ExactMass: 178.09938
CASNO: 4362189
ID: 1348
Comment: ENFSI / cylic ketal from phenyl-2-propanon and ethylene glycol; J. of the CLIC Ass., Vol.10, no.1. January 2000, pp 17-18
Num Peaks: 51
38 3; 39 33; 40 3; 41 9; 42 11; 
43 415; 44 11; 45 9; 50 10; 51 27; 
52 7; 53 2; 55 1; 57 2; 61 1; 
62 7; 63 27; 64 7; 65 73; 66 4; 
74 3; 75 3; 76 3; 77 23; 78 9; 
79 7; 82 5; 85 1; 87 999; 88 50; 
89 32; 90 16; 91 228; 92 21; 93 1; 
102 3; 103 12; 104 2; 105 35; 106 6; 
115 34; 116 9; 117 19; 118 7; 119 2; 
131 1; 133 2; 134 5; 135 1; 163 21; 
164 2; 
