Name: Eugenol
Synon: Caryophyllic acid
Synon: 2-Methoxy-4-allylphenol
InChIKey: RRAFCDWBNXTKKO-UHFFFAOYSA-N
Formula: C10H12O2
MW: 164
ExactMass: 164.08373
CASNO: 97530
ID: 1351
Comment: DEA SWL
Num Peaks: 105
40 48; 41 119; 42 13; 43 65; 44 5; 
45 15; 46 4; 47 1; 48 1; 49 7; 
50 103; 51 298; 52 108; 53 168; 54 18; 
55 425; 56 18; 57 8; 58 1; 59 8; 
60 5; 61 15; 62 47; 63 117; 64 37; 
65 226; 66 113; 67 31; 68 8; 69 17; 
70 1; 71 3; 73 5; 74 24; 75 28; 
76 26; 77 587; 78 167; 79 138; 80 16; 
81 41; 82 5; 83 1; 85 2; 86 5; 
87 6; 88 3; 89 51; 90 17; 91 464; 
92 56; 93 89; 94 138; 95 22; 96 3; 
97 1; 98 2; 99 2; 101 9; 102 47; 
103 543; 104 342; 105 151; 106 23; 107 69; 
108 13; 109 20; 110 4; 114 2; 115 48; 
116 10; 117 13; 118 16; 119 31; 120 23; 
121 261; 122 124; 123 17; 124 5; 127 1; 
129 2; 130 4; 131 397; 132 117; 133 256; 
134 28; 135 22; 136 3; 137 266; 138 28; 
139 3; 145 3; 146 3; 147 63; 148 11; 
149 414; 150 44; 151 4; 161 2; 162 3; 
163 49; 164 999; 165 127; 166 8; 167 1; 
