Name: Lormetazepam
Synon: 2H-1,4-Benzodiazepin-2-one, 7-chloro-5-(2-chlorophenyl)-1,3-dihydro-3-hydroxy-1-methyl-
Synon: 2H-1,4-Benzodiazepin-2-one, 1,3-dihydro-7-chloro-5-(o-chlorophenyl)-3-hydroxy-1-methyl-
Synon: 7-Chloro-5-(2-chlorophenyl)-3-hydroxy-1-methyl-2,3-dihydro-1H-1,4-benzodiazepin-2-one
Synon: Methyllorazepam
Synon: N-Methyllorazepam
InChIKey: FJIKWRGCXUCUIG-UHFFFAOYSA-N
Formula: C16H12Cl2N2O2
MW: 334
ExactMass: 334.027582
CASNO: 848759
ID: 1352
Comment: AAFS
Num Peaks: 232
42 3; 43 2; 44 1; 49 2; 50 13; 
51 18; 52 6; 53 1; 55 1; 56 1; 
57 1; 58 2; 61 4; 62 9; 63 16; 
64 6; 65 3; 66 3; 67 1; 68 2; 
69 1; 70 1; 72 1; 73 9; 74 14; 
75 55; 76 23; 77 26; 78 6; 79 2; 
80 2; 82 6; 84 1; 85 5; 86 5; 
87 9; 88 9; 89 15; 90 13; 91 4; 
92 2; 93 4; 94 1; 96 12; 97 5; 
98 5; 99 15; 100 13; 101 8; 102 46; 
103 26; 104 12; 105 5; 106 2; 107 1; 
108 4; 109 5; 110 12; 111 34; 112 11; 
113 17; 114 15; 115 6; 116 4; 117 33; 
120 4; 121 17; 122 3; 123 7; 124 12; 
125 17; 126 11; 127 10; 128 2; 129 1; 
130 1; 131 5; 132 8; 133 1; 134 3; 
135 10; 136 10; 137 8; 138 34; 139 33; 
140 33; 141 11; 142 6; 144 1; 145 1; 
147 1; 148 1; 149 8; 150 23; 151 29; 
152 28; 153 9; 154 6; 155 1; 158 1; 
160 1; 161 3; 162 5; 163 18; 164 22; 
165 45; 166 17; 167 11; 168 3; 169 1; 
173 2; 174 3; 175 6; 176 12; 177 38; 
178 18; 179 14; 180 7; 181 3; 185 1; 
186 5; 187 2; 188 3; 189 2; 190 9; 
191 14; 192 16; 193 23; 194 5; 195 17; 
196 3; 197 6; 198 3; 199 13; 200 9; 
201 7; 202 5; 203 4; 204 2; 205 6; 
206 9; 207 6; 208 4; 209 1; 211 3; 
212 3; 213 7; 214 11; 215 3; 216 4; 
217 1; 219 4; 220 6; 221 4; 224 1; 
225 2; 226 13; 227 25; 228 22; 229 10; 
230 6; 231 1; 233 1; 234 1; 235 12; 
236 3; 237 4; 238 2; 239 6; 240 5; 
241 8; 242 9; 243 12; 244 5; 245 3; 
247 2; 248 7; 249 3; 250 5; 251 1; 
252 1; 253 4; 254 9; 255 48; 256 17; 
257 17; 258 5; 261 11; 262 21; 263 10; 
264 14; 265 3; 266 2; 269 22; 270 9; 
271 18; 272 5; 273 15; 274 3; 275 10; 
276 3; 277 10; 278 3; 279 5; 280 1; 
281 1; 282 1; 289 72; 290 28; 291 67; 
292 22; 293 20; 294 4; 295 2; 299 17; 
300 3; 301 7; 302 1; 303 1; 305 999; 
306 176; 307 663; 308 112; 309 117; 310 18; 
311 1; 334 75; 335 15; 336 51; 337 9; 
338 9; 339 1; 
