Name: Thymidine
Synon: 2-Desoxy-thymidine
InChIKey: IQFYYKKMVGJFEH-UHFFFAOYSA-N
Formula: C10H14N2O5
MW: 242
ExactMass: 242.090272
CASNO: 50895
ID: 1355
Comment: AAFS / Probability Based Matching Data Base Entry
Num Peaks: 142
41 84; 42 69; 43 369; 44 76; 45 326; 
46 10; 47 14; 50 1; 51 7; 52 21; 
53 55; 54 148; 55 322; 56 55; 57 106; 
58 16; 59 12; 60 14; 61 12; 63 1; 
64 2; 65 11; 66 17; 67 59; 68 71; 
69 216; 70 95; 71 289; 72 17; 73 570; 
74 26; 75 20; 76 1; 77 6; 79 10; 
80 99; 81 104; 82 91; 83 115; 84 45; 
85 43; 86 13; 87 26; 88 2; 91 5; 
92 6; 93 9; 94 21; 95 20; 96 41; 
97 82; 98 135; 99 317; 100 18; 101 3; 
103 1; 105 2; 106 1; 107 4; 108 10; 
109 34; 110 191; 111 22; 112 10; 113 5; 
114 1; 115 5; 116 21; 117 999; 118 61; 
119 9; 120 1; 121 10; 122 31; 123 8; 
124 5; 125 7; 126 311; 127 293; 128 22; 
129 5; 131 1; 133 2; 134 2; 135 4; 
136 2; 137 3; 138 7; 139 9; 140 4; 
141 2; 143 1; 145 1; 147 3; 149 1; 
150 30; 151 8; 152 9; 153 42; 154 26; 
156 9; 157 2; 158 2; 161 1; 163 1; 
164 1; 165 4; 166 1; 167 1; 168 4; 
169 2; 170 1; 171 1; 173 1; 179 1; 
180 1; 181 4; 182 3; 183 1; 185 1; 
191 1; 193 5; 194 3; 195 1; 198 1; 
199 2; 206 14; 207 3; 208 1; 209 1; 
211 5; 212 2; 213 1; 222 1; 224 1; 
225 1; 227 1; 236 4; 237 2; 239 1; 
242 46; 243 6; 
