Name: Methazolamide
Synon: 2-Acetylimino-3-methyl-.delta.(sup 4)-1,3,4-thiadiazoline-5-sulfonamide
InChIKey: FLOSMHQXBMRNHR-DAXSKMNVSA-N
Formula: C5H8N4O3S2
MW: 236
ExactMass: 236.003782
CASNO: 554574
ID: 1356
Comment: AAFS
Num Peaks: 37
42 18; 43 384; 44 8; 45 9; 46 11; 
48 19; 53 7; 54 6; 55 20; 56 85; 
57 8; 58 10; 59 19; 60 9; 64 29; 
72 22; 73 8; 80 34; 83 148; 84 7; 
85 5; 86 15; 88 9; 113 11; 114 28; 
130 7; 135 6; 139 10; 142 14; 156 18; 
157 7; 221 999; 222 75; 223 92; 236 185; 
237 17; 238 17; 
