Name: Propofol
Synon: 2,6-diisopropylphenol
Synon: Diprivan
InChIKey: OLBCVFGFOZPWHH-UHFFFAOYSA-N
Formula: C12H18O
MW: 178
ExactMass: 178.135765
CASNO: 2078548
ID: 1357
Comment: DEA SWL
Num Peaks: 77
40 3; 41 31; 42 1; 43 24; 44 1; 
50 4; 51 17; 52 7; 53 13; 54 1; 
55 6; 58 5; 59 7; 62 3; 63 13; 
64 6; 65 24; 66 6; 67 8; 69 1; 
74 26; 75 4; 77 56; 78 14; 79 23; 
80 2; 82 2; 87 2; 89 10; 91 113; 
92 11; 93 11; 94 2; 95 4; 101 2; 
102 12; 103 36; 104 9; 105 40; 107 72; 
108 6; 109 1; 115 72; 116 21; 117 166; 
118 18; 119 18; 121 124; 122 11; 123 2; 
126 2; 127 18; 128 52; 129 28; 130 21; 
131 13; 132 5; 133 25; 134 2; 135 59; 
136 6; 141 4; 142 1; 143 4; 144 1; 
145 9; 147 37; 148 7; 149 16; 150 1; 
161 11; 163 999; 164 114; 165 8; 178 239; 
179 31; 180 2; 
