Name: 2,5-Dimethoxyphenyl-2-nitropropene
InChIKey: MQFREHNTGKNSRH-SOFGYWHQSA-N
Formula: C11H13NO4
MW: 223
ExactMass: 223.084458
CASNO: 18790573
ID: 1368
Comment: DEA SWL / Western Biosynthesis lot 118C
Num Peaks: 142
40 43; 41 154; 42 18; 43 130; 44 7; 
45 20; 46 11; 49 6; 50 123; 51 270; 
52 94; 53 177; 54 108; 55 100; 56 12; 
57 15; 58 4; 59 37; 60 2; 61 19; 
62 93; 63 298; 64 140; 65 490; 66 58; 
67 37; 68 25; 69 61; 70 8; 71 22; 
72 5; 73 4; 74 61; 75 88; 76 134; 
77 431; 78 151; 79 202; 80 52; 81 21; 
82 136; 83 29; 84 8; 85 41; 86 21; 
87 26; 88 34; 89 236; 90 155; 91 713; 
92 166; 93 80; 94 42; 95 144; 96 23; 
97 10; 98 42; 99 11; 100 3; 101 29; 
102 149; 103 265; 104 93; 105 148; 106 92; 
107 115; 108 113; 109 118; 110 56; 111 86; 
112 10; 113 19; 114 6; 115 192; 116 57; 
117 66; 118 285; 119 421; 120 125; 121 264; 
122 60; 123 163; 124 101; 125 42; 126 9; 
127 14; 128 8; 129 14; 130 21; 131 178; 
132 86; 133 238; 134 108; 135 119; 136 54; 
137 91; 138 103; 139 38; 140 14; 141 8; 
143 3; 144 18; 145 37; 146 99; 147 788; 
148 159; 149 119; 150 99; 151 84; 152 32; 
153 7; 154 1; 159 6; 160 28; 161 999; 
162 856; 163 154; 164 119; 165 71; 166 124; 
167 19; 168 3; 174 3; 175 26; 176 512; 
177 111; 178 66; 179 6; 180 9; 190 2; 
191 8; 192 89; 193 19; 194 2; 206 6; 
207 5; 208 7; 209 1; 222 1; 223 813; 
224 101; 225 13; 
