Name: Paraldehyde
Synon: 2,4,6-Trimethyl-1,3,5-trioxane
Synon: Triacetaldehyde
InChIKey: SQYNKIJPMDEDEG-UHFFFAOYSA-N
Formula: C6H12O3
MW: 132
ExactMass: 132.078644
CASNO: 123637
ID: 1373
Comment: AAFS / Probability Based Matching Data Base Entry
Num Peaks: 13
39 9; 41 31; 42 145; 43 999; 44 113; 
45 644; 46 24; 47 7; 71 7; 87 27; 
89 98; 117 79; 131 24; 
