Name: 2,4,5-Trimethoxybenzoic Acid
InChIKey: KVZUCOGWKYOPID-UHFFFAOYSA-N
Formula: C10H12O5
MW: 212
ExactMass: 212.068474
CASNO: 490642
ID: 1374
Comment: AAFS / Probability Based Matching Data Base Entry
Num Peaks: 103
40 5; 41 11; 42 4; 43 10; 45 16; 
50 23; 51 31; 52 8; 53 57; 54 7; 
55 18; 57 8; 59 33; 61 9; 62 14; 
63 16; 64 7; 65 24; 66 37; 67 19; 
68 14; 69 79; 70 9; 71 11; 73 5; 
74 5; 75 9; 76 10; 77 45; 78 17; 
79 67; 80 15; 81 37; 82 21; 83 19; 
84 4; 85 10; 91 10; 92 13; 93 45; 
94 22; 95 96; 96 37; 97 16; 98 12; 
99 6; 105 9; 106 8; 107 44; 108 22; 
109 102; 110 136; 111 45; 112 6; 113 6; 
119 11; 120 6; 121 19; 122 18; 123 60; 
124 33; 125 91; 126 37; 127 5; 133 4; 
134 14; 135 17; 136 32; 137 505; 138 56; 
139 78; 140 6; 141 32; 147 5; 149 29; 
151 114; 152 45; 153 26; 155 5; 156 7; 
163 15; 164 6; 165 78; 166 27; 167 35; 
169 290; 170 24; 171 4; 179 17; 180 13; 
181 16; 182 4; 183 35; 184 5; 193 14; 
194 7; 195 89; 197 896; 198 89; 199 10; 
212 999; 213 124; 214 18; 
