Name: Naphazoline
Synon: 2-(1-Naphethylmethyl)-2-imidazoline
InChIKey: CNIIGCLFLJGOGP-UHFFFAOYSA-N
Formula: C14H14N2
MW: 210
ExactMass: 210.115699
CASNO: 835314
ID: 1379
Comment: AAFS
Num Peaks: 59
42 10; 54 6; 62 5; 63 16; 74 11; 
75 15; 76 13; 77 12; 81 8; 86 6; 
87 13; 88 6; 89 19; 91 6; 98 6; 
99 5; 101 10; 102 11; 113 19; 114 12; 
115 216; 116 22; 125 5; 126 39; 127 54; 
128 31; 129 5; 137 7; 138 12; 139 145; 
140 68; 141 203; 142 25; 150 21; 151 46; 
152 166; 153 120; 154 41; 155 6; 164 16; 
165 20; 166 114; 167 61; 168 20; 178 8; 
179 10; 180 59; 181 82; 182 22; 193 7; 
195 88; 196 13; 205 5; 206 14; 207 31; 
208 182; 209 999; 210 315; 211 37; 
