Name: Trichloroethanol
Synon: 2,2,2-Trichloroethanol
InChIKey: KPWDGTGXUYRARH-UHFFFAOYSA-N
Formula: C2H3Cl3O
MW: 148
ExactMass: 147.924948
CASNO: 115208
ID: 1381
Comment: AAFS / Probability Based Matching Data Base Entry
Num Peaks: 64
35 149; 36 32; 37 47; 38 11; 40 6; 
42 85; 47 269; 48 197; 49 806; 50 85; 
51 257; 52 4; 58 4; 59 15; 60 117; 
61 107; 62 45; 63 53; 64 1; 65 11; 
67 3; 70 9; 72 6; 74 3; 76 104; 
77 999; 78 75; 79 328; 80 13; 82 429; 
83 175; 84 271; 85 121; 86 44; 87 24; 
89 3; 91 15; 94 4; 95 108; 96 59; 
97 63; 98 36; 99 13; 100 6; 105 4; 
106 6; 110 6; 111 15; 112 57; 113 536; 
114 50; 115 339; 116 14; 117 308; 118 4; 
119 231; 120 6; 121 84; 122 8; 131 4; 
133 4; 148 16; 150 16; 152 7; 
