Name: 2,4,5-Trimethoxyphenyl-2-nitropropene
InChIKey: YJLWVSYNZFMHTK-YVMONPNESA-N
Formula: C12H15NO5
MW: 253
ExactMass: 253.095022
CASNO: 134040350
ID: 1387
Comment: DEA SWL / Western Biosynthesis lot 118B
Num Peaks: 169
40 45; 41 133; 42 26; 43 165; 44 9; 
45 36; 46 9; 47 7; 49 5; 50 99; 
51 201; 52 87; 53 223; 54 36; 55 77; 
56 28; 57 38; 58 2; 59 171; 60 6; 
61 17; 62 83; 63 279; 64 97; 65 281; 
66 90; 67 45; 68 24; 69 429; 70 23; 
71 9; 72 10; 73 7; 74 48; 75 91; 
76 97; 77 469; 78 207; 79 212; 80 42; 
81 52; 82 104; 83 23; 84 9; 85 35; 
86 17; 87 32; 88 39; 89 265; 90 172; 
91 361; 92 102; 93 152; 94 46; 95 74; 
96 69; 97 13; 98 34; 99 17; 100 2; 
101 23; 102 87; 103 242; 104 73; 105 177; 
106 271; 107 182; 108 54; 109 110; 110 66; 
111 20; 112 5; 113 22; 114 7; 115 126; 
116 40; 117 75; 118 103; 119 168; 120 112; 
121 405; 122 88; 123 75; 124 47; 125 191; 
126 32; 127 30; 128 8; 129 17; 130 32; 
131 194; 132 80; 133 153; 134 146; 135 108; 
136 78; 137 92; 138 58; 139 39; 140 42; 
141 74; 142 6; 143 8; 144 11; 145 66; 
146 57; 147 246; 148 166; 149 275; 150 137; 
151 115; 152 45; 153 156; 154 19; 155 52; 
156 5; 157 3; 158 4; 159 24; 160 21; 
161 220; 162 63; 163 318; 164 93; 165 120; 
166 37; 167 61; 168 32; 169 32; 170 6; 
171 1; 173 3; 174 6; 175 61; 176 101; 
177 581; 178 123; 179 65; 180 42; 181 89; 
182 16; 183 11; 189 8; 190 32; 191 669; 
192 450; 193 107; 194 32; 195 66; 196 92; 
197 10; 198 1; 204 2; 205 19; 206 999; 
207 143; 208 28; 209 3; 210 5; 222 104; 
223 23; 224 3; 236 3; 237 6; 238 49; 
239 6; 253 958; 254 129; 255 19; 
