Name: 2,4-Dimethoxyamphetamine
InChIKey: DQWOZMUBHQPFFF-UHFFFAOYSA-N
Formula: C11H17NO2
MW: 195
ExactMass: 195.125929
CASNO: 23690133
ID: 1388
Comment: ENFSI / NFI/case sample 92.06.01.029/2
Num Peaks: 101
38 4; 39 27; 40 5; 41 12; 42 38; 
43 13; 44 456; 45 13; 50 14; 51 53; 
52 18; 53 15; 54 4; 55 8; 56 3; 
57 3; 58 1; 59 2; 61 1; 62 7; 
63 22; 64 11; 65 84; 66 20; 67 11; 
68 3; 69 22; 70 1; 74 5; 75 6; 
76 12; 77 130; 78 100; 79 41; 80 10; 
81 4; 83 8; 86 1; 87 1; 88 1; 
89 15; 90 19; 91 118; 92 20; 93 19; 
94 12; 95 6; 96 1; 102 4; 103 8; 
104 12; 105 23; 106 24; 107 26; 108 20; 
109 21; 110 3; 115 3; 116 3; 117 6; 
118 7; 119 9; 120 17; 121 219; 122 32; 
123 20; 124 2; 130 2; 131 4; 132 4; 
133 16; 134 8; 135 6; 136 7; 137 73; 
138 11; 139 1; 145 1; 146 2; 147 9; 
148 15; 149 10; 150 16; 151 213; 152 999; 
153 94; 154 8; 161 2; 162 6; 163 3; 
164 8; 165 4; 176 1; 177 1; 178 3; 
179 4; 180 7; 181 1; 193 1; 194 4; 
195 3; 
