Name: 2,4-Dimethoxyphenylacetone
InChIKey: LDUYRQGNBYKUAG-UHFFFAOYSA-N
Formula: C11H14O3
MW: 194
ExactMass: 194.094295
CASNO: 831298
ID: 1389
Comment: DEA SWL / Aldrich lot 13208JA
Num Peaks: 74
40 6; 41 11; 42 10; 43 122; 44 5; 
45 3; 50 24; 51 70; 52 29; 53 17; 
54 3; 55 10; 56 1; 59 5; 61 2; 
62 12; 63 28; 64 15; 65 120; 66 19; 
67 7; 68 3; 69 28; 70 1; 74 8; 
75 8; 76 16; 77 158; 78 117; 79 45; 
80 5; 86 1; 87 2; 89 19; 90 18; 
91 176; 92 30; 93 18; 94 5; 95 3; 
102 2; 103 9; 104 3; 105 18; 106 31; 
107 12; 108 33; 109 6; 118 3; 119 8; 
121 406; 122 43; 123 6; 131 2; 133 4; 
134 2; 135 11; 136 7; 137 12; 138 2; 
147 2; 148 1; 149 7; 151 999; 152 101; 
153 11; 154 1; 163 4; 165 5; 166 3; 
178 2; 181 6; 194 122; 195 16; 
