Name: Nicotinyl Alcohol
Synon: 3-Pyridinemethanol
InChIKey: MVQVNTPHUGQQHK-UHFFFAOYSA-N
Formula: C6H7NO
MW: 109
ExactMass: 109.052764
CASNO: 100550
ID: 1392
Comment: AAFS
Num Peaks: 28
49 28; 50 133; 51 205; 52 132; 53 261; 
54 57; 55 42; 61 19; 62 34; 63 81; 
64 79; 65 113; 66 11; 75 13; 76 13; 
78 160; 79 95; 80 921; 81 155; 82 13; 
91 162; 92 70; 93 5; 106 32; 108 999; 
109 923; 110 82; 111 5; 
