Name: Biperiden
Synon: 3-Piperidino-1-phenyl-1-bicycloheptenyl-1-propanol
InChIKey: YSXKPIUOCJLQIE-UHFFFAOYSA-N
Formula: C21H29NO
MW: 311
ExactMass: 311.224915
CASNO: 514658
ID: 1393
Comment: AAFS
Num Peaks: 75
40 3; 41 26; 42 25; 43 7; 44 16; 
51 4; 52 1; 53 3; 54 3; 55 46; 
56 14; 57 5; 58 1; 63 1; 65 8; 
66 18; 67 4; 68 4; 69 13; 70 16; 
71 1; 77 38; 78 7; 79 6; 80 1; 
82 3; 83 6; 84 26; 85 29; 86 4; 
89 1; 91 21; 92 3; 93 3; 94 1; 
96 16; 98 999; 99 71; 100 2; 102 1; 
103 3; 104 1; 105 20; 106 1; 110 4; 
111 3; 112 19; 113 3; 114 6; 115 8; 
116 1; 117 1; 127 1; 128 4; 129 4; 
130 3; 131 2; 133 10; 134 5; 141 1; 
143 1; 153 1; 165 1; 166 1; 168 3; 
216 4; 218 161; 219 25; 220 2; 244 4; 
245 4; 293 1; 294 4; 310 1; 311 2; 
