Name: Norfluoxetine
Synon: 3-Phenyl-3-[4-(trifluoromethyl)phenoxy]-1-propanamine
InChIKey: WIQRCHMSJFFONW-UHFFFAOYSA-N
Formula: C16H16F3NO
MW: 295
ExactMass: 295.118399
CASNO: 56161730
ID: 1395
Comment: AAFS / FROM BLOOD STRONG BASE EXTRACT
Num Peaks: 104
37 27; 38 33; 39 118; 41 35; 42 61; 
43 43; 44 26; 48 11; 49 8; 50 118; 
51 217; 52 85; 53 37; 54 33; 55 29; 
56 57; 57 74; 58 10; 61 10; 62 46; 
63 162; 64 47; 65 145; 66 16; 67 16; 
68 11; 69 35; 74 38; 75 89; 76 55; 
77 429; 78 414; 79 74; 81 22; 83 97; 
84 22; 87 10; 88 31; 89 65; 90 28; 
91 261; 92 26; 93 10; 94 13; 95 102; 
99 27; 100 7; 101 20; 102 79; 103 408; 
104 701; 105 216; 106 52; 112 68; 113 117; 
114 110; 115 139; 116 31; 117 77; 118 24; 
119 23; 125 46; 126 21; 127 19; 130 48; 
131 14; 132 130; 133 128; 134 999; 135 83; 
142 18; 143 287; 144 36; 145 111; 146 15; 
152 26; 153 17; 154 9; 159 14; 160 12; 
161 50; 162 245; 163 27; 165 12; 166 8; 
172 14; 176 8; 181 12; 183 111; 184 21; 
187 19; 190 18; 191 355; 192 41; 196 11; 
199 9; 201 17; 203 23; 221 9; 251 53; 
252 13; 263 9; 264 7; 295 20; 
