Name: 3-Methylfentanyl
Synon: N-[3-methyl-1-(2-phenylethyl)-4-piperidyl]-N-phenylpropanamide
Synon: 3-MF
Synon: Mefentanyl
InChIKey: MLQRZXNZHAOCHQ-UHFFFAOYSA-N
Formula: C23H30N2O
MW: 350
ExactMass: 350.235813
CASNO: 42045863
ID: 1396
Comment: DEA SWL
Num Peaks: 140
40 4; 41 59; 42 159; 43 26; 44 96; 
45 3; 50 2; 51 18; 52 5; 53 9; 
54 9; 55 33; 56 26; 57 164; 58 35; 
59 1; 62 1; 63 9; 64 5; 65 29; 
66 6; 67 14; 68 24; 69 34; 70 31; 
71 5; 72 2; 74 2; 75 3; 76 5; 
77 134; 78 25; 79 61; 80 8; 81 21; 
82 21; 83 5; 84 41; 85 2; 89 6; 
90 4; 91 126; 92 22; 93 48; 94 27; 
95 5; 96 21; 97 3; 98 8; 100 1; 
102 3; 103 43; 104 83; 105 236; 106 48; 
107 3; 108 8; 109 11; 110 93; 111 9; 
112 1; 115 9; 116 4; 117 39; 118 93; 
119 22; 120 10; 121 1; 124 1; 127 1; 
128 4; 129 3; 130 78; 131 51; 132 165; 
133 29; 134 16; 135 2; 142 1; 143 5; 
144 30; 145 25; 146 44; 147 7; 148 5; 
149 5; 150 4; 153 5; 154 1; 155 1; 
156 2; 157 2; 158 13; 159 18; 160 549; 
161 66; 162 10; 163 1; 170 2; 171 1; 
172 65; 173 11; 174 28; 175 4; 176 1; 
184 4; 185 1; 186 5; 187 3; 188 1; 
190 1; 193 1; 198 5; 199 3; 200 20; 
201 19; 202 39; 203 343; 204 58; 205 3; 
207 4; 214 1; 215 1; 216 226; 217 36; 
218 1; 230 3; 243 1; 245 2; 254 1; 
257 3; 259 999; 260 170; 261 15; 262 1; 
265 1; 293 4; 327 1; 348 2; 349 1; 
