Name: Thymol
Synon: 3-Methyl-6-isopropylphenol
Synon: 5-Methyl-2-isopropylphenol
InChIKey: MGSRCZKZVOBKFT-UHFFFAOYSA-N
Formula: C10H14O
MW: 150
ExactMass: 150.1044655
CASNO: 89838
ID: 1397
Comment: AAFS / Probability Based Matching Data Base Entry
Num Peaks: 82
41 18; 42 2; 43 9; 44 2; 45 2; 
50 10; 51 35; 52 14; 53 21; 54 3; 
55 13; 56 1; 57 9; 59 3; 60 2; 
61 1; 62 6; 63 23; 64 8; 65 39; 
66 23; 67 18; 69 3; 70 2; 71 2; 
72 1; 73 4; 74 11; 75 5; 76 5; 
77 71; 78 23; 79 41; 80 4; 81 3; 
82 1; 83 1; 86 2; 88 1; 89 14; 
90 5; 91 170; 92 18; 93 7; 94 4; 
95 4; 97 1; 101 2; 102 11; 103 16; 
104 3; 105 40; 106 6; 107 57; 108 9; 
109 9; 110 1; 115 136; 116 35; 117 58; 
118 8; 119 8; 120 8; 121 25; 122 3; 
123 1; 127 2; 128 5; 129 3; 131 4; 
132 1; 133 17; 134 14; 135 999; 136 101; 
137 7; 146 1; 148 1; 149 4; 150 305; 
151 34; 152 2; 
