Name: Estrone
Synon: Esterone
Synon: 3-Hydroxyestra-1,3,5(10)-trien-17-one
InChIKey: DNXHEGUUPJUMQT-UHFFFAOYSA-N
Formula: C18H22O2
MW: 270
ExactMass: 270.16198
CASNO: 53167
ID: 1400
Comment: AAFS / Probability Based Matching Data Base Entry
Num Peaks: 142
42 16; 43 49; 44 9; 45 16; 51 14; 
53 23; 54 12; 55 80; 56 20; 57 65; 
60 10; 63 10; 65 28; 66 9; 67 45; 
68 15; 69 42; 70 22; 71 75; 73 14; 
76 10; 77 64; 78 21; 79 57; 80 10; 
81 38; 82 23; 83 43; 84 19; 85 78; 
86 11; 89 18; 91 87; 92 29; 93 23; 
94 12; 95 24; 96 11; 97 64; 98 41; 
99 44; 100 13; 102 12; 103 31; 104 11; 
105 49; 106 9; 107 78; 108 23; 109 14; 
110 13; 111 21; 112 11; 113 22; 114 12; 
115 126; 116 44; 117 38; 118 9; 119 16; 
120 76; 121 38; 122 8; 123 28; 124 10; 
125 22; 126 14; 127 75; 128 56; 129 41; 
130 11; 131 105; 132 36; 133 116; 134 22; 
135 15; 139 9; 140 11; 141 48; 142 14; 
143 14; 144 87; 145 150; 146 290; 147 72; 
148 9; 149 16; 150 13; 151 10; 152 22; 
153 18; 154 12; 155 18; 157 120; 158 100; 
159 123; 160 118; 161 20; 165 18; 166 10; 
167 14; 168 8; 169 21; 170 53; 171 55; 
172 182; 173 51; 174 12; 178 8; 181 12; 
183 18; 184 16; 185 238; 186 77; 187 14; 
195 13; 196 8; 197 20; 198 13; 199 44; 
200 18; 209 10; 210 13; 211 49; 212 17; 
213 146; 214 65; 215 8; 223 7; 224 9; 
225 12; 226 39; 227 20; 228 9; 237 24; 
241 12; 242 33; 255 10; 269 22; 270 999; 
271 201; 272 26; 
