Name: Cholestanol
Synon: Cholestan-3-ol, (3.beta.,5.alpha.)-
Synon: 5.alpha.-Cholestan-3.beta.-ol
Synon: .beta.-Cholestanol
Synon: Cholestan-3.beta.-ol
Synon: Dihydrocholesterin
Synon: Dihydrocholesterol
Synon: Zymostanol
Synon: 3.beta.-Hydroxy-5.alpha.-cholestane
Synon: 3.beta.-Hydroxycholestane
Synon: 5.alpha.-Cholestanol
Synon: 5.alpha.-Dihydrocholesterol
Synon: Coprostan-3.beta.-ol
Synon: 3-.beta.-Cholestanol
Synon: Cholestan-3-ol
InChIKey: QYIXCDOBOSTCEI-UHFFFAOYSA-N
Formula: C27H48O
MW: 388
ExactMass: 388.370516
CASNO: 80977
ID: 1401
Comment: AAFS / Probability Based Matching Data Base Entry
Num Peaks: 136
42 31; 43 443; 44 26; 53 49; 54 26; 
55 368; 56 40; 57 293; 58 25; 65 35; 
66 25; 67 478; 68 106; 69 349; 70 60; 
71 190; 77 154; 78 33; 79 581; 80 116; 
81 698; 82 176; 83 290; 84 27; 85 43; 
91 504; 92 100; 93 676; 94 241; 95 830; 
96 120; 97 231; 98 25; 103 21; 104 16; 
105 393; 106 241; 107 915; 108 662; 109 493; 
110 100; 111 166; 112 25; 115 38; 117 71; 
118 37; 119 303; 120 203; 121 526; 122 334; 
123 356; 124 269; 125 86; 128 29; 129 25; 
131 103; 132 36; 133 272; 134 183; 135 376; 
136 190; 137 154; 138 68; 139 18; 143 15; 
145 174; 146 71; 147 364; 148 190; 149 316; 
150 50; 151 53; 152 27; 157 15; 159 111; 
160 59; 161 188; 162 87; 163 86; 164 50; 
165 606; 166 239; 167 36; 173 94; 174 36; 
175 83; 176 31; 177 46; 178 50; 179 21; 
187 66; 188 36; 189 53; 190 106; 191 64; 
192 31; 193 17; 201 154; 202 36; 203 30; 
204 23; 205 37; 206 41; 207 19; 208 19; 
215 999; 216 402; 217 326; 218 47; 219 113; 
220 31; 229 24; 230 64; 231 56; 232 50; 
233 737; 234 587; 235 90; 247 28; 248 72; 
249 18; 257 37; 262 113; 263 33; 275 17; 
285 15; 288 22; 331 48; 355 115; 356 44; 
370 15; 373 275; 374 80; 388 433; 389 134; 
390 17; 
