Name: Aspartame
Synon: Nutrasweet
Synon: Equal
Synon: 3-Amino-N-(.alpha.-carboxyphenethyl)succinamic acid N-methyl ester
InChIKey: IAOZJIPTCAWIRG-UHFFFAOYSA-N
Formula: C14H18N2O5
MW: 294
ExactMass: 294.121572
CASNO: 22839470
ID: 1402
Comment: AAFS / Unverified / Probability Based Matching Data Base Entry
Num Peaks: 184
40 12; 41 95; 42 115; 43 233; 44 48; 
45 75; 46 40; 47 13; 49 8; 50 19; 
51 25; 52 12; 53 34; 54 16; 55 131; 
56 52; 57 155; 58 31; 59 39; 60 155; 
61 90; 62 11; 63 22; 64 9; 65 74; 
66 14; 67 36; 68 44; 69 176; 70 345; 
71 233; 72 37; 73 313; 74 42; 75 19; 
76 17; 77 85; 78 37; 79 26; 80 16; 
81 57; 82 25; 83 68; 84 38; 85 170; 
86 59; 87 71; 88 999; 89 103; 90 37; 
91 393; 92 62; 93 22; 94 11; 95 46; 
96 41; 97 174; 98 63; 99 65; 100 14; 
101 48; 102 59; 103 126; 104 45; 105 32; 
106 8; 107 15; 108 7; 109 33; 110 22; 
111 43; 112 21; 113 38; 114 20; 115 50; 
116 23; 117 22; 118 36; 119 41; 120 142; 
121 49; 122 12; 123 16; 124 11; 125 20; 
126 43; 127 59; 128 44; 129 20; 130 22; 
131 101; 132 22; 133 30; 134 9; 135 16; 
136 6; 137 10; 138 9; 139 14; 140 11; 
141 12; 142 8; 143 21; 144 33; 145 59; 
146 37; 147 29; 148 15; 149 71; 150 13; 
151 8; 152 7; 153 8; 154 7; 155 12; 
156 4; 157 7; 158 4; 159 12; 160 5; 
161 26; 162 66; 163 43; 164 7; 165 8; 
166 5; 167 9; 168 5; 169 6; 170 3; 
171 7; 172 3; 173 13; 175 9; 176 4; 
177 5; 178 7; 179 3; 180 5; 181 4; 
182 4; 183 3; 184 2; 185 8; 186 2; 
187 2; 188 3; 189 5; 190 27; 191 19; 
192 4; 193 4; 195 3; 196 3; 197 2; 
199 3; 200 2; 201 3; 202 2; 203 4; 
205 3; 206 14; 207 88; 208 17; 209 4; 
210 2; 211 4; 213 2; 215 2; 217 3; 
218 2; 223 3; 224 2; 228 2; 229 2; 
234 1; 235 15; 236 3; 239 2; 243 3; 
250 4; 251 3; 252 2; 253 2; 
