Name: 3,4-Methylenedioxypropiophenone
InChIKey: RVBJGSPBFIUTTR-UHFFFAOYSA-N
Formula: C10H10O3
MW: 178
ExactMass: 178.062994
CASNO: 28281494
ID: 1404
Comment: ENFSI / Lancaster 10153; precursor ALPHA
Num Peaks: 61
37 7; 38 13; 39 29; 40 3; 41 2; 
42 5; 43 1; 44 1; 46 1; 49 3; 
50 19; 51 31; 52 4; 53 25; 54 2; 
55 8; 57 9; 60 2; 61 17; 62 62; 
63 145; 64 16; 65 194; 66 10; 67 3; 
73 2; 74 21; 75 6; 76 4; 77 12; 
78 2; 79 9; 80 1; 81 1; 86 1; 
87 1; 89 4; 90 2; 91 68; 92 9; 
93 2; 102 1; 103 1; 104 1; 105 1; 
118 1; 119 16; 120 15; 121 242; 122 21; 
123 2; 135 4; 146 1; 147 4; 149 999; 
150 90; 151 9; 177 5; 178 247; 179 26; 
180 3; 
