Name: 3,4-Methylenedioxy-phenyl-2-nitropropene
InChIKey: CCEVJKZHAJJQJR-QPJJXVBHSA-N
Formula: C10H9NO4
MW: 207
ExactMass: 207.053158
CASNO: 5438415
ID: 1407
Comment: DEA SWL
Num Peaks: 113
40 8; 41 11; 42 8; 43 17; 44 1; 
46 5; 49 5; 50 99; 51 207; 52 55; 
53 68; 54 8; 55 16; 57 1; 61 18; 
62 81; 63 151; 64 28; 65 71; 66 21; 
67 30; 68 4; 69 19; 70 1; 73 7; 
74 71; 75 95; 76 145; 77 465; 78 58; 
79 68; 80 34; 81 12; 82 11; 83 2; 
84 1; 85 4; 86 12; 87 24; 88 23; 
89 30; 90 13; 91 83; 92 126; 93 56; 
94 9; 95 19; 96 4; 97 2; 98 10; 
99 4; 100 3; 101 40; 102 376; 103 999; 
104 125; 105 24; 106 18; 107 19; 108 29; 
109 10; 110 3; 111 2; 113 1; 114 2; 
115 9; 116 9; 117 7; 118 11; 119 52; 
120 34; 121 59; 122 57; 123 7; 124 2; 
125 2; 129 14; 130 22; 131 129; 132 24; 
133 7; 134 30; 135 10; 136 15; 137 54; 
138 28; 139 4; 144 1; 145 47; 146 19; 
147 89; 148 16; 149 122; 150 118; 151 11; 
152 1; 159 128; 160 620; 161 100; 162 21; 
163 2; 165 1; 174 13; 175 16; 176 16; 
177 5; 178 4; 190 3; 191 1; 192 1; 
207 332; 208 39; 209 4; 
