Name: 3,4-Methylenedioxyethylamphetamine
Synon: MDEA
Synon: MDE
Synon: N-Ethyl-MDA
Synon: PIHKAL #106
Synon: 3,4-Methylenedioxy-N-ethylamphetamine
Synon: N-Ethyl-alpha-methyl-3,4(methylenedioxy)-phenethylamine
InChIKey: PVXVWWANJIWJOO-UHFFFAOYSA-N
Formula: C12H17NO2
MW: 207
ExactMass: 207.125929
CASNO: 14089522
ID: 1411
Comment: DEA SWL
Num Peaks: 78
36 1; 38 3; 39 16; 40 2; 41 9; 
42 43; 43 9; 44 261; 45 5; 50 12; 
51 55; 52 10; 53 10; 54 2; 55 3; 
56 25; 57 4; 58 5; 62 4; 63 12; 
64 3; 65 9; 66 2; 67 2; 68 1; 
70 32; 71 6; 72 999; 73 45; 74 3; 
75 3; 76 7; 77 68; 78 20; 79 17; 
80 2; 82 3; 89 7; 90 2; 91 7; 
92 2; 93 1; 96 1; 102 3; 103 13; 
104 8; 105 20; 106 7; 107 2; 115 1; 
117 1; 118 3; 119 1; 120 1; 121 3; 
122 1; 131 5; 132 2; 133 4; 134 4; 
135 71; 136 17; 137 1; 146 1; 147 5; 
148 4; 149 2; 161 3; 162 5; 163 7; 
164 1; 176 1; 190 1; 191 1; 192 4; 
205 1; 206 2; 207 1; 
