Name: Mescaline
Synon: 3,4,5-Trimethoxyphenethylamine
Synon: PIHKAL #96
InChIKey: RHCSKNNOAZULRK-UHFFFAOYSA-N
Formula: C11H17NO3
MW: 211
ExactMass: 211.120843
CASNO: 54046
ID: 1415
Comment: DEA SWL / SWGDRUG Monograph available
Num Peaks: 78
40 11; 41 20; 42 12; 43 19; 44 2; 
45 10; 50 22; 51 46; 52 65; 53 60; 
54 5; 55 17; 62 9; 63 27; 64 34; 
65 56; 66 28; 67 20; 69 12; 75 4; 
76 12; 77 65; 78 57; 79 45; 80 47; 
81 20; 89 22; 90 30; 91 46; 92 23; 
93 25; 94 14; 95 41; 96 4; 104 10; 
105 31; 106 40; 107 79; 108 24; 109 32; 
110 9; 118 7; 119 9; 120 39; 121 44; 
122 30; 123 43; 124 40; 125 11; 134 15; 
135 26; 136 95; 137 71; 138 30; 139 100; 
140 3; 147 4; 148 153; 149 26; 150 10; 
151 170; 152 32; 153 17; 164 6; 165 29; 
166 15; 167 565; 168 64; 169 4; 179 11; 
180 4; 181 484; 182 999; 183 102; 184 11; 
194 11; 211 177; 212 19; 
