Name: 3,4-(Methylenedioxy)benzylmethylketoxime
InChIKey: OHIFAOJHDDQCEV-YRNVUSSQSA-N
Formula: C10H11NO3
MW: 193
ExactMass: 193.073894
CASNO: 52271428
ID: 1416
Comment: ENFSI
Num Peaks: 99
37 13; 38 34; 39 94; 40 29; 41 37; 
42 161; 43 18; 44 122; 45 5; 49 7; 
50 102; 51 290; 52 50; 53 50; 54 8; 
55 11; 56 3; 57 3; 58 16; 60 3; 
61 10; 62 43; 63 72; 64 20; 65 58; 
66 18; 67 26; 68 8; 69 2; 71 1; 
72 1; 73 6; 74 32; 75 38; 76 89; 
77 371; 78 142; 79 79; 80 21; 81 5; 
82 4; 85 2; 86 3; 87 5; 88 4; 
89 20; 90 14; 91 34; 92 11; 93 14; 
94 6; 95 3; 101 3; 102 21; 103 33; 
104 46; 105 138; 106 84; 107 38; 108 15; 
109 2; 115 2; 116 11; 117 32; 118 143; 
119 28; 120 5; 121 16; 122 27; 123 5; 
129 2; 130 10; 131 9; 132 8; 134 111; 
135 999; 136 263; 137 30; 138 3; 144 1; 
146 348; 147 46; 148 13; 149 17; 150 9; 
151 6; 152 5; 160 153; 161 42; 162 20; 
163 2; 174 35; 175 24; 176 51; 177 121; 
178 17; 193 587; 194 69; 195 8; 
