Name: Safrole
Synon: 3,4-Methylenedioxy-allybenzene
InChIKey: ZMQAAUBTXCXRIC-UHFFFAOYSA-N
Formula: C10H10O2
MW: 162
ExactMass: 162.06808
CASNO: 94597
ID: 1419
Comment: DEA SWL / Aldrich lot S20-8
Num Peaks: 77
40 13; 41 18; 42 5; 43 4; 44 1; 
45 2; 50 117; 51 300; 52 74; 53 60; 
54 6; 55 16; 56 1; 61 24; 62 73; 
63 150; 64 29; 65 68; 66 20; 67 11; 
68 3; 69 1; 73 12; 74 56; 75 55; 
76 83; 77 436; 78 278; 79 95; 80 19; 
81 9; 85 3; 86 7; 87 10; 88 4; 
89 36; 90 11; 91 103; 92 24; 93 5; 
94 2; 97 1; 98 6; 99 2; 100 1; 
101 13; 102 100; 103 482; 104 601; 105 153; 
106 24; 107 7; 108 3; 115 25; 116 7; 
117 5; 118 3; 119 29; 120 8; 121 23; 
122 7; 129 2; 131 513; 132 139; 133 36; 
135 336; 136 35; 137 2; 145 3; 146 1; 
147 9; 148 2; 159 3; 161 263; 162 999; 
163 119; 164 10; 
