Name: Estriol
Synon: Estra-1,3,5(10)-trien-3,16.alpha.,17.beta.-triol
Synon: 3,16.alpha.,17.beta.-Trihydroxy-.delta.-1,3,5-estratriene
InChIKey: PROQIPRRNZUXQM-UHFFFAOYSA-N
Formula: C18H24O3
MW: 288
ExactMass: 288.172544
CASNO: 50271
ID: 1424
Comment: AAFS / Probability Based Matching Data Base Entry
Num Peaks: 138
42 14; 43 60; 44 13; 45 17; 51 11; 
53 24; 55 67; 56 13; 57 40; 60 24; 
63 10; 65 30; 66 10; 67 37; 69 31; 
70 10; 71 30; 73 11; 77 94; 78 24; 
79 70; 80 12; 81 59; 82 14; 83 32; 
84 15; 85 14; 89 20; 91 111; 92 23; 
93 27; 94 14; 95 57; 96 17; 97 28; 
98 14; 99 11; 102 13; 103 41; 104 16; 
105 70; 106 12; 107 118; 108 32; 109 25; 
110 38; 111 13; 115 139; 116 44; 117 52; 
118 10; 119 26; 120 45; 121 52; 122 12; 
123 12; 126 13; 127 80; 128 67; 129 45; 
130 12; 131 143; 132 65; 133 212; 134 46; 
135 15; 137 20; 139 12; 141 53; 142 16; 
143 16; 144 109; 145 196; 146 252; 147 127; 
148 19; 149 14; 152 25; 153 22; 155 18; 
157 153; 158 131; 159 241; 160 272; 161 92; 
162 14; 165 28; 167 14; 169 18; 170 24; 
171 47; 172 132; 173 68; 174 14; 179 11; 
181 17; 182 10; 183 35; 184 32; 185 89; 
186 33; 187 10; 195 17; 196 12; 197 36; 
198 27; 199 53; 200 22; 201 108; 202 75; 
203 15; 209 11; 210 12; 211 41; 212 20; 
213 200; 214 72; 215 19; 216 17; 223 11; 
225 16; 226 15; 227 22; 228 12; 237 20; 
239 10; 241 21; 242 16; 243 13; 251 10; 
260 13; 269 11; 270 17; 286 12; 287 14; 
288 999; 289 219; 290 23; 
