Name: 3,4,5-Trimethoxybenzaldehyde
InChIKey: OPHQOIGEOHXOGX-UHFFFAOYSA-N
Formula: C10H12O4
MW: 196
ExactMass: 196.073559
CASNO: 86817
ID: 1426
Comment: DEA SWL
Num Peaks: 96
40 5; 41 11; 42 1; 43 12; 45 7; 
49 8; 50 49; 51 75; 52 17; 53 66; 
54 7; 55 10; 56 1; 57 2; 59 9; 
60 1; 61 10; 62 24; 63 32; 64 13; 
65 85; 66 67; 67 62; 68 5; 69 8; 
73 1; 74 8; 75 18; 76 15; 77 79; 
78 21; 79 60; 80 10; 81 31; 82 40; 
83 3; 84 1; 85 1; 90 1; 91 7; 
92 19; 93 147; 94 22; 95 171; 96 14; 
97 13; 98 1; 103 2; 104 9; 105 13; 
106 9; 107 31; 108 21; 109 37; 110 290; 
111 18; 112 1; 119 24; 120 10; 121 35; 
122 20; 123 58; 124 13; 125 348; 126 27; 
127 2; 132 1; 133 2; 134 6; 135 67; 
136 60; 137 34; 138 55; 139 10; 148 2; 
149 10; 150 13; 151 12; 152 18; 153 62; 
154 4; 163 5; 164 1; 165 30; 166 26; 
167 8; 168 2; 179 16; 180 12; 181 454; 
182 42; 183 5; 195 60; 196 999; 197 107; 
198 12; 
