Name: 3,4,5-Trimethoxybenzylcyanide
Synon: 3,4,5-Trimethoxybenzylnitrile
InChIKey: ACFJNTXCEQCDBX-UHFFFAOYSA-N
Formula: C11H13NO3
MW: 207
ExactMass: 207.089543
CASNO: 13338631
ID: 1428
Comment: DEA WRL
Num Peaks: 110
42 9; 43 14; 45 13; 49 8; 50 68; 
51 141; 52 51; 53 72; 54 9; 55 7; 
56 4; 57 1; 59 5; 61 11; 62 32; 
63 106; 64 65; 65 50; 66 43; 67 25; 
68 6; 69 11; 73 3; 74 11; 75 26; 
76 52; 77 123; 78 250; 79 72; 80 18; 
81 18; 82 4; 85 1; 86 1; 87 5; 
88 10; 89 45; 90 78; 91 52; 92 30; 
93 47; 94 42; 95 28; 96 19; 97 1; 
101 3; 102 9; 103 23; 104 66; 105 27; 
106 35; 107 26; 108 49; 109 39; 110 5; 
114 2; 115 8; 116 25; 117 10; 118 5; 
119 24; 120 40; 121 75; 122 17; 123 10; 
124 224; 125 18; 126 1; 130 14; 131 20; 
132 147; 133 41; 134 184; 135 20; 136 53; 
137 106; 138 13; 144 2; 145 3; 146 62; 
147 65; 148 24; 149 280; 150 31; 151 7; 
152 6; 159 2; 160 8; 161 20; 162 8; 
164 345; 165 41; 166 4; 173 7; 174 4; 
175 1; 176 30; 177 34; 178 2; 181 15; 
182 1; 190 11; 191 36; 192 999; 193 117; 
194 12; 196 3; 207 985; 208 128; 209 13; 
