Name: Arachidonic Acid
Synon: Fatty Acid: Arachidonic
Synon: 5Z,8Z,11Z,14Z)-5,8,11,14-Icosatetraenoic acid
InChIKey: YZXBAPSDXZZRGB-DOFZRALJSA-N
Formula: C20H32O2
MW: 304
ExactMass: 304.24023
CASNO: 506321
ID: 1429
Comment: AAFS
Num Peaks: 159
43 142; 44 7; 45 30; 50 3; 51 21; 
52 13; 53 90; 54 81; 55 299; 56 22; 
57 65; 58 4; 59 11; 60 94; 61 4; 
63 4; 65 103; 66 128; 67 598; 68 77; 
69 143; 70 20; 71 64; 72 4; 73 57; 
74 15; 77 309; 78 228; 79 999; 80 724; 
81 338; 82 67; 83 47; 84 20; 85 51; 
86 4; 87 15; 88 19; 89 7; 91 653; 
92 221; 93 539; 94 199; 95 159; 96 68; 
97 32; 98 7; 99 11; 101 7; 102 7; 
103 25; 104 90; 105 350; 106 278; 107 179; 
108 43; 109 57; 110 19; 111 9; 112 3; 
113 9; 114 4; 115 32; 116 12; 117 96; 
118 31; 119 251; 120 115; 121 117; 122 26; 
123 26; 124 12; 125 5; 126 7; 127 13; 
128 13; 129 31; 130 23; 131 80; 132 25; 
133 164; 134 31; 135 65; 136 21; 137 14; 
138 7; 139 4; 140 10; 141 11; 142 5; 
143 9; 144 8; 145 32; 146 25; 147 78; 
148 17; 149 27; 150 152; 151 26; 152 15; 
153 5; 155 5; 157 15; 158 3; 159 18; 
160 11; 161 47; 162 11; 163 18; 164 59; 
165 20; 166 93; 167 21; 168 3; 169 6; 
171 5; 173 14; 174 3; 175 33; 176 14; 
177 42; 178 14; 179 10; 180 25; 181 3; 
183 15; 184 3; 185 3; 187 12; 189 12; 
190 17; 191 7; 192 6; 193 33; 194 8; 
197 7; 201 11; 203 25; 204 4; 205 8; 
206 42; 207 11; 215 3; 217 24; 218 6; 
219 16; 220 6; 221 3; 224 6; 231 4; 
233 23; 234 8; 236 6; 247 11; 250 9; 
261 3; 263 3; 275 2; 304 3; 
