Name: Mazindol (or breakdown)
Synon: 5-p-Chlorophenyl-2,3-dihydro-5H-imidazo(2,1-a)isoindol-5-ol
InChIKey: ZPXSCAKFGYXMGA-UHFFFAOYSA-N
Formula: C16H13ClN2O
MW: 284
ExactMass: 284.07164
CASNO: 22232719
ID: 1431
Comment: DEA SWL
Num Peaks: 176
40 7; 41 8; 42 26; 43 9; 44 10; 
49 1; 50 37; 51 37; 52 8; 53 2; 
58 1; 61 4; 62 14; 63 37; 64 11; 
65 10; 66 2; 68 1; 69 3; 70 2; 
72 1; 73 4; 74 24; 75 101; 76 55; 
77 40; 78 5; 82 20; 84 3; 85 9; 
86 8; 87 18; 88 32; 89 88; 90 44; 
91 12; 92 2; 93 2; 95 3; 96 21; 
97 2; 98 5; 99 10; 100 6; 101 22; 
102 125; 103 36; 104 11; 105 3; 106 2; 
110 21; 111 118; 112 12; 113 43; 114 12; 
115 26; 116 27; 117 31; 118 5; 119 12; 
120 3; 122 2; 123 3; 124 5; 125 13; 
126 8; 127 9; 128 22; 129 18; 130 100; 
131 10; 132 1; 133 8; 134 4; 135 1; 
136 2; 137 13; 138 18; 139 48; 140 13; 
141 14; 142 10; 143 9; 144 4; 145 1; 
146 1; 149 6; 150 17; 151 24; 152 18; 
153 4; 154 1; 155 10; 156 3; 157 15; 
158 2; 160 1; 161 3; 162 8; 163 62; 
164 62; 165 104; 166 19; 167 2; 171 27; 
172 4; 173 52; 174 10; 175 8; 176 24; 
177 44; 178 13; 179 4; 186 1; 188 6; 
189 5; 190 37; 191 25; 192 33; 193 13; 
194 2; 197 1; 198 3; 199 46; 200 8; 
201 20; 202 6; 203 12; 204 16; 205 7; 
206 3; 211 2; 212 25; 213 5; 214 9; 
215 2; 216 1; 217 1; 218 4; 219 32; 
220 31; 221 9; 222 1; 224 2; 225 1; 
226 10; 227 11; 228 9; 229 10; 230 6; 
231 23; 232 6; 233 2; 238 9; 239 3; 
240 7; 241 4; 242 2; 253 36; 254 18; 
255 999; 256 180; 257 323; 258 54; 259 4; 
265 23; 266 105; 267 39; 268 46; 269 13; 
270 5; 282 1; 283 7; 284 10; 285 4; 
286 2; 
