Name: 5-Methyltryptamine
InChIKey: PYOUAIQXJALPKW-UHFFFAOYSA-N
Formula: C11H14N2
MW: 174
ExactMass: 174.115699
CASNO: 1821472
ID: 1432
Comment: DEA SWL
Num Peaks: 66
40 2; 41 4; 42 2; 44 2; 50 8; 
51 20; 52 9; 53 4; 54 3; 58 2; 
59 5; 61 1; 62 8; 63 23; 64 6; 
65 18; 66 2; 71 2; 72 7; 74 6; 
75 10; 76 12; 77 26; 78 10; 79 3; 
85 2; 86 5; 87 5; 88 6; 89 22; 
90 7; 91 45; 92 4; 101 9; 102 22; 
103 11; 104 4; 113 5; 115 148; 116 37; 
117 21; 118 3; 126 3; 127 7; 128 30; 
129 25; 130 42; 131 10; 132 2; 140 6; 
141 13; 142 108; 143 169; 144 999; 145 437; 
146 48; 147 3; 154 5; 155 2; 156 12; 
157 8; 158 4; 171 2; 172 5; 174 135; 
175 15; 
