Name: 5-Methoxytryptamine
InChIKey: JTEJPPKMYBDEMY-UHFFFAOYSA-N
Formula: C11H14N2O
MW: 190
ExactMass: 190.110613
CASNO: 608071
ID: 1433
Comment: DEA SWL / Aldrich lot M2,6054
Num Peaks: 84
40 1; 41 2; 42 2; 43 1; 50 8; 
51 16; 52 12; 53 5; 54 2; 59 2; 
60 1; 61 2; 62 11; 63 32; 64 11; 
65 12; 66 3; 67 1; 73 3; 74 9; 
75 14; 76 16; 77 27; 78 10; 79 3; 
80 4; 86 3; 87 7; 88 6; 89 79; 
90 73; 91 23; 92 5; 93 1; 95 1; 
98 1; 99 1; 100 2; 101 10; 102 26; 
103 21; 104 12; 105 3; 113 1; 114 3; 
115 8; 116 43; 117 247; 118 59; 119 7; 
127 2; 128 23; 129 22; 130 49; 131 9; 
132 10; 133 3; 140 1; 141 1; 142 2; 
143 5; 144 25; 145 295; 146 135; 147 18; 
148 2; 155 3; 156 4; 157 3; 158 12; 
159 22; 160 999; 161 560; 162 59; 163 4; 
171 1; 172 2; 173 7; 174 4; 175 1; 
188 2; 190 195; 191 24; 192 1; 
