Name: 5-Methoxyindole
InChIKey: DWAQDRSOVMLGRQ-UHFFFAOYSA-N
Formula: C9H9NO
MW: 147
ExactMass: 147.068414
CASNO: 1006946
ID: 1434
Comment: DEA SWL / Spectrum lot PK0938
Num Peaks: 58
40 3; 41 5; 43 1; 49 7; 50 83; 
51 136; 52 61; 53 24; 54 5; 55 1; 
58 1; 59 8; 60 1; 61 16; 62 50; 
63 78; 64 17; 65 19; 66 3; 74 33; 
75 38; 76 127; 77 219; 78 100; 79 8; 
80 6; 81 2; 84 1; 85 8; 86 17; 
87 21; 88 23; 89 98; 90 30; 91 19; 
92 2; 99 1; 100 1; 102 30; 103 110; 
104 999; 105 79; 106 3; 114 11; 115 14; 
116 58; 117 48; 118 27; 119 15; 120 1; 
130 1; 132 851; 133 78; 134 5; 144 2; 
147 948; 148 96; 149 6; 
