Name: 5-Methoxygramine
InChIKey: GOERTRUXQHDLHC-UHFFFAOYSA-N
Formula: C12H16N2O
MW: 204
ExactMass: 204.126264
CASNO: 16620523
ID: 1435
Comment: DEA SWL / Aldrich lot M1,487-0
Num Peaks: 92
40 3; 41 4; 42 35; 43 10; 44 38; 
45 16; 46 2; 50 8; 51 15; 52 9; 
53 4; 54 1; 56 1; 57 6; 58 21; 
61 3; 62 14; 63 41; 64 10; 65 9; 
66 3; 67 2; 72 2; 73 3; 74 9; 
75 15; 76 13; 77 17; 78 8; 79 4; 
80 10; 81 5; 85 1; 86 5; 87 8; 
88 9; 89 86; 90 52; 91 15; 92 3; 
93 1; 94 7; 98 2; 99 1; 100 2; 
101 12; 102 23; 103 12; 104 8; 105 2; 
106 1; 114 4; 115 6; 116 78; 117 156; 
118 35; 119 7; 120 1; 127 1; 128 23; 
129 21; 130 41; 131 9; 132 8; 133 5; 
142 2; 143 4; 144 102; 145 191; 146 42; 
147 8; 148 1; 155 1; 156 1; 157 4; 
158 8; 159 244; 160 999; 161 170; 162 18; 
163 1; 171 1; 172 3; 173 4; 174 1; 
187 6; 188 10; 189 3; 203 24; 204 187; 
205 25; 206 2; 
