Name: 5-Methoxy-N,N-Dimethyltryptamine
Synon: 5-MeO-N,N-DMT
Synon: 5-MeO-DMT
Synon: TIHKAL #38
Synon: 5-Methoxy-3-[2-(dimethylamino)ethyl]indole
InChIKey: ZSTKHSQDNIGFLM-UHFFFAOYSA-N
Formula: C13H18N2O
MW: 218
ExactMass: 218.141913
CASNO: 1019450
ID: 1436
Comment: DEA SWL
Num Peaks: 84
40 1; 41 3; 42 42; 43 10; 44 3; 
50 3; 51 8; 52 5; 53 3; 54 1; 
56 5; 58 999; 59 38; 62 4; 63 13; 
64 4; 65 4; 66 1; 70 1; 74 3; 
75 6; 76 8; 77 18; 78 6; 79 2; 
80 2; 86 2; 87 4; 88 3; 89 28; 
90 23; 91 5; 92 1; 100 1; 101 5; 
102 13; 103 15; 104 7; 105 1; 113 1; 
114 2; 115 10; 116 16; 117 67; 118 9; 
119 1; 127 1; 128 9; 129 7; 130 34; 
131 12; 132 4; 133 1; 140 1; 141 1; 
142 4; 143 9; 144 11; 145 59; 146 9; 
147 1; 155 1; 156 1; 157 2; 158 11; 
159 14; 160 87; 161 10; 162 1; 170 1; 
171 1; 172 3; 173 10; 174 17; 175 2; 
185 1; 187 2; 201 1; 202 1; 215 1; 
216 2; 218 110; 219 16; 220 1; 
