Name: Serotonin
Synon: 5-Hydroxytryptamine
Synon: 5-HT
InChIKey: QZAYGJVTTNCVMB-UHFFFAOYSA-N
Formula: C10H12N2O
MW: 176
ExactMass: 176.094963
CASNO: 50679
ID: 1438
Comment: DEA SWL / Aldrich lot 08107KO
Num Peaks: 68
40 5; 41 6; 42 5; 43 3; 44 3; 
50 12; 51 27; 52 21; 53 12; 54 5; 
55 5; 59 6; 61 3; 62 11; 63 42; 
64 15; 65 68; 66 11; 67 3; 68 5; 
73 6; 74 9; 75 13; 76 8; 77 24; 
78 15; 79 7; 80 6; 86 3; 87 5; 
88 3; 89 62; 90 44; 91 111; 92 11; 
93 7; 95 5; 101 9; 102 9; 103 8; 
104 11; 105 8; 106 3; 115 4; 116 22; 
117 114; 118 58; 119 15; 120 4; 128 17; 
129 6; 130 17; 131 7; 132 3; 133 8; 
144 12; 146 999; 147 458; 148 51; 149 4; 
156 3; 157 2; 158 7; 159 9; 174 5; 
176 150; 177 16; 180 7; 
