Name: Chlorzoxazone
Synon: Chloroxazone
Synon: 5-Chlorobenzoxazolidone
Synon: Neoflex
InChIKey: TZFWDZFKRBELIQ-UHFFFAOYSA-N
Formula: C7H4ClNO2
MW: 169
ExactMass: 168.993056
CASNO: 95250
ID: 1443
Comment: AAFS / Probability Based Matching Data Base Entry
Num Peaks: 83
35 29; 36 149; 37 50; 38 67; 39 80; 
40 59; 41 31; 42 10; 43 20; 44 179; 
45 9; 46 2; 47 9; 48 9; 49 49; 
50 168; 51 204; 52 109; 53 28; 54 9; 
55 29; 56 13; 57 23; 58 9; 60 25; 
61 58; 62 94; 63 199; 64 27; 65 16; 
66 3; 70 10; 71 13; 72 16; 73 19; 
74 17; 75 46; 76 129; 77 59; 78 579; 
79 69; 80 9; 85 28; 86 47; 87 20; 
88 19; 89 21; 90 49; 91 20; 92 8; 
95 12; 96 9; 97 14; 98 44; 99 9; 
100 23; 101 2; 105 9; 106 23; 107 9; 
112 27; 113 554; 114 57; 115 167; 116 19; 
119 19; 125 44; 126 8; 127 19; 128 3; 
140 29; 141 18; 142 11; 143 17; 144 2; 
166 4; 167 9; 168 12; 169 999; 170 84; 
171 314; 172 40; 173 9; 
