Name: Clorexolone
Synon: 5-Chloro-2-cyclohexyl-1-oxo-6-sulphamoylisoindoline
InChIKey: VPMWFZKOWULPGT-UHFFFAOYSA-N
Formula: C14H17ClN2O3S
MW: 328
ExactMass: 328.06484
CASNO: 2127017
ID: 1444
Comment: AAFS
Num Peaks: 175
42 7; 43 16; 44 9; 48 8; 51 17; 
53 32; 54 52; 55 68; 56 7; 62 14; 
63 25; 64 43; 65 10; 66 11; 67 88; 
68 13; 69 8; 73 13; 74 7; 75 50; 
76 11; 77 22; 78 9; 79 21; 80 24; 
81 35; 82 85; 83 22; 86 7; 87 22; 
88 5; 89 31; 90 5; 91 11; 96 6; 
97 15; 99 11; 100 13; 101 10; 102 24; 
103 7; 104 23; 105 12; 108 6; 109 10; 
110 10; 111 14; 112 15; 113 6; 114 17; 
115 13; 116 8; 117 8; 118 7; 119 8; 
122 9; 123 61; 124 22; 125 33; 126 6; 
127 6; 128 15; 129 12; 130 20; 131 6; 
132 18; 133 8; 134 7; 135 6; 136 10; 
137 17; 138 19; 139 18; 140 17; 141 15; 
142 12; 143 6; 144 9; 145 6; 147 7; 
148 11; 149 9; 151 10; 152 15; 153 9; 
154 9; 155 6; 156 7; 157 7; 158 6; 
159 9; 162 5; 163 13; 164 40; 165 35; 
166 60; 167 62; 168 16; 169 17; 170 9; 
171 7; 176 7; 177 18; 178 12; 179 27; 
180 11; 181 11; 182 18; 183 7; 184 11; 
186 8; 187 15; 189 9; 191 12; 192 16; 
193 8; 194 7; 202 8; 204 15; 205 54; 
206 19; 207 30; 208 7; 211 13; 212 9; 
213 12; 218 5; 219 11; 220 8; 221 6; 
222 6; 225 6; 230 39; 231 29; 232 60; 
233 20; 234 17; 237 10; 243 10; 245 13; 
246 149; 247 999; 248 176; 249 354; 250 40; 
251 22; 255 5; 256 5; 257 7; 258 11; 
259 64; 260 21; 261 22; 262 11; 271 30; 
272 35; 273 25; 274 21; 275 6; 282 5; 
285 632; 286 107; 287 242; 288 25; 289 9; 
299 48; 300 10; 301 19; 303 9; 313 6; 
328 407; 329 71; 330 167; 331 24; 332 9; 
