Name: 5-Amino-1-phenylpyrazolo-4-carbonitrile
Synon: 5-amino-4-cyano-1-phenylpyrazole
InChIKey: MAKQREKUUHPPIS-UHFFFAOYSA-N
Formula: C10H8N4
MW: 184
ExactMass: 184.074896
CASNO: 5334430
ID: 1447
Comment: DEA SWL
Num Peaks: 80
40 17; 41 10; 42 2; 43 28; 44 2; 
49 3; 50 58; 51 257; 52 82; 53 22; 
54 8; 55 1; 61 4; 62 13; 63 40; 
64 56; 65 66; 66 37; 67 14; 73 1; 
74 11; 75 12; 76 24; 77 345; 78 61; 
79 15; 80 5; 81 3; 87 3; 88 10; 
89 5; 90 13; 91 74; 92 113; 93 22; 
94 11; 100 1; 101 5; 102 25; 103 85; 
104 77; 105 20; 106 3; 107 2; 108 3; 
113 1; 114 17; 115 29; 116 8; 117 5; 
118 26; 119 96; 120 8; 127 1; 128 9; 
129 61; 130 30; 131 26; 132 4; 133 6; 
140 6; 141 7; 142 30; 143 8; 144 9; 
145 1; 154 1; 155 31; 156 94; 157 87; 
158 114; 159 10; 167 9; 168 5; 169 4; 
182 7; 183 335; 184 999; 185 119; 186 7; 
