Name: DDT
Synon: p,p'-Dichlorodiphenyltrichloroethane
Synon: 4,4'-Dichlorodiphenyltrichloroethane
InChIKey: YVGGHNCTFXOJCH-UHFFFAOYSA-N
Formula: C14H9Cl5
MW: 352
ExactMass: 351.914688
CASNO: 50293
ID: 1454
Comment: AAFS / Probability Based Matching Data Base Entry
Num Peaks: 197
35 30; 36 155; 37 15; 38 63; 39 42; 
40 2; 41 7; 42 1; 43 3; 44 3; 
47 8; 49 7; 50 100; 51 100; 52 8; 
53 1; 55 5; 56 2; 57 3; 60 3; 
61 17; 62 35; 63 67; 64 7; 65 5; 
67 2; 68 5; 69 8; 70 3; 71 1; 
72 1; 73 29; 74 71; 75 159; 76 30; 
77 24; 78 2; 79 1; 80 2; 81 16; 
82 62; 83 3; 84 7; 85 20; 86 21; 
87 50; 88 90; 89 19; 90 1; 91 1; 
92 7; 93 13; 94 3; 96 1; 97 9; 
98 21; 99 55; 100 27; 101 33; 102 9; 
104 3; 105 41; 106 30; 107 8; 108 2; 
109 9; 110 15; 111 27; 112 8; 113 15; 
114 9; 115 9; 117 5; 119 6; 120 1; 
121 2; 122 9; 123 41; 124 24; 125 18; 
126 13; 127 4; 128 2; 132 1; 133 3; 
134 5; 135 21; 136 59; 137 23; 138 27; 
139 17; 140 3; 141 6; 142 1; 146 5; 
147 4; 148 7; 149 23; 150 29; 151 21; 
152 8; 153 1; 158 1; 159 6; 160 10; 
161 8; 162 9; 163 58; 164 58; 165 404; 
166 67; 167 6; 169 1; 170 15; 171 21; 
172 16; 173 23; 174 27; 175 41; 176 159; 
177 47; 178 18; 179 3; 180 1; 183 1; 
184 8; 185 4; 186 11; 187 2; 188 1; 
195 1; 196 2; 197 6; 198 7; 199 141; 
200 101; 201 79; 202 38; 203 12; 204 1; 
205 1; 206 17; 207 4; 208 16; 209 3; 
210 34; 211 28; 212 239; 213 43; 214 74; 
215 13; 233 9; 234 7; 235 999; 236 151; 
237 659; 238 103; 239 119; 240 19; 241 1; 
244 3; 245 3; 246 163; 247 89; 248 127; 
249 58; 250 31; 251 14; 252 2; 262 1; 
264 1; 280 8; 281 24; 282 107; 283 39; 
284 101; 285 23; 286 34; 287 9; 288 5; 
289 1; 316 27; 317 16; 318 37; 319 18; 
320 19; 321 11; 322 7; 323 4; 324 1; 
352 12; 353 1; 354 15; 355 3; 356 9; 
357 1; 358 5; 
