Name: 4-Aminosalicylic Acid
Synon: p-Aminosalicylic acid
InChIKey: WUBBRNOQWQTFEX-UHFFFAOYSA-N
Formula: C7H7NO3
MW: 153
ExactMass: 153.042593
CASNO: 65496
ID: 1456
Comment: AAFS / Probability Based Matching Data Base Entry
Num Peaks: 106
42 25; 43 22; 44 64; 45 23; 48 1; 
49 10; 50 42; 51 79; 52 156; 53 151; 
54 64; 55 45; 56 9; 57 21; 58 2; 
59 1; 60 6; 61 20; 62 40; 63 61; 
64 38; 65 40; 66 39; 67 28; 68 93; 
69 44; 70 21; 71 20; 72 1; 73 6; 
74 6; 75 8; 76 17; 77 20; 78 78; 
79 504; 80 478; 81 188; 82 68; 83 34; 
84 15; 85 12; 86 5; 87 3; 88 2; 
89 5; 90 11; 91 35; 92 14; 93 9; 
94 14; 95 15; 96 21; 97 23; 98 11; 
99 6; 100 5; 101 2; 103 1; 104 2; 
105 8; 106 32; 107 323; 108 88; 109 999; 
110 83; 111 16; 112 5; 113 3; 114 2; 
115 3; 116 1; 117 1; 118 1; 119 4; 
120 2; 121 4; 122 2; 123 5; 124 11; 
125 5; 126 2; 127 2; 128 1; 129 3; 
130 1; 133 2; 135 698; 136 95; 137 12; 
138 4; 139 2; 140 1; 141 1; 143 1; 
144 1; 145 1; 147 1; 148 1; 149 9; 
150 2; 151 2; 153 494; 154 46; 155 6; 
157 1; 
