Name: 4-Allyl-1,2-(dimethoxy)-benzene
InChIKey: ZYEMGPIYFIJGTP-UHFFFAOYSA-N
Formula: C11H14O2
MW: 178
ExactMass: 178.09938
CASNO: 93152
ID: 1460
Comment: ENFSI / PMK impurity (decomposition)
Num Peaks: 69
38 14; 39 111; 40 66; 41 83; 42 5; 
43 18; 44 24; 45 13; 50 42; 51 109; 
52 31; 53 49; 55 55; 57 29; 62 22; 
63 76; 64 23; 65 130; 66 25; 67 9; 
69 5; 74 12; 75 11; 76 20; 77 163; 
78 77; 79 144; 80 10; 89 46; 90 27; 
91 320; 92 53; 93 14; 94 11; 95 13; 
102 21; 103 287; 104 60; 105 120; 106 35; 
107 262; 108 27; 115 109; 116 24; 117 56; 
118 13; 119 43; 120 55; 121 26; 131 74; 
132 37; 133 24; 134 4; 135 113; 136 14; 
145 9; 146 31; 147 317; 148 42; 149 18; 
151 128; 152 19; 161 4; 162 6; 163 292; 
164 35; 178 999; 179 129; 180 4; 
