Name: 4-Hydroxy-4-phenylpiperidine
InChIKey: KQKFQBTWXOGINC-UHFFFAOYSA-N
Formula: C11H15NO
MW: 177
ExactMass: 177.115364
CASNO: 40807612
ID: 1469
Comment: DEA SWL / Aldrich lot H5,220-1
Num Peaks: 103
40 8; 41 38; 42 421; 43 187; 44 126; 
45 8; 46 1; 50 46; 51 145; 52 33; 
53 27; 54 11; 55 57; 56 381; 57 378; 
58 34; 59 2; 60 21; 61 2; 62 10; 
63 29; 64 8; 65 58; 66 8; 67 3; 
68 37; 69 4; 70 15; 71 7; 72 10; 
73 3; 74 19; 75 21; 76 36; 77 344; 
78 171; 79 29; 80 28; 81 17; 82 153; 
83 9; 84 2; 85 1; 86 4; 87 3; 
88 3; 89 24; 91 208; 92 29; 93 8; 
94 2; 96 2; 98 22; 99 15; 100 6; 
101 5; 102 30; 103 60; 104 48; 105 230; 
106 42; 107 8; 108 1; 113 1; 115 95; 
116 35; 117 60; 118 12; 120 68; 121 21; 
122 4; 126 3; 127 21; 128 45; 129 81; 
130 237; 131 100; 132 35; 133 41; 134 6; 
135 2; 141 5; 142 4; 143 10; 144 34; 
145 6; 146 9; 147 2; 148 20; 149 28; 
150 2; 154 3; 155 5; 156 14; 158 474; 
159 999; 160 123; 161 8; 162 6; 176 52; 
177 153; 178 21; 179 1; 
