Name: p-Tyramine
Synon: 4-hydroxyphenethylamine
InChIKey: DZGWFCGJZKJUFP-UHFFFAOYSA-N
Formula: C8H11NO
MW: 137
ExactMass: 137.084064
CASNO: 51672
ID: 1472
Comment: DEA SWL
Num Peaks: 66
40 12; 41 13; 42 21; 43 15; 44 1; 
49 4; 50 46; 51 102; 52 61; 53 90; 
54 11; 55 33; 56 2; 59 4; 61 7; 
62 23; 63 55; 64 15; 65 48; 66 18; 
67 8; 68 7; 69 1; 73 2; 74 12; 
75 9; 76 9; 77 357; 78 96; 79 68; 
80 31; 81 19; 82 1; 85 2; 86 3; 
87 3; 88 1; 89 25; 90 26; 91 71; 
92 9; 93 4; 94 11; 95 1; 101 2; 
102 1; 103 2; 104 4; 105 14; 106 12; 
107 614; 108 999; 109 74; 110 5; 116 2; 
117 5; 118 6; 119 11; 120 17; 121 2; 
133 2; 134 7; 135 12; 136 3; 137 135; 
138 12; 
