Name: 4-Piperidinol
Synon: 4-Hydroxypiperidine
InChIKey: HDOWRFHMPULYOA-UHFFFAOYSA-N
Formula: C5H11NO
MW: 101
ExactMass: 101.084064
CASNO: 5382161
ID: 1473
Comment: DEA SWL / Aldrich lot 11123CC
Num Peaks: 43
40 31; 41 126; 42 700; 43 397; 44 315; 
45 76; 46 9; 49 3; 50 16; 51 24; 
52 22; 53 53; 54 93; 55 273; 56 999; 
57 598; 58 51; 59 9; 60 14; 65 4; 
66 2; 67 29; 68 192; 69 14; 70 23; 
71 9; 72 139; 73 26; 74 1; 78 3; 
79 2; 80 31; 82 403; 83 156; 84 202; 
85 11; 86 7; 96 2; 98 5; 100 200; 
101 441; 102 27; 103 1; 
