Name: 4-Methylthiobenzaldehyde
InChIKey: QRVYABWJVXXOTN-UHFFFAOYSA-N
Formula: C8H8OS
MW: 152
ExactMass: 152.029586
CASNO: 3446897
ID: 1479
Comment: ENFSI / Fluka
Num Peaks: 82
36 2; 37 26; 38 41; 39 93; 40 6; 
41 3; 45 301; 46 37; 47 39; 48 7; 
49 19; 50 189; 51 173; 52 16; 53 12; 
54 3; 56 1; 57 23; 58 47; 59 8; 
60 7; 61 25; 62 48; 63 97; 64 16; 
65 118; 66 7; 68 5; 69 160; 70 13; 
71 19; 72 12; 73 19; 74 78; 75 51; 
76 52; 77 144; 78 61; 79 134; 80 13; 
81 29; 82 76; 83 12; 84 7; 85 4; 
86 5; 87 3; 89 13; 91 47; 92 9; 
93 14; 94 2; 95 5; 96 2; 97 23; 
98 1; 99 1; 104 12; 105 15; 106 8; 
107 15; 108 148; 109 159; 110 17; 111 7; 
119 2; 121 34; 122 10; 123 137; 124 41; 
125 9; 126 1; 135 8; 136 23; 137 7; 
138 1; 149 5; 151 935; 152 999; 153 133; 
154 49; 155 5; 
