Name: Benzylacetone
Synon: 4-phenyl-2-butanone
Synon: Phenethyl methyl ketone
InChIKey: AKGGYBADQZYZPD-UHFFFAOYSA-N
Formula: C10H12O
MW: 148
ExactMass: 148.088815
CASNO: 2550267
ID: 1481
Comment: ENFSI / precursor 1-methyl-3-phenylpropylamine
Num Peaks: 72
38 7; 39 55; 40 6; 41 9; 42 18; 
43 437; 44 11; 47 2; 49 3; 50 55; 
51 113; 52 27; 53 16; 54 2; 55 32; 
56 1; 61 2; 62 24; 63 60; 64 7; 
65 107; 66 7; 69 1; 70 1; 71 5; 
73 2; 74 23; 75 22; 76 19; 77 259; 
78 155; 79 150; 80 12; 83 10; 85 7; 
86 3; 87 5; 88 2; 89 38; 90 14; 
91 755; 92 75; 93 3; 98 1; 101 5; 
102 30; 103 175; 104 141; 105 999; 106 92; 
107 7; 115 50; 116 8; 117 2; 119 2; 
120 1; 121 4; 126 2; 127 4; 128 11; 
129 28; 130 15; 131 12; 132 4; 133 191; 
134 18; 145 3; 146 4; 147 46; 148 954; 
149 96; 150 3; 
