Name: 4-Phenylpyridine
InChIKey: JVZRCNQLWOELDU-UHFFFAOYSA-N
Formula: C11H9N
MW: 155
ExactMass: 155.0735
CASNO: 939231
ID: 1482
Comment: DEA SWL / Aldrich lot 05623TP
Num Peaks: 54
40 2; 41 1; 50 52; 51 87; 52 24; 
53 4; 61 8; 62 21; 63 52; 64 36; 
65 7; 73 5; 74 44; 75 45; 76 54; 
77 67; 78 26; 79 2; 85 3; 86 10; 
87 16; 88 6; 89 19; 90 2; 91 3; 
97 2; 98 12; 99 9; 100 9; 101 29; 
102 118; 103 15; 104 2; 110 1; 111 1; 
113 5; 115 101; 116 17; 117 1; 122 1; 
125 7; 126 67; 127 149; 128 156; 129 30; 
130 2; 140 52; 141 6; 151 1; 152 9; 
154 389; 155 999; 156 124; 157 6; 
