Name: Hydroquinidine
Synon: (9S)-10,11-Dihydro-6'-methoxycinchonan-9-ol
InChIKey: LJOQGZACKSYWCH-UHFFFAOYSA-N
Formula: C20H26N2O2
MW: 326
ExactMass: 326.199429
CASNO: 1435558
ID: 1485
Comment: AAFS
Num Peaks: 169
42 94; 43 28; 44 18; 51 8; 52 6; 
53 26; 54 28; 55 234; 56 78; 57 15; 
58 5; 63 10; 65 13; 67 51; 68 35; 
69 36; 70 51; 71 6; 75 8; 76 6; 
77 24; 78 8; 79 18; 80 21; 81 32; 
82 300; 83 62; 84 34; 85 5; 88 9; 
89 27; 90 26; 91 14; 93 9; 94 20; 
95 38; 96 35; 97 14; 98 7; 101 18; 
102 16; 103 10; 106 6; 107 6; 108 29; 
109 23; 110 340; 111 54; 112 11; 113 6; 
114 8; 115 21; 116 46; 117 103; 118 16; 
119 5; 122 17; 123 11; 124 34; 125 10; 
126 116; 127 19; 128 22; 129 20; 130 22; 
131 8; 135 7; 136 21; 138 999; 139 275; 
140 59; 141 13; 142 13; 143 15; 144 14; 
145 49; 146 18; 151 5; 152 65; 153 11; 
154 28; 155 20; 156 12; 157 11; 158 69; 
159 58; 160 150; 161 18; 166 18; 167 16; 
168 46; 169 28; 170 27; 171 9; 172 128; 
173 181; 174 126; 175 16; 176 14; 181 8; 
182 20; 183 20; 184 27; 185 22; 186 67; 
187 35; 188 104; 189 389; 190 42; 191 5; 
196 15; 197 12; 198 32; 199 23; 200 44; 
201 140; 202 51; 203 7; 210 10; 211 10; 
212 15; 213 17; 214 45; 215 17; 216 7; 
224 7; 225 9; 226 14; 227 17; 228 8; 
229 10; 237 5; 240 11; 241 10; 242 5; 
243 10; 251 10; 252 5; 253 6; 254 6; 
255 6; 257 5; 265 6; 266 5; 267 24; 
268 11; 269 75; 270 16; 271 5; 279 18; 
281 14; 283 16; 284 5; 285 52; 286 13; 
295 10; 297 193; 298 39; 299 6; 308 7; 
309 55; 310 12; 311 194; 312 46; 313 5; 
325 46; 326 576; 327 132; 328 16; 
