Name: Oleic Acid
Synon: Fatty Acid: Oleic
Synon: 9-Octadecenoic acid (Z)-
InChIKey: ZQPPMHVWECSIRJ-KTKRTIGZSA-N
Formula: C18H34O2
MW: 282
ExactMass: 282.25588
CASNO: 112801
ID: 1486
Comment: AAFS
Num Peaks: 152
42 107; 43 519; 44 25; 45 78; 51 6; 
52 7; 53 81; 54 242; 55 999; 56 362; 
57 392; 58 24; 59 32; 60 124; 61 13; 
65 24; 66 27; 67 361; 68 265; 69 819; 
70 383; 71 191; 72 13; 73 197; 74 19; 
77 22; 78 11; 79 95; 80 48; 81 360; 
82 329; 83 775; 84 470; 85 142; 86 14; 
87 78; 88 7; 91 33; 92 9; 93 45; 
94 56; 95 220; 96 364; 97 656; 98 381; 
99 75; 100 70; 101 99; 102 15; 105 17; 
106 9; 107 37; 108 46; 109 151; 110 214; 
111 286; 112 118; 113 52; 114 131; 115 57; 
116 12; 117 3; 118 3; 119 37; 120 13; 
121 42; 122 32; 123 157; 124 120; 125 135; 
126 55; 127 102; 128 23; 129 34; 130 6; 
131 3; 133 44; 134 43; 135 41; 136 24; 
137 102; 138 90; 139 73; 140 28; 141 17; 
142 6; 143 13; 144 3; 147 35; 148 34; 
149 25; 150 16; 151 81; 152 51; 153 38; 
154 19; 155 16; 156 4; 157 7; 161 22; 
162 10; 163 13; 164 11; 165 51; 166 40; 
167 20; 168 8; 169 17; 171 6; 172 3; 
175 12; 176 5; 177 6; 178 5; 179 32; 
180 37; 181 13; 182 4; 183 8; 185 6; 
186 7; 189 9; 190 4; 191 4; 192 4; 
193 21; 194 16; 195 7; 196 3; 199 6; 
200 4; 203 4; 207 24; 208 16; 209 4; 
213 3; 214 3; 217 3; 220 44; 221 42; 
222 53; 223 10; 235 32; 236 13; 239 6; 
246 10; 249 3; 264 162; 265 34; 266 6; 
282 27; 283 7; 
