Name: Triamcinolone Acetonide
Synon: Pregna-1,4-diene-3,20-dione, 9-fluoro-11,21-dihydroxy-16,17-[(1-methylethylidene)bis(oxy)]-, (11.beta.,16.alpha.)-
Synon: 9.alpha.-Fluoro-11.beta.,21-dihydroxy-16.alpha.,17-isopropylidenedioxy-1,4-pregnadiene,3,20-dione
Synon: 9.alpha.-Fluoro-16.alpha.-hydroxyprednisolone 16.alpha.,17.alpha.-acetonide
Synon: 9.alpha.-Fluoro-16.alpha.-17.alpha.-isopropyledenedioxyprednisolone
Synon: 9.alpha.-Fluoro-16.alpha.-17.alpha.-isopropylidenedioxy-.delta. -1-hydrocortisone
Synon: 9.alpha.-Fluoro-16-hydroxyprednisolone acetonide
InChIKey: YNDXUCZADRHECN-UHFFFAOYSA-N
Formula: C24H31FO6
MW: 434
ExactMass: 434.210466
CASNO: 76255
ID: 1489
Comment: AAFS / Probability Based Matching Data Base Entry
Num Peaks: 300
41 409; 42 132; 43 916; 44 59; 45 33; 
47 17; 49 9; 50 8; 51 35; 52 25; 
53 133; 54 87; 55 811; 56 119; 57 369; 
58 55; 59 635; 60 54; 61 55; 62 12; 
64 10; 65 119; 66 63; 67 317; 68 116; 
69 431; 70 122; 71 249; 72 22; 73 73; 
75 26; 77 315; 78 86; 79 310; 80 99; 
81 355; 82 177; 83 346; 84 133; 85 168; 
86 19; 87 44; 88 22; 89 26; 91 558; 
92 123; 93 198; 94 85; 95 286; 96 210; 
97 306; 98 138; 99 86; 100 21; 101 46; 
102 26; 103 95; 104 28; 105 152; 106 51; 
107 182; 108 72; 109 290; 110 121; 111 175; 
112 50; 113 67; 114 29; 115 190; 116 77; 
117 93; 118 20; 119 94; 120 67; 121 884; 
122 355; 123 194; 124 80; 125 95; 126 34; 
127 102; 128 93; 129 135; 130 45; 131 134; 
132 44; 133 158; 134 94; 135 292; 136 68; 
137 112; 138 70; 139 84; 140 28; 141 97; 
142 34; 143 76; 144 41; 145 124; 146 72; 
147 358; 148 64; 149 88; 150 72; 151 74; 
152 97; 153 84; 154 39; 155 51; 156 18; 
157 56; 158 60; 159 201; 160 119; 161 115; 
162 29; 163 64; 164 22; 165 84; 166 62; 
167 80; 168 25; 169 44; 170 19; 171 111; 
172 31; 173 76; 175 43; 176 20; 177 49; 
178 41; 179 68; 180 32; 181 57; 182 28; 
183 54; 184 25; 185 95; 186 37; 187 67; 
188 17; 189 47; 190 16; 191 73; 192 28; 
193 39; 194 38; 195 65; 196 42; 197 63; 
198 28; 199 69; 200 22; 201 26; 202 12; 
203 23; 204 12; 205 23; 206 15; 207 39; 
208 42; 209 112; 210 36; 211 77; 212 33; 
213 68; 214 24; 215 24; 216 8; 217 26; 
218 21; 219 42; 220 19; 221 64; 222 64; 
223 85; 224 67; 225 96; 226 90; 227 86; 
228 23; 229 27; 230 11; 231 18; 232 9; 
233 29; 234 22; 235 70; 236 103; 237 170; 
238 53; 239 73; 240 28; 241 54; 242 38; 
243 30; 244 17; 245 17; 246 21; 247 20; 
248 19; 249 39; 250 35; 251 129; 252 38; 
253 67; 254 27; 255 69; 256 28; 257 50; 
258 12; 259 33; 260 12; 261 97; 262 46; 
263 87; 264 48; 265 31; 266 11; 267 22; 
268 13; 269 46; 270 17; 271 29; 273 12; 
274 7; 275 14; 276 15; 277 31; 278 26; 
279 158; 280 40; 281 61; 282 16; 283 20; 
284 13; 285 21; 287 9; 289 12; 291 12; 
292 9; 293 10; 294 7; 295 14; 296 14; 
297 49; 298 13; 299 61; 300 15; 301 10; 
302 7; 305 8; 306 11; 307 10; 308 7; 
309 13; 310 10; 311 13; 312 10; 313 23; 
314 6; 315 14; 317 230; 318 51; 319 16; 
320 21; 321 13; 322 7; 323 6; 325 9; 
326 9; 327 13; 328 6; 329 17; 331 6; 
334 6; 337 9; 338 27; 339 16; 340 13; 
341 8; 354 6; 355 8; 356 13; 357 12; 
358 10; 359 8; 368 18; 369 9; 375 999; 
376 279; 377 55; 378 12; 414 48; 415 16; 
416 9; 419 13; 434 84; 435 31; 436 7; 
