Name: Linolenic Acid
Synon: Fatty Acid: Linolenic
Synon: 9,12,15-Octadecatrienoic acid, (Z,Z,Z)-
InChIKey: DTOSIQBPPRVQHS-PDBXOOCHSA-N
Formula: C18H30O2
MW: 278
ExactMass: 278.22458
CASNO: 463401
ID: 1492
Comment: AAFS
Num Peaks: 137
42 31; 43 119; 44 7; 45 43; 50 4; 
51 16; 52 10; 53 80; 54 79; 55 298; 
56 25; 57 53; 58 3; 59 13; 60 55; 
61 2; 63 4; 65 66; 66 92; 67 574; 
68 146; 69 146; 70 14; 71 32; 73 75; 
74 5; 77 187; 78 141; 79 999; 80 488; 
81 390; 82 148; 83 70; 84 13; 85 26; 
86 3; 87 28; 88 2; 91 249; 92 57; 
93 461; 94 215; 95 533; 96 88; 97 42; 
98 12; 99 8; 100 3; 101 22; 103 12; 
104 8; 105 71; 106 26; 107 195; 108 403; 
109 109; 110 23; 111 15; 112 4; 113 6; 
114 4; 115 21; 116 7; 117 28; 118 5; 
119 34; 120 20; 121 147; 122 89; 123 37; 
124 6; 125 7; 126 7; 127 8; 128 3; 
129 19; 130 4; 131 25; 132 5; 133 20; 
134 10; 135 109; 136 79; 137 14; 138 3; 
139 4; 140 5; 141 3; 143 9; 145 7; 
147 15; 148 6; 149 74; 150 34; 151 4; 
153 6; 154 6; 157 5; 159 2; 161 5; 
162 5; 163 16; 164 7; 165 4; 166 2; 
167 4; 168 4; 171 5; 173 15; 175 7; 
177 4; 178 3; 181 3; 182 4; 185 3; 
189 3; 191 4; 193 3; 196 5; 203 3; 
207 3; 209 19; 210 7; 213 2; 217 5; 
222 83; 223 13; 224 9; 231 3; 235 10; 
236 4; 237 4; 249 19; 250 4; 261 2; 
278 37; 279 6; 
