Name: Oleamide
Synon: Oleic acid amide
Synon: 9-Octadecenamide, (Z)-
Synon: Amide O
Synon: Cis-9,10-octadecenoamide
Synon: (Z)-Octa-9-decenamide
Synon: Oleylamide
Synon: 9-Octadecenamide
Synon: (Z)-9-Octadecenamide
Synon: 9,10-Octadecenoamide
InChIKey: FATBGEAMYMYZAF-KTKRTIGZSA-N
Formula: C18H35NO
MW: 281
ExactMass: 281.271864
CASNO: 301020
ID: 1493
Comment: Jason Nawyn
Num Peaks: 128
39 80; 40 24; 41 395; 42 61; 43 288; 
44 195; 45 4; 52 3; 53 55; 54 101; 
55 449; 56 87; 57 152; 58 11; 59 999; 
60 109; 65 22; 66 6; 67 174; 68 54; 
69 237; 70 63; 71 27; 72 785; 73 99; 
77 11; 78 7; 79 61; 80 18; 81 136; 
82 67; 83 154; 84 70; 85 28; 86 120; 
87 19; 91 15; 93 16; 94 17; 95 104; 
96 70; 97 128; 98 137; 99 26; 100 84; 
101 21; 105 4; 107 7; 108 15; 109 66; 
110 45; 111 61; 112 132; 113 46; 114 94; 
115 19; 119 21; 120 3; 121 17; 122 50; 
123 68; 124 26; 125 24; 126 160; 127 30; 
128 66; 133 14; 134 9; 135 9; 136 49; 
137 36; 138 29; 139 9; 140 69; 141 10; 
142 21; 147 11; 148 8; 149 3; 150 21; 
151 28; 152 24; 153 4; 154 61; 155 11; 
156 7; 161 3; 164 14; 165 11; 166 13; 
168 6; 169 4; 170 12; 175 3; 178 9; 
179 6; 180 9; 182 9; 184 30; 192 9; 
193 7; 196 6; 198 18; 206 4; 207 25; 
208 5; 209 6; 210 8; 212 4; 220 30; 
221 16; 222 15; 223 3; 224 5; 225 3; 
226 7; 234 7; 235 7; 238 42; 239 9; 
240 3; 252 18; 253 3; 263 4; 264 44; 
266 3; 281 71; 282 18; 
