Name: Homatropine
Synon: 8-Methyl-8-azabicyclo[3.2.1]oct-3-yl hydroxy(phenyl)acetate
InChIKey: ZTVIKZXZYLEVOL-UHFFFAOYSA-N
Formula: C16H21NO3
MW: 275
ExactMass: 275.152143
CASNO: 87003
ID: 1494
Comment: AAFS
Num Peaks: 44
42 101; 43 9; 44 18; 50 5; 51 25; 
52 8; 53 15; 54 11; 55 26; 56 17; 
57 17; 58 5; 65 10; 67 102; 68 29; 
69 5; 70 18; 77 102; 78 21; 79 110; 
80 18; 81 24; 82 168; 83 125; 84 13; 
91 12; 93 17; 94 158; 95 68; 96 105; 
97 16; 98 6; 105 14; 106 5; 107 57; 
108 11; 122 14; 124 999; 125 101; 140 44; 
142 62; 143 5; 275 116; 276 21; 
