Name: Fludiazepam
Synon: 7-Chloro-5-(o-Fluorophenyl)-1,3-dihydro-1-methyl-2H-1,4-benzodiazepin-2-one
InChIKey: ROYOYTLGDLIGBX-UHFFFAOYSA-N
Formula: C16H12ClFN2O
MW: 302
ExactMass: 302.06222
CASNO: 3900310
ID: 1496
Comment: AAFS
Num Peaks: 208
42 27; 50 23; 51 33; 52 10; 57 22; 
61 8; 62 22; 63 49; 64 13; 65 11; 
66 9; 68 11; 69 12; 70 9; 72 6; 
73 23; 74 38; 75 124; 76 37; 77 36; 
78 11; 80 6; 81 47; 82 23; 83 35; 
84 18; 85 33; 86 20; 87 25; 88 25; 
89 86; 90 38; 91 44; 92 14; 94 32; 
95 72; 97 17; 98 43; 99 46; 100 29; 
101 22; 102 72; 103 19; 105 84; 107 64; 
108 28; 109 195; 111 94; 112 47; 113 35; 
114 22; 115 15; 116 29; 117 99; 118 42; 
119 104; 121 31; 122 32; 123 65; 124 45; 
125 145; 126 58; 127 84; 128 21; 129 19; 
130 9; 131 23; 132 17; 133 46; 134 56; 
135 25; 136 53; 137 64; 138 56; 139 23; 
140 17; 141 8; 142 12; 143 22; 144 60; 
145 25; 146 16; 147 7; 148 5; 149 31; 
150 69; 151 49; 152 55; 153 14; 154 16; 
155 18; 156 18; 157 36; 158 16; 161 8; 
162 16; 163 97; 164 37; 165 48; 166 28; 
167 18; 168 61; 169 85; 170 97; 171 22; 
174 7; 175 18; 176 46; 177 103; 178 30; 
179 40; 180 24; 181 100; 182 74; 183 254; 
184 60; 185 13; 186 5; 188 8; 189 7; 
190 35; 191 22; 192 13; 193 14; 194 15; 
195 82; 196 55; 197 25; 198 11; 199 12; 
201 6; 202 10; 203 16; 204 19; 205 16; 
206 10; 207 6; 208 29; 209 27; 210 40; 
211 118; 212 26; 213 12; 216 5; 217 30; 
218 15; 219 25; 220 10; 221 10; 222 15; 
223 69; 224 27; 225 8; 226 6; 227 5; 
228 5; 230 5; 231 45; 232 17; 233 22; 
234 6; 236 6; 237 37; 238 33; 239 193; 
240 48; 241 16; 242 5; 244 9; 245 20; 
246 51; 247 19; 248 30; 249 6; 251 7; 
252 5; 253 13; 254 6; 255 8; 256 33; 
257 66; 258 27; 259 132; 260 29; 261 38; 
262 7; 266 41; 267 37; 268 16; 271 9; 
273 476; 274 999; 275 477; 276 370; 277 108; 
278 13; 282 26; 283 334; 284 72; 285 114; 
286 41; 287 8; 288 7; 301 838; 302 728; 
303 393; 304 246; 305 40; 
