Name: Zeranol
Synon: 7,14,16-Trihydroxy-3-methyl-3,4,5,6,7,8,9,10,11,12-decahydro-1H-2-benzoxacyclotetradecin-1-one
InChIKey: DWTTZBARDOXEAM-UHFFFAOYSA-N
Formula: C18H26O5
MW: 322
ExactMass: 322.178024
CASNO: 26538443
ID: 1498
Comment: DEA SWL
Num Peaks: 218
40 24; 41 300; 42 147; 43 220; 44 46; 
45 98; 50 6; 51 27; 52 13; 53 104; 
54 33; 55 451; 56 34; 57 142; 58 16; 
59 12; 60 7; 62 6; 63 14; 64 11; 
65 109; 66 74; 67 137; 68 35; 69 359; 
70 32; 71 43; 73 36; 75 12; 76 4; 
77 133; 78 48; 79 141; 80 25; 81 346; 
82 44; 83 36; 84 13; 85 45; 86 4; 
87 4; 88 4; 89 13; 90 7; 91 117; 
92 30; 93 94; 94 87; 95 132; 96 17; 
97 32; 99 288; 100 23; 102 12; 103 34; 
104 13; 105 65; 106 50; 107 120; 108 47; 
109 45; 110 19; 111 40; 112 37; 113 19; 
115 42; 116 11; 117 20; 118 21; 119 38; 
120 33; 121 274; 122 201; 123 361; 124 280; 
125 53; 126 15; 127 10; 128 10; 129 16; 
130 6; 131 44; 132 25; 133 47; 134 76; 
135 146; 136 82; 137 133; 138 23; 139 19; 
141 6; 142 5; 143 13; 144 14; 145 33; 
146 10; 147 84; 148 68; 149 207; 150 733; 
151 128; 152 41; 153 14; 154 11; 155 41; 
156 7; 157 8; 159 14; 160 42; 161 128; 
162 209; 163 811; 164 261; 165 100; 166 36; 
167 121; 168 999; 169 88; 170 7; 171 7; 
172 4; 173 46; 174 41; 175 62; 176 115; 
177 218; 178 187; 179 78; 180 41; 181 28; 
182 8; 183 6; 185 14; 186 12; 187 45; 
188 36; 189 139; 190 93; 191 74; 192 49; 
193 34; 194 10; 195 4; 197 9; 198 10; 
199 12; 200 24; 201 36; 202 42; 203 66; 
204 23; 205 40; 206 174; 207 130; 208 23; 
209 14; 210 5; 211 6; 213 17; 214 8; 
215 39; 216 74; 217 59; 218 35; 219 42; 
220 28; 221 16; 222 6; 224 30; 225 9; 
227 10; 228 7; 229 27; 230 53; 231 39; 
232 16; 233 108; 234 43; 235 275; 236 47; 
237 19; 239 16; 241 7; 242 4; 243 29; 
244 30; 245 13; 247 17; 248 6; 249 8; 
250 4; 251 7; 253 11; 257 19; 258 7; 
259 9; 260 7; 261 12; 262 5; 263 7; 
268 18; 269 5; 275 27; 276 14; 277 21; 
278 9; 281 7; 282 5; 283 4; 286 60; 
287 24; 289 7; 290 5; 303 7; 304 22; 
322 170; 323 56; 324 8; 
