Name: Fluocinolone Acetonide
Synon: Pregna-1,4-diene-3,20-dione, 6,9-difluoro-11,21-dihydroxy-16,17-[(1-methylethylidene)bis(oxy)]-, (6.alpha.,11.beta.,16.alpha.)-
Synon: Flucort
Synon: (6.alpha.,11.beta.,16.alpha.)-6,9-Difluoro-11,21-dihydroxy-16,17-[(1-methylethylidene)bis(oxy)]pregna-1,4-diene-3,20-dione
Synon: (6.alpha.,11.beta.,16.alpha.)-6,9-Difluoro-11,21-dihydroxy-16,17-[(1-methylethylidine)bis(oxy)]pregna-1,4-diene-3,20-dione
InChIKey: FEBLZLNTKCEFIT-UHFFFAOYSA-N
Formula: C24H30F2O6
MW: 452
ExactMass: 452.201046
CASNO: 67732
ID: 1500
Comment: AAFS / Probability Based Matching Data Base Entry
Num Peaks: 139
43 94; 53 22; 55 62; 59 142; 61 73; 
65 25; 77 32; 78 18; 79 41; 80 25; 
81 20; 91 121; 93 16; 95 20; 101 18; 
103 4; 105 64; 107 18; 109 181; 111 16; 
115 27; 116 78; 117 22; 119 6; 120 89; 
121 89; 122 18; 123 27; 127 43; 128 32; 
129 48; 131 34; 133 68; 134 85; 135 55; 
137 6; 138 9; 139 339; 140 66; 141 29; 
143 27; 144 75; 145 71; 146 71; 147 78; 
148 71; 149 22; 151 34; 152 50; 153 48; 
155 4; 157 43; 158 45; 159 119; 160 89; 
161 6; 163 9; 165 25; 166 13; 167 6; 
168 68; 169 18; 171 66; 172 114; 175 2; 
177 50; 178 6; 179 39; 181 6; 182 80; 
183 32; 184 73; 185 119; 186 68; 187 11; 
189 39; 191 6; 193 22; 195 32; 196 9; 
197 41; 199 41; 201 68; 203 4; 205 25; 
207 41; 208 29; 209 41; 211 39; 212 73; 
213 52; 217 29; 219 9; 220 82; 221 34; 
222 68; 223 73; 225 89; 226 20; 227 18; 
229 16; 231 16; 233 68; 234 6; 235 64; 
237 32; 238 87; 239 43; 240 48; 241 25; 
242 82; 243 4; 247 4; 250 68; 251 45; 
253 9; 255 20; 259 52; 261 11; 262 22; 
263 71; 267 6; 269 34; 270 176; 271 80; 
273 13; 275 18; 277 36; 279 6; 280 73; 
282 11; 297 20; 335 151; 336 4; 347 32; 
393 999; 394 211; 395 52; 452 80; 
