Name: Butacaine
InChIKey: HQFWVSGBVLEQGA-UHFFFAOYSA-N
Formula: C18H30N2O2
MW: 306
ExactMass: 306.230728
CASNO: 149166
ID: 1505
Comment: DEA SWL
Num Peaks: 90
40 2; 41 88; 42 55; 43 20; 44 40; 
45 1; 51 1; 52 3; 53 3; 54 5; 
55 19; 56 20; 57 50; 58 38; 59 1; 
63 4; 64 6; 65 58; 66 8; 67 2; 
68 17; 69 15; 70 22; 71 4; 72 3; 
77 2; 80 1; 82 8; 83 4; 84 40; 
85 4; 86 11; 90 3; 91 14; 92 98; 
93 14; 94 3; 96 4; 97 1; 98 35; 
99 3; 100 187; 101 13; 104 3; 106 3; 
111 56; 112 19; 113 2; 118 4; 119 35; 
120 999; 121 79; 122 5; 124 3; 126 20; 
127 2; 128 11; 129 1; 130 4; 132 14; 
133 1; 135 1; 137 27; 138 4; 140 10; 
142 380; 143 39; 144 5; 154 1; 162 2; 
168 5; 169 1; 177 10; 178 257; 179 29; 
180 2; 186 10; 207 5; 208 1; 221 1; 
249 5; 250 4; 261 2; 262 1; 263 378; 
264 65; 265 7; 305 1; 306 11; 307 2; 
