Name: Brucine
InChIKey: RRKTZKIUPZVBMF-UHFFFAOYSA-N
Formula: C23H26N2O4
MW: 394
ExactMass: 394.189257
CASNO: 357573
ID: 1511
Comment: DEA SWL
Num Peaks: 206
41 55; 42 49; 43 31; 44 19; 51 15; 
52 12; 53 31; 54 28; 55 73; 56 35; 
57 9; 63 13; 65 28; 66 10; 67 31; 
68 21; 69 21; 70 12; 71 9; 73 11; 
76 9; 77 72; 78 36; 79 77; 80 42; 
81 33; 82 22; 89 21; 90 22; 91 78; 
92 21; 93 35; 94 35; 95 24; 96 10; 
101 12; 102 18; 103 34; 104 20; 105 32; 
106 45; 107 82; 108 51; 109 15; 110 11; 
114 11; 115 41; 116 32; 117 52; 118 31; 
119 36; 120 101; 121 40; 122 42; 127 19; 
128 39; 129 20; 130 28; 131 31; 132 57; 
133 31; 134 56; 135 15; 136 38; 138 30; 
139 14; 140 26; 141 26; 142 29; 143 18; 
144 32; 145 25; 146 77; 147 29; 148 15; 
152 12; 153 14; 154 43; 155 19; 156 15; 
157 16; 158 27; 159 19; 160 39; 161 28; 
162 53; 163 26; 165 12; 166 13; 167 23; 
168 18; 169 19; 170 29; 171 17; 172 23; 
173 23; 174 59; 175 21; 176 23; 177 10; 
178 13; 179 10; 180 21; 181 12; 182 21; 
183 25; 184 24; 185 21; 186 17; 187 10; 
188 34; 189 58; 190 86; 191 39; 192 16; 
193 21; 194 19; 195 11; 196 25; 197 71; 
198 21; 199 10; 200 20; 202 28; 203 97; 
204 67; 205 21; 206 15; 207 29; 208 21; 
209 10; 210 19; 211 15; 212 29; 213 17; 
214 17; 215 11; 216 28; 217 17; 218 12; 
219 9; 220 14; 221 13; 222 13; 223 11; 
224 17; 226 10; 227 19; 228 23; 229 18; 
230 13; 233 10; 234 10; 235 10; 236 12; 
237 10; 238 20; 239 10; 240 21; 241 12; 
242 23; 243 19; 244 23; 250 10; 251 14; 
252 10; 253 12; 254 19; 256 25; 257 30; 
258 26; 261 9; 264 14; 265 13; 266 13; 
267 12; 268 13; 269 17; 270 9; 278 11; 
279 8; 280 19; 281 21; 282 12; 283 11; 
292 11; 293 8; 294 14; 295 18; 308 11; 
309 13; 321 16; 322 13; 323 10; 324 9; 
335 10; 336 9; 337 17; 349 10; 351 12; 
365 14; 379 245; 380 67; 394 999; 395 259; 
396 36; 
