Name: Brompheniramine
InChIKey: ZDIGNSYAACHWNL-UHFFFAOYSA-N
Formula: C16H19BrN2
MW: 318
ExactMass: 318.07316
CASNO: 86226
ID: 1512
Comment: DEA SWL
Num Peaks: 148
40 4; 41 10; 42 125; 43 39; 44 28; 
45 4; 50 17; 51 43; 52 23; 53 8; 
54 6; 55 7; 56 58; 57 31; 58 924; 
59 39; 60 2; 62 7; 63 26; 64 6; 
65 13; 66 3; 67 5; 68 5; 69 4; 
70 22; 71 44; 72 333; 73 18; 74 10; 
75 21; 76 21; 77 49; 78 60; 79 27; 
80 11; 81 6; 82 6; 84 12; 85 2; 
86 3; 87 9; 88 11; 89 34; 90 25; 
91 15; 92 8; 93 26; 94 4; 95 5; 
96 2; 97 4; 98 5; 99 2; 100 2; 
101 13; 102 30; 103 39; 104 18; 105 5; 
106 13; 107 2; 109 3; 110 3; 111 4; 
112 2; 113 16; 114 20; 115 61; 116 26; 
117 45; 118 38; 119 12; 121 8; 123 1; 
125 2; 126 9; 127 13; 128 13; 129 7; 
130 9; 131 5; 132 1; 133 2; 135 3; 
137 5; 138 9; 139 84; 140 58; 141 25; 
142 6; 143 6; 144 2; 145 1; 147 3; 
150 4; 151 13; 152 35; 153 16; 154 13; 
155 4; 156 3; 157 2; 158 3; 159 1; 
163 3; 164 12; 165 30; 166 138; 167 627; 
168 335; 169 58; 170 3; 171 13; 177 3; 
178 27; 179 21; 180 161; 181 50; 182 19; 
183 3; 184 12; 190 2; 191 12; 192 14; 
193 18; 194 16; 195 8; 207 1; 245 18; 
246 160; 247 988; 248 282; 249 999; 250 132; 
251 7; 258 9; 259 2; 260 27; 261 4; 
262 17; 263 2; 272 3; 273 1; 274 15; 
275 2; 276 12; 277 1; 
