Name: Bromodiphenhydramine
InChIKey: NUNIWXHYABYXKF-UHFFFAOYSA-N
Formula: C17H20BrNO
MW: 333
ExactMass: 333.072826
CASNO: 118230
ID: 1513
Comment: DEA SWL
Num Peaks: 67
41 2; 42 37; 43 10; 44 15; 45 61; 
46 1; 50 5; 51 9; 52 1; 55 1; 
56 12; 57 13; 58 999; 59 35; 62 2; 
63 6; 64 1; 65 2; 70 4; 71 4; 
72 7; 73 173; 74 10; 75 6; 76 6; 
77 14; 78 2; 82 5; 86 4; 87 2; 
88 3; 89 7; 90 2; 91 2; 101 1; 
102 1; 105 5; 113 3; 114 2; 115 9; 
126 2; 127 1; 128 1; 137 1; 138 1; 
139 13; 140 2; 151 1; 152 5; 153 1; 
154 2; 155 3; 157 3; 162 1; 163 17; 
164 21; 165 169; 166 62; 167 11; 168 1; 
180 2; 183 2; 185 2; 245 8; 246 2; 
247 8; 248 1; 
