Name: Bromazepam
InChIKey: VMIYHDSEFNYJSL-UHFFFAOYSA-N
Formula: C14H10BrN3O
MW: 315
ExactMass: 315.000725
CASNO: 1812302
ID: 1514
Comment: DEA SWL
Num Peaks: 190
40 15; 41 16; 42 22; 43 5; 44 4; 
49 3; 50 101; 51 214; 52 144; 53 32; 
54 6; 55 5; 56 4; 57 2; 58 1; 
61 25; 62 83; 63 156; 64 74; 65 48; 
66 13; 67 7; 68 1; 69 1; 70 14; 
71 1; 73 12; 74 81; 75 147; 76 175; 
77 264; 78 367; 79 224; 80 37; 81 4; 
83 22; 84 3; 85 10; 86 34; 87 56; 
88 59; 89 64; 90 222; 92 17; 93 20; 
95 4; 96 2; 97 3; 98 37; 99 55; 
100 72; 101 62; 102 95; 104 224; 105 87; 
106 9; 107 7; 109 5; 110 11; 111 16; 
112 13; 113 27; 114 36; 115 31; 116 39; 
117 50; 118 16; 119 15; 121 1; 122 7; 
123 11; 124 16; 125 51; 126 78; 127 109; 
128 83; 129 67; 130 51; 131 14; 132 5; 
134 1; 136 2; 137 11; 138 23; 139 34; 
140 50; 141 28; 142 21; 143 19; 145 12; 
150 6; 151 41; 152 135; 153 164; 154 164; 
155 55; 156 20; 157 24; 158 20; 159 1; 
163 1; 164 42; 165 38; 166 57; 167 47; 
168 31; 169 11; 170 18; 171 5; 177 13; 
178 23; 179 439; 180 191; 181 229; 182 89; 
183 26; 184 45; 185 6; 190 5; 191 20; 
192 52; 193 41; 194 64; 195 14; 196 8; 
197 4; 198 4; 204 7; 206 292; 207 289; 
208 418; 209 139; 210 22; 211 51; 212 8; 
213 1; 217 1; 218 3; 219 1; 220 4; 
221 2; 222 11; 223 2; 224 8; 231 3; 
232 17; 233 9; 234 23; 236 999; 237 190; 
238 19; 239 32; 240 3; 244 3; 245 20; 
246 11; 247 23; 248 8; 249 2; 257 3; 
258 2; 259 202; 260 99; 261 202; 262 86; 
263 10; 270 6; 271 8; 272 19; 273 23; 
274 17; 275 15; 276 2; 284 11; 286 652; 
287 337; 288 717; 289 290; 290 93; 291 11; 
300 16; 301 3; 302 15; 303 2; 314 260; 
315 681; 316 373; 317 714; 318 113; 319 10; 
