Name: Bisoprolol
Synon: Zebeta
InChIKey: VHYCDWMUTMEGQY-UHFFFAOYSA-N
Formula: C18H31NO4
MW: 325
ExactMass: 325.22531
CASNO: 66722449
ID: 1518
Comment: DEA SWL
Num Peaks: 56
41 31; 42 14; 43 97; 44 22; 45 25; 
52 1; 55 5; 56 39; 57 24; 58 12; 
59 1; 60 9; 63 1; 65 1; 70 7; 
71 12; 72 999; 73 59; 74 9; 75 2; 
77 16; 78 17; 79 1; 82 1; 84 4; 
86 8; 89 12; 90 10; 91 13; 92 1; 
95 1; 98 6; 100 39; 102 25; 103 2; 
104 13; 105 2; 106 3; 107 72; 108 7; 
114 5; 116 93; 117 7; 119 1; 120 1; 
121 3; 122 2; 123 4; 133 2; 145 2; 
149 8; 165 4; 167 4; 207 4; 222 1; 
281 11; 
