Name: Bibenzyl
InChIKey: QWUWMCYKGHVNAV-UHFFFAOYSA-N
Formula: C14H14
MW: 182
ExactMass: 182.10955
CASNO: 103297
ID: 1520
Comment: DEA SWL
Num Peaks: 56
40 1; 41 6; 50 9; 51 27; 52 7; 
53 2; 62 5; 63 23; 64 6; 65 116; 
66 6; 74 4; 75 5; 76 8; 77 27; 
78 11; 79 2; 82 1; 86 1; 87 2; 
88 2; 89 25; 91 999; 92 76; 93 2; 
101 1; 102 6; 103 14; 104 23; 105 2; 
113 1; 115 7; 116 1; 126 2; 127 2; 
128 3; 139 3; 141 2; 150 2; 151 4; 
152 10; 153 3; 154 1; 163 1; 164 1; 
165 20; 166 7; 167 2; 176 4; 177 2; 
178 13; 179 8; 180 2; 182 241; 183 37; 
184 2; 
