Name: Biphenyl
Synon: Phenylbenzene
Synon: Dibenzyl
Synon: Bibenzene
InChIKey: ZUOUZKKEUPVFJK-UHFFFAOYSA-N
Formula: C12H10
MW: 154
ExactMass: 154.07825
CASNO: 92524
ID: 1521
Comment: DEA SWL
Num Peaks: 55
40 1; 49 1; 50 30; 51 58; 52 13; 
53 1; 61 4; 62 15; 63 51; 64 37; 
65 9; 70 2; 73 2; 74 26; 75 29; 
76 133; 77 61; 78 10; 85 2; 86 8; 
87 13; 88 6; 89 18; 90 1; 91 3; 
97 1; 98 9; 99 6; 100 4; 101 10; 
102 32; 103 4; 110 2; 111 2; 113 8; 
114 4; 115 46; 116 4; 122 1; 125 4; 
126 35; 127 32; 128 49; 129 5; 138 1; 
139 19; 140 2; 149 1; 150 25; 151 81; 
152 277; 153 375; 154 999; 155 123; 156 7; 
