Name: BHT
Synon: Butylated hydroxytoluene
InChIKey: NLZUEZXRPGMBCV-UHFFFAOYSA-N
Formula: C15H24O
MW: 220
ExactMass: 220.182715
CASNO: 128370
ID: 1522
Comment: DEA SWL
Num Peaks: 116
40 3; 41 71; 42 4; 43 16; 50 2; 
51 13; 52 6; 53 19; 54 1; 55 45; 
56 2; 57 164; 58 13; 59 4; 63 7; 
64 8; 65 22; 66 7; 67 48; 69 16; 
70 2; 71 4; 72 4; 73 8; 74 3; 
75 2; 76 3; 77 49; 78 14; 79 31; 
80 15; 81 60; 83 2; 87 2; 89 6; 
90 1; 91 89; 92 10; 93 13; 94 2; 
95 44; 101 1; 102 3; 103 21; 104 6; 
105 99; 106 10; 107 13; 108 2; 109 4; 
115 75; 116 29; 117 30; 118 6; 119 55; 
120 8; 121 46; 122 5; 123 5; 126 1; 
127 18; 128 59; 129 53; 130 26; 131 50; 
132 9; 133 48; 134 8; 135 22; 136 3; 
137 6; 139 2; 141 38; 142 27; 143 17; 
144 8; 145 145; 146 22; 147 21; 148 5; 
149 19; 150 2; 151 1; 152 3; 153 5; 
154 3; 155 10; 156 8; 157 18; 158 5; 
159 18; 160 5; 161 41; 162 6; 163 18; 
164 2; 171 2; 172 4; 173 3; 174 1; 
175 10; 176 1; 177 85; 178 11; 187 3; 
189 39; 190 5; 191 1; 203 3; 205 999; 
206 152; 207 13; 208 1; 220 231; 221 38; 
222 3; 
