Name: Betaxolol
InChIKey: NWIUTZDMDHAVTP-UHFFFAOYSA-N
Formula: C18H29NO3
MW: 307
ExactMass: 307.214745
CASNO: 63659187
ID: 1525
Comment: AAFS
Num Peaks: 56
42 7; 43 20; 44 10; 51 2; 53 5; 
55 81; 56 35; 57 23; 58 15; 60 9; 
65 4; 70 10; 72 999; 73 51; 74 7; 
77 15; 78 5; 79 2; 82 2; 84 3; 
86 7; 89 3; 90 4; 91 22; 92 6; 
93 2; 98 7; 100 19; 102 33; 103 10; 
104 2; 105 4; 107 36; 108 3; 111 4; 
114 4; 115 2; 116 42; 117 4; 119 2; 
120 7; 121 12; 122 2; 133 4; 147 2; 
149 8; 159 2; 161 2; 192 5; 263 37; 
264 7; 292 17; 293 3; 306 3; 307 4; 
308 2; 
