Name: Benzyl Cyanide
Synon: Phenylacetonitrile
InChIKey: SUSQOBVLVYHIEX-UHFFFAOYSA-N
Formula: C8H7N
MW: 117
ExactMass: 117.0578494
CASNO: 140294
ID: 1535
Comment: DEA WRL
Num Peaks: 65
13 1; 15 3; 16 2; 17 1; 23 1; 
26 13; 27 21; 28 21; 32 4; 36 2; 
37 31; 38 50; 39 107; 40 30; 41 8; 
43 2; 44 1; 45 3; 48 2; 49 17; 
50 121; 51 148; 52 29; 53 2; 55 1; 
56 1; 57 5; 58 13; 60 7; 61 38; 
62 66; 63 157; 64 55; 65 57; 66 7; 
67 1; 68 1; 71 1; 73 9; 74 43; 
75 32; 76 26; 77 69; 78 15; 79 1; 
84 4; 85 10; 86 15; 87 25; 88 27; 
89 321; 90 491; 91 93; 92 6; 97 1; 
98 1; 99 3; 100 1; 102 2; 112 1; 
114 10; 116 416; 117 999; 118 91; 119 3; 
