Name: Benzylamine
InChIKey: WGQKYBSKWIADBV-UHFFFAOYSA-N
Formula: C7H9N
MW: 107
ExactMass: 107.073499
CASNO: 100469
ID: 1536
Comment: DEA SWL / Sigma-Aldrich lot 08401PE
Num Peaks: 43
40 8; 41 11; 42 2; 43 1; 44 5; 
46 1; 49 6; 50 77; 51 150; 52 56; 
53 40; 54 9; 61 5; 62 14; 63 31; 
64 8; 65 44; 66 4; 67 1; 73 2; 
74 18; 75 9; 76 12; 77 192; 78 104; 
79 329; 80 28; 81 1; 85 2; 86 2; 
87 1; 89 37; 90 13; 91 108; 92 10; 
102 1; 103 6; 104 52; 105 14; 106 999; 
107 563; 108 45; 109 1; 
