Name: Tropacocaine
Synon: Benzoyl tropine
InChIKey: XQJMXPAEFMWDOZ-UHFFFAOYSA-N
Formula: C15H19NO2
MW: 245
ExactMass: 245.141579
CASNO: 537268
ID: 1539
Comment: DEA SWL
Num Peaks: 68
38 2; 39 36; 40 5; 41 75; 42 231; 
43 14; 44 33; 45 2; 50 24; 51 94; 
52 10; 53 23; 54 25; 55 63; 56 37; 
57 30; 58 10; 62 1; 63 2; 65 19; 
66 6; 67 162; 68 43; 69 10; 70 21; 
71 3; 74 5; 75 4; 76 12; 77 228; 
78 23; 79 12; 80 21; 81 71; 82 550; 
83 279; 84 29; 85 1; 86 1; 91 15; 
92 3; 93 15; 94 360; 95 139; 96 119; 
97 36; 98 10; 104 1; 105 148; 106 14; 
107 5; 108 19; 109 5; 110 5; 112 3; 
120 3; 121 2; 122 51; 123 101; 124 999; 
125 90; 126 6; 140 56; 141 5; 244 1; 
245 97; 246 15; 247 1; 
