Name: Benzoyl ecgonine
InChIKey: GVGYEFKIHJTNQZ-UHFFFAOYSA-N
Formula: C16H19NO4
MW: 289
ExactMass: 289.131409
CASNO: 519095
ID: 1540
Comment: DEA SWL
Num Peaks: 99
40 5; 41 41; 42 136; 43 12; 44 28; 
45 7; 49 1; 50 24; 51 88; 52 11; 
53 21; 54 16; 55 48; 56 34; 57 77; 
58 18; 59 1; 60 1; 62 1; 63 3; 
64 1; 65 19; 66 8; 67 73; 68 38; 
69 9; 70 21; 71 4; 73 2; 74 7; 
75 6; 76 15; 77 293; 78 31; 79 18; 
80 22; 81 42; 82 340; 83 158; 84 21; 
85 2; 86 6; 91 44; 92 9; 93 144; 
94 225; 95 41; 96 144; 97 52; 98 9; 
99 1; 100 3; 103 1; 104 1; 105 243; 
106 24; 107 8; 108 31; 109 7; 110 10; 
111 3; 112 3; 117 1; 118 1; 119 14; 
120 7; 121 4; 122 65; 123 30; 124 999; 
125 91; 126 8; 128 1; 132 1; 135 4; 
136 3; 137 1; 138 17; 139 4; 140 20; 
141 15; 142 1; 147 1; 148 1; 150 3; 
152 2; 153 1; 156 1; 166 12; 167 17; 
168 320; 169 32; 170 3; 184 24; 185 2; 
244 1; 289 41; 290 7; 291 1; 
