Name: Benzoic Acid
InChIKey: WPYMKLBDIGXBTP-UHFFFAOYSA-N
Formula: C7H6O2
MW: 122
ExactMass: 122.0367794
CASNO: 65850
ID: 1542
Comment: DEA SWL
Num Peaks: 32
40 7; 44 8; 45 40; 47 7; 49 25; 
50 201; 51 348; 52 55; 53 18; 55 3; 
61 10; 62 11; 63 14; 64 1; 65 27; 
66 21; 73 23; 74 85; 75 42; 76 66; 
77 709; 78 73; 79 2; 93 1; 94 34; 
104 4; 105 999; 106 79; 107 4; 122 836; 
123 65; 124 3; 
