Name: Benzenemethanamine, 4-methoxy-
InChIKey: IDPURXSQCKYKIJ-UHFFFAOYSA-N
Formula: C8H11NO
MW: 137
ExactMass: 137.084064
CASNO: 2393239
ID: 1546
Comment: ENFSI
Num Peaks: 52
38 33; 39 106; 40 47; 41 49; 42 20; 
43 24; 44 56; 45 19; 50 83; 51 157; 
52 68; 53 29; 54 19; 62 27; 63 78; 
64 79; 65 107; 66 115; 67 66; 68 19; 
74 25; 75 21; 76 26; 77 252; 78 133; 
79 90; 83 35; 85 19; 89 57; 90 20; 
91 117; 92 68; 93 141; 94 224; 95 20; 
104 62; 105 58; 106 392; 107 76; 108 83; 
109 220; 110 27; 119 74; 120 99; 121 392; 
122 97; 133 20; 134 77; 135 45; 136 999; 
137 525; 138 34; 
