Name: Benzene, 1,2-dimethoxy-4-(1-propenyl)-
Synon: Isoeugenol methyl ether
InChIKey: NNWHUJCUHAELCL-SNAWJCMRSA-N
Formula: C11H14O2
MW: 178
ExactMass: 178.09938
CASNO: 93163
ID: 1551
Comment: ENFSI / 1U2R CO1 DO1
Num Peaks: 16
77 100; 79 102; 89 43; 92 42; 103 190; 
107 305; 117 55; 132 37; 136 100; 147 100; 
162 18; 163 449; 164 60; 177 16; 178 999; 
179 119; 
