Name: Propylhexadrine
Synon: Benzedrex
InChIKey: JCRIVQIOJSSCQD-UHFFFAOYSA-N
Formula: C10H21N
MW: 155
ExactMass: 155.167399
CASNO: 101406
ID: 1553
Comment: DEA SWL
Num Peaks: 42
40 3; 41 49; 42 24; 43 10; 44 22; 
51 2; 52 1; 53 11; 54 9; 55 51; 
56 32; 57 20; 58 999; 59 37; 65 3; 
66 1; 67 13; 68 5; 69 5; 70 6; 
71 4; 72 7; 73 1; 77 3; 79 5; 
80 2; 81 10; 82 7; 83 10; 84 3; 
91 1; 94 1; 95 2; 96 3; 109 1; 
110 1; 138 1; 140 38; 141 3; 154 2; 
155 7; 156 1; 
