Name: Dicyclomine
Synon: Bentyl
InChIKey: CURUTKGFNZGFSE-UHFFFAOYSA-N
Formula: C19H35NO2
MW: 309
ExactMass: 309.266779
CASNO: 77190
ID: 1555
Comment: DEA SWL
Num Peaks: 60
40 1; 41 26; 42 13; 43 5; 44 26; 
45 1; 53 6; 54 6; 55 64; 56 22; 
57 8; 58 22; 59 1; 65 2; 66 1; 
67 17; 68 2; 69 7; 70 12; 71 29; 
72 20; 73 5; 77 4; 78 1; 79 12; 
80 2; 81 20; 82 4; 83 40; 84 21; 
86 999; 87 58; 88 2; 91 3; 93 3; 
95 7; 96 1; 97 4; 99 211; 100 67; 
101 4; 102 1; 107 1; 109 10; 110 2; 
114 1; 116 1; 121 1; 123 1; 125 3; 
153 4; 154 1; 155 7; 156 1; 165 12; 
166 1; 227 2; 237 6; 238 1; 294 2; 
