Name: Diphenhydramine
Synon: Benadryl
Synon: N,N-Dimethyl-2-diphenylmethyloxyethylamine
InChIKey: ZZVUWRFHKOJYTH-UHFFFAOYSA-N
Formula: C17H21NO
MW: 255
ExactMass: 255.162314
CASNO: 58731
ID: 1556
Comment: DEA SWL
Num Peaks: 65
41 2; 42 39; 43 11; 44 29; 45 57; 
46 1; 50 4; 51 14; 52 2; 54 1; 
55 1; 56 14; 57 14; 58 999; 59 33; 
62 1; 63 6; 64 1; 65 4; 70 5; 
71 5; 72 10; 73 179; 74 10; 75 2; 
76 3; 77 27; 78 5; 79 1; 83 2; 
86 3; 87 2; 88 3; 89 8; 90 2; 
91 4; 102 3; 105 11; 106 1; 113 2; 
114 1; 115 14; 116 1; 126 2; 127 2; 
128 7; 129 1; 139 10; 140 1; 141 3; 
146 1; 150 1; 151 5; 152 48; 153 7; 
154 1; 155 1; 163 8; 164 12; 165 121; 
166 43; 167 52; 168 8; 183 1; 227 2; 
