Name: Lorazepam
Synon: Ativan
InChIKey: DIWRORZWFLOCLC-UHFFFAOYSA-N
Formula: C15H10Cl2N2O2
MW: 320
ExactMass: 320.011932
CASNO: 846491
ID: 1565
Comment: DEA SWL
Num Peaks: 162
40 1; 44 1; 47 1; 49 10; 50 159; 
51 120; 52 24; 53 4; 55 1; 60 4; 
61 38; 62 61; 63 54; 64 16; 65 1; 
67 1; 68 2; 72 7; 73 53; 74 187; 
75 685; 76 139; 77 73; 78 7; 79 2; 
80 8; 81 4; 84 33; 85 67; 86 57; 
87 70; 88 56; 92 19; 93 24; 94 8; 
96 8; 97 19; 98 58; 99 105; 100 221; 
101 96; 102 258; 103 25; 106 30; 107 2; 
108 7; 109 36; 110 221; 111 449; 112 157; 
113 155; 114 38; 115 3; 120 113; 122 23; 
123 52; 124 39; 125 50; 126 37; 127 26; 
128 8; 129 1; 132 1; 133 19; 134 12; 
135 20; 136 142; 137 198; 138 438; 139 91; 
140 124; 141 9; 145 2; 146 4; 147 20; 
148 21; 149 88; 150 147; 151 85; 152 31; 
153 8; 158 1; 159 4; 160 20; 161 25; 
162 32; 163 164; 164 23; 165 50; 166 4; 
171 3; 172 4; 173 4; 174 28; 175 128; 
176 225; 177 318; 178 55; 179 5; 183 1; 
184 9; 185 16; 186 23; 187 11; 188 11; 
189 4; 193 2; 197 4; 198 2; 199 1; 
200 5; 201 11; 202 107; 203 120; 204 112; 
205 19; 207 13; 208 7; 209 6; 210 18; 
211 65; 212 34; 213 31; 214 8; 215 2; 
233 3; 235 1; 236 3; 237 21; 238 48; 
239 999; 240 175; 241 331; 242 52; 243 3; 
247 5; 248 15; 249 5; 250 10; 251 1; 
252 1; 253 8; 267 152; 268 29; 269 52; 
270 8; 272 2; 273 238; 274 680; 275 267; 
276 436; 277 99; 278 74; 279 10; 281 6; 
301 47; 302 407; 303 102; 304 268; 305 54; 
306 54; 307 7; 
