Name: Atenolol
Synon: Tenormin
InChIKey: METKIMKYRPQLGS-UHFFFAOYSA-N
Formula: C14H22N2O3
MW: 266
ExactMass: 266.163042
CASNO: 29122687
ID: 1566
Comment: DEA SWL
Num Peaks: 84
40 3; 41 41; 42 23; 43 57; 44 80; 
45 3; 50 4; 51 14; 52 10; 53 6; 
54 4; 55 6; 56 66; 57 44; 58 23; 
59 2; 60 18; 63 7; 64 2; 65 7; 
66 1; 68 2; 70 17; 71 14; 72 999; 
73 47; 74 6; 75 1; 76 1; 77 38; 
78 23; 79 12; 80 2; 81 1; 82 5; 
84 7; 86 10; 89 24; 90 14; 91 17; 
92 3; 93 2; 96 1; 98 4; 100 24; 
101 1; 102 19; 103 1; 104 11; 105 3; 
106 7; 107 98; 108 13; 109 1; 114 3; 
116 27; 117 6; 119 2; 120 1; 121 6; 
122 2; 131 10; 132 1; 133 4; 134 8; 
135 1; 145 15; 146 1; 147 4; 148 1; 
149 11; 150 1; 151 8; 152 1; 162 1; 
164 4; 178 2; 190 4; 193 1; 222 25; 
223 3; 251 12; 252 2; 265 1; 
