Name: Hydroxyzine
Synon: Atarax
InChIKey: ZQDWXGKKHFNSQK-UHFFFAOYSA-N
Formula: C21H27ClN2O2
MW: 374
ExactMass: 374.176105
CASNO: 68882
ID: 1567
Comment: DEA SWL
Num Peaks: 94
36 22; 39 10; 40 19; 41 21; 42 128; 
43 52; 44 132; 45 225; 54 18; 55 50; 
56 189; 57 39; 58 143; 59 15; 63 14; 
68 11; 69 10; 70 31; 71 17; 72 35; 
73 78; 74 11; 75 16; 77 17; 82 24; 
83 15; 84 37; 85 28; 86 21; 87 79; 
91 40; 96 14; 97 32; 98 62; 99 20; 
100 22; 101 16; 103 16; 104 17; 111 52; 
115 20; 118 139; 119 12; 125 24; 130 25; 
132 131; 133 26; 135 19; 139 11; 146 17; 
147 14; 163 26; 164 46; 165 464; 166 325; 
167 67; 171 12; 173 53; 174 10; 177 10; 
179 13; 191 20; 193 10; 199 11; 201 999; 
202 178; 203 297; 204 52; 206 9; 207 95; 
208 25; 209 20; 228 58; 229 43; 230 25; 
231 10; 240 24; 241 31; 242 72; 243 22; 
244 28; 253 15; 271 22; 281 56; 282 13; 
283 10; 284 16; 285 14; 299 129; 300 21; 
301 44; 341 20; 343 13; 374 19; 
