Name: Asarone
Synon: trans-2,4,5-Trimethoxypropenylbenzene
InChIKey: RKFAZBXYICVSKP-AATRIKPKSA-N
Formula: C12H16O3
MW: 208
ExactMass: 208.109944
CASNO: 2883989
ID: 1568
Comment: DEA SWL / Aldrich lot 13408BO
Num Peaks: 123
40 12; 41 38; 42 5; 43 23; 44 1; 
45 12; 50 23; 51 49; 52 21; 53 61; 
54 6; 55 22; 56 3; 57 14; 59 23; 
60 1; 61 5; 62 23; 63 68; 64 23; 
65 115; 66 31; 67 27; 69 195; 70 7; 
71 3; 73 2; 74 15; 75 25; 76 25; 
77 152; 78 64; 79 117; 80 14; 81 11; 
82 3; 83 3; 84 2; 85 9; 86 6; 
87 7; 88 8; 89 66; 90 38; 91 196; 
92 43; 93 33; 94 11; 95 17; 96 6; 
98 2; 99 1; 101 4; 102 20; 103 89; 
104 45; 105 108; 106 34; 107 111; 108 18; 
109 22; 110 6; 111 3; 113 2; 115 44; 
116 11; 117 16; 118 64; 119 69; 120 35; 
121 56; 122 30; 123 15; 124 28; 125 10; 
126 1; 127 1; 128 1; 129 4; 130 5; 
131 37; 132 25; 133 107; 134 71; 135 123; 
136 21; 137 130; 138 15; 139 3; 143 1; 
145 9; 146 13; 147 94; 148 26; 149 54; 
150 118; 151 32; 152 3; 153 3; 159 2; 
161 40; 162 164; 163 63; 165 412; 166 45; 
167 4; 168 1; 175 16; 176 28; 177 55; 
178 36; 179 26; 180 3; 181 2; 191 13; 
193 422; 194 51; 195 4; 205 1; 208 999; 
209 132; 210 15; 211 1; 
