Name: Arachidic Acid
Synon: Fatty Acid: Arachidic
Synon: Eicosanoic acid
Synon: Icosanoic acid
Synon: n-Eicosanoic acid
InChIKey: VKOBVWXKNCXXDE-UHFFFAOYSA-N
Formula: C20H40O2
MW: 312
ExactMass: 312.30283
CASNO: 506309
ID: 1570
Comment: AAFS
Num Peaks: 123
42 126; 43 841; 44 29; 45 59; 53 26; 
54 47; 55 595; 56 157; 57 727; 58 38; 
59 37; 60 746; 61 293; 62 11; 65 7; 
66 8; 67 80; 68 72; 69 389; 70 119; 
71 464; 73 999; 74 79; 75 7; 77 6; 
78 4; 79 30; 80 16; 81 80; 82 84; 
83 324; 84 135; 85 300; 86 30; 87 226; 
88 24; 91 6; 92 3; 93 21; 94 10; 
95 55; 96 68; 97 289; 98 151; 99 86; 
100 13; 101 82; 102 28; 105 4; 107 15; 
108 9; 109 23; 110 32; 111 132; 112 41; 
113 44; 114 11; 115 145; 116 77; 117 10; 
119 3; 121 22; 122 4; 123 17; 124 16; 
125 51; 126 16; 127 24; 129 500; 130 57; 
131 5; 135 15; 136 4; 137 9; 138 11; 
139 22; 140 8; 141 15; 142 3; 143 54; 
144 16; 149 11; 151 4; 152 7; 153 14; 
154 6; 155 9; 157 60; 158 16; 163 6; 
166 6; 167 6; 169 5; 171 100; 172 20; 
181 5; 182 4; 183 4; 185 116; 186 18; 
194 5; 196 3; 199 34; 200 10; 210 3; 
213 111; 214 16; 227 76; 228 15; 241 52; 
242 8; 250 10; 251 4; 252 4; 255 38; 
256 7; 269 144; 270 24; 283 25; 284 13; 
312 285; 313 71; 314 8; 
