Name: Meclizine
Synon: Antivert
Synon: Bonine
InChIKey: OCJYIGYOJCODJL-UHFFFAOYSA-N
Formula: C25H27ClN2
MW: 390
ExactMass: 390.186277
CASNO: 569653
ID: 1573
Comment: DEA SWL
Num Peaks: 110
41 7; 42 47; 43 2; 44 8; 50 1; 
51 10; 53 4; 54 7; 55 16; 56 28; 
57 4; 58 4; 63 8; 65 12; 70 6; 
72 39; 73 5; 75 5; 77 70; 78 22; 
79 72; 80 4; 83 15; 84 5; 89 14; 
90 5; 91 38; 92 1; 96 1; 102 5; 
103 62; 104 33; 105 999; 106 94; 107 2; 
113 1; 115 14; 116 2; 117 13; 118 20; 
119 15; 120 3; 125 15; 126 1; 127 5; 
130 6; 131 5; 132 25; 133 7; 134 77; 
135 13; 138 3; 139 17; 140 3; 144 3; 
145 1; 146 73; 147 39; 148 65; 149 13; 
151 2; 152 8; 158 2; 160 22; 161 5; 
162 69; 163 30; 164 33; 165 355; 166 232; 
167 41; 168 2; 173 1; 174 17; 175 4; 
179 4; 187 10; 189 792; 190 101; 191 10; 
199 8; 201 147; 202 24; 203 48; 204 7; 
206 4; 207 4; 208 2; 209 4; 216 12; 
218 2; 228 49; 229 25; 230 19; 231 8; 
240 11; 241 10; 242 45; 243 13; 244 15; 
253 3; 256 2; 281 1; 285 114; 286 22; 
287 37; 288 6; 390 20; 391 4; 392 7; 
