Name: Antipyrine
InChIKey: VEQOALNAAJBPNY-UHFFFAOYSA-N
Formula: C11H12N2O
MW: 188
ExactMass: 188.094963
CASNO: 60800
ID: 1574
Comment: DEA SWL
Num Peaks: 101
40 62; 41 59; 42 60; 43 37; 44 3; 
45 1; 46 2; 50 41; 51 175; 52 42; 
53 16; 54 43; 55 150; 56 357; 57 17; 
58 1; 61 5; 62 12; 63 62; 64 98; 
65 72; 66 18; 67 55; 68 63; 69 23; 
70 2; 72 2; 73 2; 74 13; 75 13; 
77 650; 78 54; 79 9; 80 7; 82 122; 
83 14; 84 65; 85 5; 86 1; 87 2; 
88 2; 89 7; 90 13; 91 102; 92 65; 
93 116; 94 35; 96 569; 97 36; 98 3; 
101 1; 102 9; 103 23; 104 70; 105 206; 
106 113; 107 17; 108 3; 109 1; 111 10; 
112 1; 115 107; 116 57; 117 41; 118 52; 
119 19; 120 7; 121 20; 122 3; 127 1; 
128 15; 129 56; 130 60; 131 26; 132 22; 
133 10; 134 5; 142 14; 143 11; 144 33; 
145 44; 146 29; 147 6; 148 1; 154 1; 
156 4; 157 10; 158 22; 159 76; 160 24; 
161 3; 169 1; 170 3; 171 4; 173 61; 
174 7; 185 3; 187 179; 188 999; 189 128; 
190 10; 
