Name: Aniline
InChIKey: PAYRUJLWNCNPSJ-UHFFFAOYSA-N
Formula: C6H7N
MW: 93
ExactMass: 93.0578494
CASNO: 62533
ID: 1576
Comment: DEA SWL / Alfa-Aesar lot K16J19
Num Peaks: 34
40 64; 41 58; 42 16; 43 5; 45 9; 
46 17; 47 51; 49 10; 50 50; 51 58; 
52 68; 53 19; 54 53; 60 2; 61 24; 
62 38; 63 64; 64 35; 65 232; 66 422; 
67 55; 73 5; 74 15; 75 8; 76 14; 
77 14; 78 26; 89 1; 90 1; 91 7; 
92 130; 93 999; 94 67; 95 1; 
