Name: Anileridine
InChIKey: LKYQLAWMNBFNJT-UHFFFAOYSA-N
Formula: C22H28N2O2
MW: 352
ExactMass: 352.215078
CASNO: 144149
ID: 1577
Comment: DEA SWL
Num Peaks: 103
40 1; 41 18; 42 163; 43 19; 44 11; 
45 3; 51 7; 52 3; 53 10; 54 5; 
55 5; 56 18; 57 3; 58 1; 59 27; 
60 3; 63 2; 65 12; 66 3; 67 5; 
68 8; 69 14; 70 9; 73 2; 77 50; 
78 15; 79 13; 80 6; 81 1; 82 7; 
84 5; 86 4; 88 1; 89 5; 90 1; 
91 74; 92 11; 93 14; 94 9; 95 1; 
96 8; 101 1; 102 8; 103 67; 104 16; 
105 16; 106 147; 107 15; 112 1; 115 50; 
116 17; 117 31; 118 31; 119 36; 120 112; 
121 11; 127 7; 128 25; 129 35; 130 13; 
131 24; 132 8; 133 3; 135 3; 141 3; 
142 2; 143 18; 144 13; 145 9; 146 1; 
147 3; 149 1; 155 1; 156 4; 157 1; 
158 27; 159 5; 160 1; 161 2; 162 1; 
170 3; 171 7; 172 47; 173 15; 174 8; 
175 1; 190 9; 191 1; 218 30; 219 4; 
244 4; 246 999; 247 168; 248 17; 249 1; 
253 1; 277 4; 279 13; 280 2; 281 1; 
282 1; 307 5; 350 1; 
