Name: Amoxapine
InChIKey: QWGDMFLQWFTERH-UHFFFAOYSA-N
Formula: C17H16ClN3O
MW: 313
ExactMass: 313.09819
CASNO: 14028445
ID: 1580
Comment: DEA SWL
Num Peaks: 203
40 1; 41 6; 42 21; 43 6; 44 5; 
50 9; 51 9; 52 4; 53 3; 54 6; 
56 106; 57 13; 58 7; 61 1; 62 5; 
63 24; 64 16; 65 6; 66 1; 68 11; 
69 29; 70 2; 73 4; 74 9; 75 20; 
76 11; 77 12; 78 4; 79 1; 80 2; 
81 1; 83 6; 84 4; 85 22; 86 4; 
87 7; 88 7; 89 7; 90 4; 91 3; 
92 13; 93 4; 97 3; 98 6; 99 4; 
100 8; 101 4; 102 7; 103 3; 104 3; 
105 2; 106 1; 108 3; 109 2; 110 4; 
111 7; 112 4; 113 7; 114 10; 115 4; 
116 3; 117 2; 118 1; 119 1; 120 3; 
122 1; 123 4; 124 20; 126 13; 127 5; 
128 5; 129 1; 130 2; 131 1; 132 1; 
136 3; 137 14; 138 33; 139 45; 140 24; 
141 4; 142 2; 143 1; 147 2; 148 1; 
149 6; 150 6; 151 8; 152 8; 153 6; 
154 3; 155 1; 157 3; 158 1; 159 2; 
161 1; 162 2; 164 138; 165 40; 166 26; 
167 11; 168 4; 169 1; 173 18; 174 24; 
175 9; 176 9; 177 5; 178 5; 179 8; 
180 7; 181 4; 182 2; 186 1; 187 1; 
188 1; 189 1; 190 3; 191 6; 193 343; 
194 72; 195 12; 196 2; 198 3; 200 20; 
201 14; 202 26; 203 13; 204 10; 205 9; 
206 9; 207 9; 208 8; 209 3; 210 8; 
211 1; 212 1; 213 1; 214 7; 215 11; 
216 15; 217 18; 218 7; 219 8; 220 6; 
221 31; 222 27; 223 25; 224 3; 228 186; 
229 70; 230 81; 231 23; 232 8; 233 2; 
234 4; 235 14; 236 8; 237 1; 239 2; 
240 3; 241 10; 242 10; 243 13; 244 120; 
245 999; 246 180; 247 318; 248 46; 249 7; 
250 1; 253 1; 254 4; 255 20; 257 413; 
258 80; 259 129; 260 23; 261 3; 269 80; 
270 28; 271 49; 272 12; 273 8; 274 1; 
276 1; 278 1; 281 2; 283 57; 284 14; 
285 24; 286 5; 287 2; 295 2; 296 1; 
297 2; 298 1; 310 2; 312 44; 313 51; 
314 24; 315 16; 316 3; 
