Name: Amitriptyline
Synon: Elavil
InChIKey: KRMDCWKBEZIMAB-UHFFFAOYSA-N
Formula: C20H23N
MW: 277
ExactMass: 277.18305
CASNO: 50486
ID: 1583
Comment: DEA SWL
Num Peaks: 82
41 1; 42 20; 43 6; 44 2; 51 2; 
56 5; 58 999; 59 36; 63 3; 65 2; 
70 1; 71 1; 75 1; 76 1; 77 3; 
78 1; 82 1; 83 1; 84 3; 87 1; 
88 1; 89 4; 91 14; 92 1; 95 2; 
100 1; 101 5; 102 2; 103 2; 105 1; 
107 1; 108 2; 113 1; 114 1; 115 14; 
116 2; 117 2; 126 2; 127 3; 128 7; 
129 2; 139 4; 141 5; 150 2; 151 4; 
152 8; 153 2; 163 4; 164 3; 165 11; 
166 1; 175 1; 176 5; 177 3; 178 12; 
179 3; 187 3; 188 2; 189 19; 190 6; 
191 10; 192 3; 193 2; 200 4; 201 5; 
202 42; 203 31; 204 12; 205 2; 213 5; 
214 1; 215 20; 216 7; 217 14; 218 8; 
219 5; 226 1; 227 1; 228 1; 229 1; 
231 1; 232 1; 
