Name: Aminorex
Synon: Aminoxaphen
Synon: 2-Amino-5-phenyl-2-oxazoline
Synon: 4,5-Dihydro-5-phenyl-2-oxazolamine
InChIKey: SYAKTDIEAPMBAL-UHFFFAOYSA-N
Formula: C9H10N2O
MW: 162
ExactMass: 162.079313
CASNO: 2207503
ID: 1584
Comment: DEA SWL
Num Peaks: 63
40 9; 41 16; 42 8; 43 12; 44 83; 
45 2; 49 2; 50 39; 51 91; 52 23; 
53 8; 54 3; 55 104; 56 999; 57 34; 
59 3; 61 5; 62 20; 63 59; 64 18; 
65 60; 66 6; 73 2; 74 12; 75 9; 
76 11; 77 133; 78 36; 79 71; 80 5; 
84 1; 85 2; 86 3; 87 4; 88 2; 
89 87; 90 45; 91 243; 92 37; 93 3; 
101 1; 102 7; 103 16; 104 28; 105 58; 
106 9; 107 80; 108 7; 115 1; 116 8; 
117 51; 118 390; 119 192; 120 16; 128 5; 
132 1; 133 1; 145 2; 160 2; 161 69; 
162 171; 163 18; 164 1; 
