Name: Adenine
InChIKey: GFFGJBXGBJISGV-UHFFFAOYSA-N
Formula: C5H5N5
MW: 135
ExactMass: 135.054495
CASNO: 73245
ID: 1615
Comment: DEA SWL
Num Peaks: 28
40 23; 41 8; 42 5; 43 59; 51 9; 
52 10; 53 141; 54 159; 55 32; 56 32; 
64 11; 65 35; 66 84; 68 31; 70 30; 
78 7; 80 62; 81 112; 92 30; 93 6; 
107 24; 108 319; 109 21; 118 10; 119 16; 
134 30; 135 999; 136 78; 
