Name: Amantadine
Synon: Adamantanamine
InChIKey: DKNWSYNQZKUICI-UHFFFAOYSA-N
Formula: C10H17N
MW: 151
ExactMass: 151.1361
CASNO: 768945
ID: 1617
Comment: AAFS / Probability Based Matching Data Base Entry
Num Peaks: 51
40 3; 41 21; 42 18; 43 3; 44 1; 
50 1; 51 7; 52 3; 53 12; 54 10; 
55 7; 56 5; 57 28; 58 14; 59 1; 
63 3; 65 13; 66 8; 67 23; 68 10; 
69 9; 70 4; 77 53; 78 10; 79 27; 
80 19; 81 17; 82 15; 83 4; 84 1; 
89 1; 91 34; 92 6; 94 999; 95 99; 
96 7; 103 2; 105 4; 106 7; 107 6; 
108 49; 109 7; 110 5; 115 1; 117 1; 
120 1; 122 2; 135 1; 136 5; 151 130; 
152 15; 
