Name: Aspirin
Synon: Acetylsalicylic acid
Synon: ASA
InChIKey: BSYNRYMUTXBXSQ-UHFFFAOYSA-N
Formula: C9H8O4
MW: 180
ExactMass: 180.042258
CASNO: 50782
ID: 1621
Comment: DEA SWL
Num Peaks: 57
37 7; 38 25; 39 53; 40 3; 41 8; 
42 47; 43 751; 44 22; 45 6; 49 1; 
50 19; 51 6; 52 3; 53 18; 55 1; 
60 2; 61 5; 62 16; 63 83; 64 67; 
65 83; 66 10; 67 1; 73 1; 74 5; 
75 4; 76 7; 77 6; 78 1; 79 3; 
81 7; 91 4; 92 271; 93 52; 94 13; 
104 1; 105 1; 109 4; 119 3; 120 999; 
121 415; 122 32; 123 2; 135 1; 136 2; 
137 1; 138 205; 139 15; 140 1; 162 2; 
163 82; 164 10; 165 1; 179 1; 180 105; 
181 12; 182 1; 
