Name: Phenacetin
Synon: Acetophenetin
Synon: p-Acetophenetidide
InChIKey: CPJSUEIXXCENMM-UHFFFAOYSA-N
Formula: C10H13NO2
MW: 179
ExactMass: 179.094628
CASNO: 62442
ID: 1622
Comment: DEA SWL
Num Peaks: 66
40 2; 41 5; 42 12; 43 175; 44 4; 
50 8; 51 20; 52 67; 53 97; 54 17; 
55 9; 56 1; 61 2; 62 9; 63 32; 
64 28; 65 42; 66 8; 67 3; 68 5; 
69 1; 74 2; 75 2; 76 3; 77 7; 
78 10; 79 23; 80 142; 81 127; 82 11; 
83 1; 89 1; 90 6; 91 14; 92 12; 
93 11; 94 7; 95 1; 104 1; 105 1; 
106 7; 107 25; 108 999; 109 905; 110 72; 
111 4; 119 1; 120 6; 121 2; 122 9; 
132 1; 133 1; 134 3; 135 18; 136 22; 
137 397; 138 43; 139 3; 150 10; 151 5; 
161 1; 163 2; 164 2; 179 494; 180 56; 
181 5; 
