Name: Acetanilide
Synon: Acetamide, N-phenyl-
Synon: N-Acetylaniline
Synon: N-Phenylacetamide
InChIKey: FZERHIULMFGESH-UHFFFAOYSA-N
Formula: C8H9NO
MW: 135
ExactMass: 135.068414
CASNO: 103844
ID: 1626
Comment: AAFS
Num Peaks: 20
42 10; 43 124; 50 13; 51 28; 52 12; 
54 5; 62 8; 63 25; 64 18; 65 90; 
66 134; 67 12; 77 28; 78 6; 91 12; 
92 48; 93 999; 94 72; 135 309; 136 27; 
