Name: Cyproheptadine
Synon: Periactin
InChIKey: JJCFRYNCJDLXIK-UHFFFAOYSA-N
Formula: C21H21N
MW: 287
ExactMass: 287.1674
CASNO: 129033
ID: 1627
Comment: AAFS / Probability Based Matching Data Base Entry
Num Peaks: 186
29 1; 30 1; 39 5; 41 10; 42 101; 
43 34; 44 25; 45 5; 50 2; 51 4; 
52 1; 53 4; 54 2; 55 2; 56 7; 
57 52; 58 45; 59 2; 62 1; 63 6; 
65 5; 66 1; 67 3; 68 2; 69 2; 
70 86; 71 21; 72 1; 74 4; 75 5; 
76 3; 77 6; 78 2; 79 2; 80 3; 
81 12; 82 12; 83 6; 84 2; 85 5; 
86 2; 87 6; 88 7; 89 7; 91 6; 
94 42; 96 208; 97 19; 98 3; 99 5; 
100 9; 101 20; 102 2; 103 1; 105 1; 
106 14; 108 24; 109 36; 110 8; 111 2; 
113 29; 114 10; 115 13; 116 2; 117 2; 
118 2; 122 2; 125 7; 126 6; 127 6; 
128 5; 129 4; 130 1; 132 1; 133 1; 
135 1; 137 4; 138 2; 139 13; 140 3; 
142 4; 143 14; 146 1; 149 2; 150 11; 
151 10; 152 13; 153 7; 154 2; 155 2; 
158 1; 161 3; 162 6; 163 23; 164 9; 
165 27; 166 4; 167 2; 168 1; 170 2; 
171 1; 174 4; 175 5; 176 15; 177 6; 
178 16; 179 4; 180 1; 181 3; 182 12; 
183 6; 184 1; 185 2; 186 5; 187 35; 
188 24; 189 109; 190 23; 191 29; 192 11; 
194 3; 196 34; 198 2; 199 7; 200 26; 
201 24; 202 116; 203 52; 204 19; 206 6; 
210 4; 211 14; 212 8; 213 161; 214 62; 
215 564; 216 156; 218 13; 219 2; 221 1; 
223 1; 224 14; 225 18; 226 151; 227 209; 
228 181; 229 246; 230 119; 231 71; 232 15; 
233 3; 236 13; 238 9; 239 69; 240 36; 
241 102; 242 33; 243 106; 244 33; 245 12; 
246 19; 247 3; 250 1; 251 1; 252 6; 
254 5; 255 18; 256 19; 257 24; 259 24; 
260 5; 264 1; 265 3; 267 1; 268 4; 
270 9; 271 9; 272 110; 273 3; 284 8; 
285 18; 286 464; 287 999; 288 158; 289 19; 
290 1; 
