Name: Cyclophosphamide
InChIKey: CMSMOCZEIVJLDB-UHFFFAOYSA-N
Formula: C7H15Cl2N2O2P
MW: 260
ExactMass: 260.02482
CASNO: 50180
ID: 1628
Comment: AAFS / Probability Based Matching Data Base Entry
Num Peaks: 122
42 65; 43 19; 44 12; 47 28; 49 29; 
51 12; 54 40; 55 27; 56 397; 57 33; 
58 15; 60 7; 61 8; 62 12; 63 72; 
64 15; 65 70; 67 13; 68 50; 69 81; 
70 59; 71 14; 73 8; 74 22; 75 31; 
76 36; 77 18; 78 18; 79 19; 80 27; 
81 9; 82 17; 83 58; 84 16; 85 13; 
86 20; 87 10; 88 18; 89 11; 90 48; 
91 26; 92 606; 93 47; 94 174; 95 15; 
96 15; 97 17; 98 9; 99 14; 100 9; 
101 11; 102 64; 103 20; 104 43; 105 31; 
106 112; 107 17; 108 30; 109 8; 110 11; 
111 93; 112 19; 113 9; 114 23; 115 10; 
116 9; 117 13; 118 28; 119 52; 120 946; 
121 75; 122 19; 124 13; 126 31; 127 17; 
128 26; 129 11; 130 12; 131 9; 132 44; 
133 64; 134 87; 135 43; 136 12; 138 13; 
139 8; 140 24; 142 19; 143 10; 145 78; 
146 12; 147 296; 148 21; 149 90; 153 6; 
154 27; 156 25; 157 8; 158 8; 161 36; 
162 22; 163 8; 168 11; 175 770; 176 57; 
177 8; 181 17; 183 17; 189 14; 195 9; 
197 79; 199 22; 211 999; 212 78; 213 349; 
214 28; 224 51; 225 21; 226 18; 227 8; 
260 9; 262 6; 
