Name: Cyclopentamine
InChIKey: HFXKQSZZZPGLKQ-UHFFFAOYSA-N
Formula: C9H19N
MW: 141
ExactMass: 141.15175
CASNO: 102454
ID: 1629
Comment: AAFS / Probability Based Matching Data Base Entry
Num Peaks: 28
42 34; 43 11; 44 35; 53 9; 54 7; 
55 22; 56 39; 58 999; 59 46; 65 8; 
67 36; 68 15; 69 37; 70 17; 71 9; 
72 17; 77 9; 79 9; 81 11; 82 11; 
84 18; 95 11; 96 9; 124 9; 126 143; 
127 13; 140 9; 141 54; 
