Name: Clotrimazole
Synon: Gyne lotrimin
InChIKey: VNFPBHJOKIVQEB-UHFFFAOYSA-N
Formula: C22H17ClN2
MW: 344
ExactMass: 344.108027
CASNO: 23593751
ID: 1642
Comment: AAFS / Probability Based Matching Data Base Entry
Num Peaks: 142
38 1; 39 9; 40 12; 41 6; 50 5; 
51 19; 52 3; 55 1; 62 2; 63 10; 
64 1; 65 5; 67 4; 68 11; 69 2; 
73 1; 74 4; 75 16; 76 9; 77 36; 
78 4; 81 2; 82 3; 85 2; 86 3; 
87 9; 88 6; 89 10; 90 2; 91 5; 
94 24; 96 1; 97 1; 98 3; 99 6; 
100 7; 101 11; 102 13; 103 9; 104 4; 
106 32; 110 1; 111 4; 112 9; 113 33; 
114 8; 115 21; 116 23; 119 148; 123 2; 
124 1; 125 18; 126 16; 127 9; 128 5; 
129 1; 133 6; 134 2; 137 7; 138 7; 
139 28; 140 7; 141 5; 146 3; 149 8; 
150 8; 151 13; 152 9; 153 9; 154 18; 
161 3; 162 6; 163 46; 164 55; 165 663; 
166 92; 167 10; 168 1; 173 1; 174 3; 
175 5; 176 19; 177 6; 178 7; 179 1; 
186 3; 187 13; 188 7; 189 14; 190 4; 
191 2; 199 111; 200 28; 201 44; 202 26; 
203 8; 204 6; 205 1; 206 1; 211 7; 
212 5; 213 29; 214 9; 215 48; 216 8; 
224 5; 225 7; 226 59; 227 18; 228 5; 
231 2; 232 1; 235 2; 236 3; 237 40; 
238 25; 239 287; 240 102; 241 236; 242 143; 
243 28; 244 2; 249 7; 250 4; 251 3; 
252 4; 253 2; 254 2; 262 8; 263 1; 
264 3; 265 1; 266 2; 267 1; 275 6; 
277 999; 278 210; 279 333; 280 70; 281 6; 
309 1; 344 4; 
