Name: Clonazepam
Synon: Klonopin
InChIKey: DGBIGWXXNGSACT-UHFFFAOYSA-N
Formula: C15H10ClN3O3
MW: 315
ExactMass: 315.041069
CASNO: 1622613
ID: 1645
Comment: DEA SWL
Num Peaks: 225
40 16; 41 21; 42 25; 43 7; 44 7; 
46 14; 49 11; 50 109; 51 194; 52 88; 
53 26; 54 14; 55 9; 56 6; 61 31; 
62 113; 63 224; 64 60; 65 66; 66 12; 
67 7; 68 14; 69 10; 70 13; 71 5; 
72 4; 73 37; 74 126; 75 367; 76 275; 
77 269; 78 92; 79 17; 80 40; 82 42; 
84 25; 85 35; 86 67; 87 97; 89 289; 
90 81; 91 44; 92 24; 93 21; 94 13; 
95 12; 96 29; 97 32; 98 64; 99 117; 
100 75; 101 77; 102 245; 103 175; 104 83; 
105 14; 106 10; 107 24; 108 23; 109 13; 
110 42; 111 122; 112 37; 113 110; 114 54; 
115 35; 116 42; 117 49; 118 10; 119 16; 
121 74; 122 26; 123 85; 124 36; 125 188; 
126 106; 127 97; 128 38; 129 55; 130 75; 
131 15; 132 14; 133 5; 134 14; 135 15; 
136 43; 137 86; 138 127; 139 105; 140 85; 
141 21; 142 9; 144 30; 146 6; 147 14; 
148 16; 149 134; 150 309; 151 375; 152 238; 
153 63; 154 17; 155 5; 157 13; 158 9; 
160 37; 161 35; 162 60; 163 118; 164 107; 
165 55; 166 75; 167 69; 168 17; 171 3; 
173 21; 174 22; 175 80; 176 178; 177 403; 
178 329; 179 243; 180 48; 181 6; 184 5; 
185 11; 186 38; 187 16; 188 27; 189 18; 
190 75; 191 69; 192 70; 193 89; 194 41; 
195 12; 197 5; 198 11; 199 15; 200 27; 
201 30; 202 27; 203 83; 204 115; 205 413; 
206 220; 207 47; 208 8; 209 4; 211 13; 
212 36; 213 151; 214 62; 215 54; 216 22; 
217 7; 218 4; 219 4; 220 12; 221 56; 
222 71; 223 17; 224 15; 225 28; 226 15; 
227 37; 228 44; 229 26; 230 19; 231 6; 
232 9; 233 83; 234 666; 235 114; 236 17; 
237 4; 239 265; 240 677; 241 265; 242 221; 
243 64; 244 7; 249 4; 250 15; 252 168; 
253 51; 254 14; 255 9; 256 56; 257 25; 
258 26; 259 31; 260 7; 261 6; 262 5; 
263 3; 268 222; 269 73; 270 104; 271 25; 
272 12; 273 10; 274 3; 275 3; 280 999; 
281 197; 282 22; 283 4; 284 7; 286 737; 
287 392; 288 641; 289 194; 290 147; 291 22; 
297 8; 298 24; 299 12; 300 9; 301 6; 
314 851; 315 601; 316 389; 317 211; 318 37; 
