Name: Clindamycin
Synon: Cleocin
InChIKey: KDLRVYVGXIQJDK-UHFFFAOYSA-N
Formula: C18H33ClN2O5S
MW: 424
ExactMass: 424.17987
CASNO: 18323449
ID: 1651
Comment: DEA SWL
Num Peaks: 32
41 18; 42 38; 43 14; 44 10; 45 9; 
47 3; 55 23; 56 9; 57 9; 58 5; 
61 9; 67 7; 68 3; 69 11; 70 12; 
71 1; 73 4; 81 3; 82 51; 83 28; 
84 7; 96 9; 97 3; 124 15; 126 999; 
127 93; 133 1; 135 4; 191 3; 209 3; 
253 4; 281 1; 
