Name: Desloratadine
Synon: Clarinex
InChIKey: JAUOIFJMECXRGI-UHFFFAOYSA-N
Formula: C19H19ClN2
MW: 310
ExactMass: 310.123676
CASNO: 100643718
ID: 1654
Comment: DEA SWL
Num Peaks: 144
40 7; 41 26; 42 222; 43 148; 44 94; 
51 52; 53 28; 55 16; 56 72; 63 51; 
65 24; 67 7; 73 7; 74 9; 75 35; 
77 51; 80 74; 81 8; 82 155; 83 29; 
87 14; 88 40; 89 58; 91 7; 93 55; 
94 27; 95 17; 96 58; 100 18; 101 33; 
102 128; 103 35; 106 16; 108 49; 109 211; 
113 10; 114 85; 115 240; 117 37; 121 104; 
122 107; 123 68; 125 8; 126 29; 127 36; 
128 39; 130 28; 133 26; 135 18; 139 68; 
140 27; 141 17; 147 11; 149 30; 150 19; 
151 44; 152 85; 153 16; 154 53; 156 25; 
163 94; 164 59; 165 96; 166 35; 167 8; 
175 15; 176 56; 177 54; 178 37; 179 36; 
187 17; 188 15; 189 119; 190 108; 191 158; 
192 108; 193 89; 194 7; 199 8; 201 36; 
202 89; 203 74; 204 167; 205 27; 207 2; 
208 5; 209 11; 213 7; 214 129; 215 105; 
216 331; 217 341; 218 219; 219 86; 220 7; 
226 17; 227 56; 228 197; 229 164; 230 291; 
231 199; 232 129; 233 51; 238 60; 240 53; 
241 46; 242 91; 243 105; 244 216; 245 292; 
246 80; 250 15; 251 123; 252 215; 253 190; 
254 195; 255 157; 256 63; 257 67; 258 9; 
264 52; 265 40; 266 893; 267 445; 268 527; 
269 197; 270 89; 278 78; 279 14; 280 999; 
281 628; 282 537; 283 227; 284 54; 292 156; 
293 124; 294 101; 295 88; 296 15; 309 151; 
310 800; 311 216; 312 288; 313 34; 
