Name: Cimetidine
Synon: Tagamet
InChIKey: AQIXAKUUQRKLND-UHFFFAOYSA-N
Formula: C10H16N6S
MW: 252
ExactMass: 252.115716
CASNO: 51481619
ID: 1657
Comment: AAFS / Probability Based Matching Data Base Entry
Num Peaks: 148
39 29; 40 57; 41 125; 42 281; 43 128; 
44 135; 45 143; 46 81; 47 74; 48 9; 
49 11; 50 29; 52 64; 53 151; 54 111; 
55 462; 56 120; 57 665; 58 275; 60 267; 
61 117; 63 9; 64 7; 65 7; 66 23; 
67 133; 68 247; 69 258; 70 280; 71 80; 
72 44; 73 188; 74 19; 75 42; 76 9; 
78 9; 79 13; 80 47; 81 86; 82 982; 
83 295; 84 72; 85 186; 87 132; 88 82; 
89 19; 90 11; 92 7; 93 16; 94 254; 
95 727; 96 530; 97 157; 98 182; 99 729; 
100 83; 101 54; 102 93; 103 54; 104 13; 
105 6; 106 4; 107 10; 108 20; 109 27; 
110 34; 111 608; 112 168; 113 26; 114 14; 
115 377; 116 999; 117 104; 118 53; 119 8; 
120 6; 121 14; 122 16; 123 32; 124 37; 
125 589; 126 321; 127 431; 128 136; 129 44; 
130 16; 132 7; 133 5; 135 10; 136 9; 
137 9; 138 10; 139 11; 140 16; 141 10; 
142 18; 143 14; 144 6; 145 3; 146 4; 
147 2; 149 5; 151 5; 152 6; 153 13; 
154 10; 156 6; 157 241; 158 252; 159 44; 
160 13; 161 6; 162 3; 163 3; 165 3; 
166 4; 167 5; 168 6; 169 4; 170 3; 
171 5; 175 2; 177 2; 179 3; 180 2; 
181 2; 182 6; 183 4; 184 2; 185 5; 
187 2; 189 5; 190 4; 199 3; 206 12; 
207 2; 208 2; 213 4; 219 7; 221 5; 
222 2; 233 3; 236 6; 237 2; 239 3; 
252 79; 253 13; 254 4; 
