Name: Chlorthalidone
Synon: Tenoretic
InChIKey: JIVPVXMEBJLZRO-UHFFFAOYSA-N
Formula: C14H11ClN2O4S
MW: 338
ExactMass: 338.012806
CASNO: 77361
ID: 1659
Comment: AAFS / Probability Based Matching Data Base Entry
Num Peaks: 153
41 15; 43 28; 44 18; 45 18; 48 10; 
50 65; 51 43; 52 12; 55 31; 57 20; 
59 10; 60 29; 62 15; 63 35; 64 40; 
65 48; 66 10; 67 16; 68 11; 69 38; 
70 17; 71 26; 73 27; 74 83; 75 205; 
76 348; 77 128; 78 23; 79 14; 80 31; 
81 21; 82 15; 83 31; 84 33; 85 27; 
86 19; 87 22; 88 15; 89 23; 90 16; 
91 24; 92 35; 93 39; 94 13; 95 26; 
96 10; 97 25; 98 21; 99 37; 100 28; 
101 25; 102 226; 103 47; 104 209; 105 97; 
106 13; 107 14; 109 53; 110 101; 111 49; 
112 33; 113 19; 114 10; 115 15; 117 11; 
119 19; 120 11; 121 21; 123 11; 124 11; 
125 16; 126 18; 127 22; 128 21; 129 26; 
130 581; 131 65; 132 42; 133 17; 136 19; 
137 46; 138 30; 139 41; 140 18; 141 13; 
143 20; 148 999; 149 121; 150 90; 151 67; 
152 38; 162 10; 163 10; 164 13; 166 17; 
173 10; 175 18; 176 34; 177 89; 178 28; 
179 12; 185 28; 186 20; 187 15; 188 11; 
191 31; 192 11; 193 28; 194 10; 204 16; 
205 16; 206 25; 211 26; 212 18; 213 48; 
214 48; 215 33; 216 14; 218 76; 219 10; 
220 34; 222 14; 228 10; 229 21; 230 17; 
239 247; 240 200; 241 154; 242 83; 243 25; 
257 30; 258 21; 259 20; 268 20; 285 172; 
286 30; 287 14; 292 11; 293 20; 294 18; 
304 17; 309 32; 310 12; 311 13; 320 59; 
321 356; 322 124; 323 123; 324 31; 338 123; 
339 22; 340 48; 341 11; 
