Name: Chlorphentermine
InChIKey: ZCKAMNXUHHNZLN-UHFFFAOYSA-N
Formula: C10H14ClN
MW: 183
ExactMass: 183.081477
CASNO: 461789
ID: 1662
Comment: DEA SWL
Num Peaks: 78
40 3; 41 48; 42 68; 43 13; 44 1; 
49 1; 50 7; 51 12; 52 2; 53 2; 
54 2; 55 2; 56 9; 57 12; 58 999; 
59 37; 61 2; 62 9; 63 32; 64 7; 
65 14; 67 10; 73 8; 74 4; 75 12; 
76 2; 77 9; 78 2; 84 5; 85 3; 
86 2; 87 3; 88 1; 89 63; 90 21; 
91 20; 92 2; 97 1; 99 21; 100 1; 
101 9; 102 3; 103 3; 104 1; 105 1; 
106 1; 111 1; 112 1; 113 1; 114 2; 
115 25; 116 17; 117 9; 118 3; 123 1; 
125 88; 126 8; 127 29; 128 5; 129 2; 
130 5; 131 4; 132 3; 133 5; 138 2; 
139 1; 140 1; 149 1; 151 5; 152 1; 
153 5; 155 1; 166 1; 167 2; 168 46; 
169 5; 170 15; 171 1; 
