Name: Chlorphenoxamine
InChIKey: KKHPNPMTPORSQE-UHFFFAOYSA-N
Formula: C18H22ClNO
MW: 303
ExactMass: 303.138992
CASNO: 77383
ID: 1663
Comment: DEA SWL
Num Peaks: 79
41 1; 42 27; 43 12; 44 9; 45 1; 
50 2; 51 9; 52 1; 56 10; 57 4; 
58 999; 59 36; 63 3; 65 1; 70 4; 
71 4; 72 14; 73 3; 74 2; 75 8; 
76 6; 77 27; 78 4; 82 1; 86 3; 
87 2; 88 10; 89 8; 90 1; 91 1; 
99 1; 101 14; 102 17; 103 32; 104 3; 
105 6; 111 7; 112 1; 113 3; 114 1; 
115 4; 125 1; 126 2; 127 2; 128 2; 
136 1; 137 17; 138 3; 139 15; 140 1; 
141 2; 149 1; 150 3; 151 6; 152 11; 
153 2; 163 7; 164 6; 165 53; 166 9; 
167 1; 175 1; 176 9; 177 7; 178 46; 
179 45; 180 20; 181 3; 194 1; 199 6; 
200 1; 201 3; 214 5; 215 16; 216 4; 
217 5; 303 5; 304 1; 305 2; 
