Name: Chloroprocaine
InChIKey: VDANGULDQQJODZ-UHFFFAOYSA-N
Formula: C13H19ClN2O2
MW: 270
ExactMass: 270.113506
CASNO: 133164
ID: 1666
Comment: DEA SWL
Num Peaks: 67
40 2; 41 16; 42 43; 43 12; 44 20; 
45 1; 51 1; 52 6; 53 2; 54 6; 
55 3; 56 48; 57 13; 58 70; 59 3; 
61 1; 62 6; 63 29; 64 10; 65 11; 
66 2; 68 1; 69 2; 70 22; 71 38; 
72 12; 73 9; 74 3; 75 4; 78 1; 
79 1; 84 36; 86 999; 87 55; 88 3; 
89 3; 90 38; 91 19; 92 8; 93 1; 
96 1; 97 3; 99 247; 100 24; 101 17; 
114 1; 116 1; 119 1; 120 12; 121 1; 
125 4; 126 40; 127 3; 128 15; 129 2; 
152 1; 154 199; 155 18; 156 61; 157 5; 
171 9; 173 3; 197 1; 198 27; 199 4; 
200 9; 255 1; 
