Name: Chloroform
Synon: Trichloromethane
InChIKey: HEDRZPFGACZZDS-UHFFFAOYSA-N
Formula: CHCl3
MW: 118
ExactMass: 117.914383
CASNO: 67663
ID: 1668
Comment: DEA SWL
Num Peaks: 27
12 5; 13 18; 28 1; 35 176; 36 26; 
37 54; 38 8; 41 1; 42 2; 47 278; 
48 159; 49 91; 50 53; 51 1; 70 15; 
72 10; 74 1; 83 999; 85 634; 86 14; 
87 102; 117 11; 118 15; 119 10; 120 15; 
121 4; 122 5; 
