Name: Clonidine
Synon: Catapres
InChIKey: GJSURZIOUXUGAL-UHFFFAOYSA-N
Formula: C9H9Cl2N3
MW: 229
ExactMass: 229.017353
CASNO: 4205907
ID: 1675
Comment: DEA SWL
Num Peaks: 160
41 56; 42 186; 43 150; 44 73; 45 2; 
47 7; 48 2; 49 30; 50 37; 51 33; 
52 17; 53 25; 54 6; 55 46; 56 4; 
57 8; 58 1; 60 6; 61 33; 62 48; 
63 63; 64 34; 65 7; 66 4; 67 9; 
68 6; 69 7; 70 14; 71 2; 72 13; 
73 71; 74 89; 75 136; 76 36; 77 18; 
78 7; 79 5; 82 6; 83 8; 84 30; 
85 28; 86 19; 87 25; 88 48; 89 15; 
90 23; 91 5; 92 1; 94 2; 95 2; 
96 38; 97 45; 98 34; 99 35; 100 96; 
101 18; 102 46; 103 16; 104 11; 105 8; 
106 2; 107 9; 108 7; 109 150; 110 48; 
111 125; 112 24; 113 25; 115 50; 117 17; 
118 8; 119 5; 120 2; 121 3; 122 5; 
123 6; 124 167; 125 28; 126 61; 127 13; 
128 3; 129 14; 130 12; 131 21; 132 16; 
133 75; 134 7; 135 53; 136 181; 137 56; 
138 83; 139 24; 140 10; 141 6; 142 2; 
143 1; 144 7; 145 120; 146 19; 147 77; 
148 10; 149 13; 150 9; 151 10; 152 23; 
153 39; 154 9; 155 11; 156 5; 157 36; 
158 66; 159 98; 160 23; 161 34; 162 9; 
163 17; 164 8; 165 90; 166 35; 167 48; 
168 15; 169 7; 170 2; 171 114; 172 590; 
173 119; 174 387; 175 42; 176 70; 177 6; 
178 3; 185 9; 186 38; 187 17; 188 26; 
189 8; 190 4; 191 4; 192 44; 193 86; 
194 400; 195 69; 196 122; 197 13; 198 1; 
199 117; 200 166; 201 97; 202 107; 203 26; 
204 17; 205 2; 227 2; 228 53; 229 999; 
230 140; 231 639; 232 71; 233 104; 234 10; 
