Name: Diltiazem
Synon: Cardizem
InChIKey: HSUGRBWQSSZJOP-UHFFFAOYSA-N
Formula: C22H26N2O4S
MW: 414
ExactMass: 414.16133
CASNO: 42399417
ID: 1677
Comment: DEA SWL
Num Peaks: 95
39 2; 41 2; 42 29; 43 48; 44 9; 
45 4; 50 1; 51 5; 52 1; 53 1; 
54 1; 55 1; 56 13; 57 11; 58 999; 
59 39; 60 1; 63 2; 64 2; 65 8; 
69 1; 70 6; 71 290; 72 97; 73 4; 
74 1; 75 1; 76 1; 77 18; 78 7; 
79 5; 80 1; 82 1; 83 1; 89 8; 
90 7; 91 10; 92 3; 96 1; 101 1; 
102 2; 103 3; 104 1; 105 2; 106 2; 
107 4; 108 4; 109 20; 110 1; 111 1; 
115 1; 117 3; 118 6; 119 2; 120 2; 
121 73; 122 7; 123 1; 131 1; 132 1; 
133 9; 134 3; 135 10; 136 37; 137 5; 
138 3; 139 1; 148 5; 149 9; 150 60; 
151 10; 152 2; 153 1; 159 1; 161 25; 
162 4; 163 1; 164 3; 165 1; 177 1; 
178 11; 179 1; 180 1; 192 8; 193 2; 
242 1; 255 1; 268 1; 281 1; 283 1; 
284 3; 296 2; 310 1; 312 1; 355 1; 
