Name: Ethyl stearate
Synon: Ethyl n-octadecanoate
InChIKey: MVLVMROFTAUDAG-UHFFFAOYSA-N
Formula: C20H40O2
MW: 312
ExactMass: 312.30283
CASNO: 111615
ID: 1686
Comment: DEA WRL
Num Peaks: 138
42 109; 43 673; 44 23; 45 71; 46 4; 
47 2; 50 1; 53 20; 54 32; 55 399; 
56 84; 57 325; 58 25; 59 18; 60 102; 
61 128; 62 2; 63 1; 65 4; 66 1; 
67 48; 68 25; 69 195; 70 238; 71 135; 
73 184; 74 18; 75 5; 77 2; 78 1; 
79 10; 80 4; 81 41; 82 15; 83 119; 
84 42; 85 54; 86 7; 87 2; 88 999; 
89 228; 90 13; 91 2; 93 7; 94 4; 
95 32; 96 13; 97 86; 98 35; 99 13; 
101 504; 102 45; 103 3; 107 7; 108 1; 
109 16; 110 6; 111 36; 112 7; 113 5; 
115 63; 116 7; 121 10; 122 2; 123 8; 
124 3; 125 15; 126 2; 127 3; 128 2; 
129 24; 130 12; 133 1; 135 8; 136 2; 
137 4; 138 2; 139 7; 140 1; 141 1; 
143 48; 144 16; 145 1; 149 6; 150 1; 
151 1; 152 1; 153 5; 154 1; 155 1; 
157 142; 158 17; 159 1; 163 3; 164 1; 
165 1; 167 3; 171 28; 172 4; 177 1; 
180 1; 181 1; 185 14; 186 3; 187 1; 
191 1; 195 2; 199 28; 200 8; 201 1; 
209 1; 213 61; 214 10; 215 1; 222 1; 
223 1; 224 1; 227 23; 228 4; 241 15; 
242 4; 247 1; 249 1; 255 17; 256 5; 
264 1; 265 3; 266 1; 267 42; 268 10; 
269 62; 270 12; 271 1; 283 12; 284 2; 
312 164; 313 37; 314 4; 
