Name: Ethylmorphine
InChIKey: OGDVEMNWJVYAJL-UHFFFAOYSA-N
Formula: C19H23NO3
MW: 313
ExactMass: 313.167793
CASNO: 76584
ID: 1687
Comment: DEA SWL
Num Peaks: 241
40 7; 41 38; 42 312; 43 43; 44 172; 
45 7; 50 8; 51 39; 52 15; 53 54; 
54 15; 55 87; 56 29; 57 51; 58 53; 
59 215; 60 16; 62 5; 63 34; 64 13; 
65 56; 66 16; 67 30; 68 28; 69 17; 
70 135; 71 17; 72 6; 74 6; 75 17; 
76 21; 77 117; 78 41; 79 35; 80 32; 
81 241; 82 90; 83 33; 84 15; 85 3; 
86 8; 87 7; 88 9; 89 48; 90 16; 
91 122; 92 21; 93 22; 94 145; 95 31; 
96 85; 97 16; 98 9; 99 3; 100 4; 
101 21; 102 43; 103 67; 104 25; 105 37; 
106 23; 107 41; 109 68; 110 33; 111 8; 
112 16; 113 15; 115 308; 116 68; 117 64; 
118 33; 119 26; 120 25; 121 20; 122 19; 
123 25; 124 327; 125 34; 126 28; 127 122; 
128 160; 129 71; 130 27; 131 109; 132 56; 
133 27; 134 42; 135 12; 136 27; 137 9; 
138 9; 139 70; 140 28; 141 103; 143 52; 
144 81; 145 59; 146 125; 147 62; 148 34; 
149 16; 150 15; 151 43; 152 160; 153 109; 
154 38; 155 51; 156 26; 157 60; 158 26; 
159 29; 160 71; 161 87; 162 608; 163 82; 
164 21; 165 99; 166 32; 167 40; 168 52; 
169 63; 170 34; 171 74; 172 31; 173 71; 
174 108; 175 80; 176 36; 177 20; 178 27; 
179 23; 180 18; 181 103; 182 42; 183 35; 
184 49; 185 44; 186 30; 187 22; 188 16; 
189 29; 190 16; 191 12; 192 31; 193 26; 
194 19; 195 29; 196 21; 197 80; 198 44; 
199 52; 200 44; 201 19; 202 73; 203 22; 
204 19; 205 9; 206 8; 207 11; 208 11; 
209 48; 210 34; 211 30; 212 29; 213 38; 
214 277; 215 70; 216 25; 217 6; 218 9; 
219 4; 220 6; 221 7; 222 8; 223 18; 
224 21; 225 92; 226 56; 227 48; 228 42; 
229 10; 230 15; 231 11; 232 11; 233 8; 
234 4; 235 6; 236 12; 237 11; 238 20; 
239 25; 240 19; 241 23; 242 23; 243 210; 
244 71; 245 9; 246 1; 248 1; 249 1; 
250 13; 251 14; 252 22; 253 13; 254 39; 
255 33; 256 120; 257 27; 258 6; 259 2; 
264 3; 265 5; 266 37; 267 21; 268 27; 
269 13; 270 37; 271 7; 272 1; 276 1; 
278 4; 279 1; 280 75; 281 14; 282 16; 
284 252; 285 57; 286 8; 294 44; 295 13; 
296 82; 297 20; 298 38; 299 7; 310 1; 
311 18; 312 143; 313 999; 314 211; 315 27; 
316 2; 
