Name: Ethchlorvynol
InChIKey: ZEHYJZXQEQOSON-AATRIKPKSA-N
Formula: C7H9ClO
MW: 144
ExactMass: 144.034193
CASNO: 113188
ID: 1691
Comment: AAFS / Probability Based Matching Data Base Entry
Num Peaks: 73
37 4; 38 6; 39 23; 40 3; 41 5; 
42 2; 43 20; 47 1; 48 1; 49 7; 
50 23; 51 72; 52 12; 53 142; 54 8; 
55 16; 56 1; 57 9; 60 5; 61 36; 
62 25; 63 40; 64 4; 65 40; 66 5; 
67 8; 68 1; 69 1; 72 1; 73 11; 
74 5; 75 10; 76 2; 77 14; 78 2; 
79 30; 80 3; 81 19; 82 1; 83 10; 
84 1; 85 2; 86 6; 87 22; 88 3; 
89 133; 90 6; 91 71; 92 4; 93 3; 
94 9; 95 1; 96 1; 97 2; 98 1; 
99 4; 100 1; 101 1; 102 2; 107 6; 
109 160; 110 12; 111 1; 112 1; 115 999; 
116 55; 117 319; 118 16; 119 1; 125 1; 
127 3; 129 6; 131 2; 
