Name: Ethambutol
InChIKey: AEUTYOVWOVBAKS-UHFFFAOYSA-N
Formula: C10H24N2O2
MW: 204
ExactMass: 204.183778
CASNO: 74555
ID: 1692
Comment: AAFS / Probability Based Matching Data Base Entry
Num Peaks: 61
42 38; 43 39; 44 79; 45 13; 49 8; 
53 3; 54 13; 55 57; 56 64; 57 33; 
58 51; 59 7; 60 7; 63 4; 67 9; 
68 16; 69 9; 70 50; 71 66; 72 255; 
73 20; 74 21; 75 5; 77 3; 82 11; 
83 7; 84 58; 85 40; 86 44; 87 4; 
88 13; 90 4; 96 3; 97 44; 98 12; 
99 7; 100 8; 102 999; 103 58; 104 5; 
112 5; 113 4; 114 12; 115 54; 116 122; 
117 12; 125 5; 126 4; 127 10; 130 6; 
139 3; 141 6; 143 4; 155 21; 156 4; 
157 6; 158 5; 168 6; 173 55; 174 5; 
176 3; 
