Name: Estazolam
Synon: ProSom
InChIKey: CDCHDCWJMGXXRH-UHFFFAOYSA-N
Formula: C16H11ClN4
MW: 294
ExactMass: 294.067225
CASNO: 29975164
ID: 1695
Comment: DEA SWL
Num Peaks: 212
40 31; 41 12; 42 2; 43 1; 47 3; 
49 15; 50 121; 51 303; 52 75; 53 29; 
54 5; 55 7; 56 1; 57 1; 60 3; 
61 24; 62 75; 63 145; 64 50; 65 49; 
66 10; 67 5; 68 7; 69 9; 70 5; 
72 6; 73 56; 74 129; 75 320; 76 211; 
77 571; 78 66; 79 7; 80 6; 82 42; 
84 14; 85 21; 86 55; 87 92; 88 150; 
89 195; 90 44; 91 47; 92 12; 93 27; 
94 6; 95 6; 96 5; 97 26; 98 53; 
99 94; 100 165; 101 153; 102 359; 103 186; 
104 110; 105 13; 106 13; 107 3; 108 9; 
109 25; 110 85; 111 108; 112 59; 113 81; 
114 54; 116 61; 117 9; 118 3; 120 55; 
121 25; 122 15; 123 37; 124 133; 125 57; 
126 114; 127 83; 128 97; 129 210; 131 4; 
133 7; 134 4; 135 22; 136 156; 137 501; 
138 145; 139 186; 140 46; 141 9; 142 10; 
143 6; 144 1; 145 1; 146 3; 147 12; 
148 11; 149 42; 150 138; 151 178; 152 92; 
153 27; 154 9; 155 4; 156 33; 157 6; 
158 1; 159 1; 160 5; 161 18; 162 63; 
163 301; 164 132; 165 98; 166 22; 167 3; 
168 1; 171 2; 172 2; 173 7; 174 21; 
175 59; 176 187; 177 261; 178 91; 179 24; 
180 4; 182 1; 183 1; 184 1; 185 6; 
186 16; 187 12; 188 36; 189 43; 190 128; 
191 58; 192 33; 193 7; 197 3; 198 13; 
199 33; 200 15; 201 41; 202 86; 203 268; 
204 376; 205 999; 206 156; 207 2; 210 2; 
211 14; 212 21; 213 25; 214 17; 215 14; 
216 13; 217 10; 218 6; 219 5; 220 1; 
223 2; 224 21; 225 9; 226 14; 227 9; 
228 7; 229 34; 230 46; 231 218; 232 151; 
233 22; 234 2; 236 2; 237 17; 238 88; 
239 599; 240 138; 241 201; 242 38; 243 4; 
245 1; 250 1; 251 4; 252 5; 253 6; 
254 3; 255 1; 256 1; 257 7; 258 38; 
259 901; 260 166; 261 16; 263 4; 264 5; 
265 234; 266 73; 267 83; 268 25; 269 4; 
270 1; 277 1; 278 1; 279 6; 280 1; 
281 1; 293 510; 294 546; 295 247; 296 183; 
297 29; 298 3; 
