Name: Erucic Acid
Synon: Fatty Acid: Erucic
Synon: (Z)-13-Docosenoic acid
InChIKey: DPUOLQHDNGRHBS-KTKRTIGZSA-N
Formula: C22H42O2
MW: 338
ExactMass: 338.318481
CASNO: 112867
ID: 1697
Comment: AAFS
Num Peaks: 188
42 106; 43 491; 44 19; 45 51; 51 3; 
53 50; 54 195; 55 999; 56 296; 57 415; 
58 22; 59 27; 60 158; 61 20; 65 16; 
66 21; 67 285; 68 189; 69 777; 70 333; 
71 204; 72 12; 73 149; 74 13; 77 18; 
78 6; 79 68; 80 45; 81 254; 82 264; 
83 716; 84 357; 85 127; 86 11; 87 55; 
88 6; 89 2; 91 22; 92 7; 93 35; 
94 40; 95 189; 96 283; 97 642; 98 280; 
99 54; 100 37; 101 65; 102 7; 105 12; 
106 5; 107 30; 108 32; 109 101; 110 151; 
111 290; 112 106; 113 42; 114 72; 115 45; 
116 14; 117 5; 118 3; 119 22; 120 11; 
121 37; 122 21; 123 102; 124 95; 125 142; 
126 56; 127 72; 128 16; 129 38; 130 6; 
131 3; 132 3; 133 26; 134 29; 135 38; 
136 19; 137 76; 138 64; 139 66; 140 32; 
141 17; 142 5; 143 13; 144 3; 147 21; 
148 24; 149 27; 150 14; 151 54; 152 50; 
153 36; 154 15; 155 13; 156 4; 157 10; 
158 3; 159 2; 161 17; 162 8; 163 13; 
164 8; 165 41; 166 29; 167 21; 168 10; 
169 8; 170 2; 171 8; 172 3; 173 2; 
175 11; 176 4; 177 9; 178 5; 179 26; 
180 17; 181 14; 182 8; 183 5; 185 7; 
186 2; 189 7; 190 2; 191 5; 192 5; 
193 19; 194 15; 195 11; 196 6; 197 4; 
199 4; 200 2; 203 4; 204 2; 205 4; 
206 2; 207 22; 208 18; 209 6; 210 3; 
211 5; 213 3; 217 4; 219 4; 220 4; 
221 27; 222 24; 223 7; 224 4; 225 5; 
226 2; 227 2; 228 2; 235 31; 236 35; 
237 7; 238 4; 239 4; 241 2; 242 2; 
245 2; 249 34; 250 24; 251 6; 255 3; 
256 3; 263 31; 264 15; 265 5; 276 13; 
277 32; 278 28; 279 7; 291 19; 292 11; 
295 3; 302 6; 303 2; 305 2; 320 136; 
321 42; 322 6; 338 11; 
