Name: Ecgonine
InChIKey: PHMBVCPLDPDESM-UHFFFAOYSA-N
Formula: C9H15NO3
MW: 185
ExactMass: 185.105193
CASNO: 481378
ID: 1703
Comment: DEA SWL
Num Peaks: 79
40 34; 41 176; 42 528; 43 107; 44 151; 
45 56; 50 16; 51 42; 52 27; 53 90; 
54 82; 55 234; 56 153; 57 434; 58 165; 
59 4; 60 12; 63 6; 65 42; 66 29; 
67 114; 68 151; 69 57; 70 106; 71 38; 
75 2; 77 57; 78 28; 79 50; 80 67; 
81 98; 82 999; 83 568; 84 120; 85 8; 
86 110; 87 4; 91 55; 92 16; 93 76; 
94 389; 95 81; 96 804; 97 404; 98 88; 
99 7; 100 4; 102 11; 105 14; 106 12; 
107 13; 108 67; 109 8; 110 55; 111 9; 
112 131; 113 5; 119 8; 120 13; 122 66; 
123 43; 124 327; 125 26; 126 26; 128 4; 
130 2; 138 73; 139 10; 140 46; 141 74; 
142 28; 156 16; 157 2; 166 2; 167 21; 
168 71; 169 2; 170 4; 185 73; 
