Name: Dyclonine (or breakdown product)
InChIKey: BZEWSEKUUPWQDQ-UHFFFAOYSA-N
Formula: C18H27NO2
MW: 289
ExactMass: 289.20418
CASNO: 586607
ID: 1704
Comment: DEA SWL
Num Peaks: 55
40 3; 41 69; 42 3; 43 2; 50 15; 
51 10; 52 2; 53 9; 54 1; 55 86; 
56 9; 57 38; 58 1; 62 6; 63 25; 
64 21; 65 81; 66 8; 67 2; 74 5; 
75 7; 76 22; 77 22; 78 4; 79 1; 
89 4; 90 2; 91 45; 92 34; 93 68; 
94 7; 102 5; 103 21; 104 10; 105 6; 
106 2; 107 2; 118 2; 119 22; 120 62; 
121 999; 122 75; 123 6; 131 7; 133 2; 
147 18; 148 178; 149 30; 150 2; 161 5; 
177 37; 178 4; 204 170; 205 24; 206 2; 
