Name: Doxylamine
Synon: Unisom
InChIKey: HCFDWZZGGLSKEP-UHFFFAOYSA-N
Formula: C17H22N2O
MW: 270
ExactMass: 270.173214
CASNO: 469216
ID: 1707
Comment: DEA SWL
Num Peaks: 86
40 1; 41 3; 42 51; 43 23; 44 20; 
45 3; 50 5; 51 26; 52 11; 53 4; 
54 1; 55 2; 56 28; 57 18; 58 999; 
59 35; 62 1; 63 5; 64 1; 65 3; 
70 13; 71 704; 72 80; 73 3; 74 1; 
75 3; 76 5; 77 40; 78 45; 79 13; 
80 4; 84 2; 86 4; 87 1; 88 27; 
89 6; 90 3; 91 4; 92 1; 93 2; 
96 1; 101 2; 102 5; 103 9; 104 12; 
105 12; 106 9; 107 1; 113 1; 114 1; 
115 5; 116 1; 117 1; 122 4; 126 2; 
127 6; 128 5; 129 1; 130 1; 133 1; 
139 8; 140 5; 141 2; 146 1; 150 1; 
151 4; 152 16; 153 4; 154 5; 155 2; 
156 4; 165 1; 166 16; 167 138; 168 21; 
169 1; 178 5; 179 4; 180 78; 181 38; 
182 67; 183 29; 184 6; 198 3; 200 9; 
201 1; 
