Name: Doxepin
Synon: Sinequan
InChIKey: ODQWQRRAPPTVAG-BOPFTXTBSA-N
Formula: C19H21NO
MW: 279
ExactMass: 279.162313
CASNO: 1668195
ID: 1708
Comment: DEA SWL
Num Peaks: 85
41 2; 42 22; 43 8; 44 2; 50 1; 
51 4; 52 1; 53 1; 55 3; 56 6; 
58 999; 59 36; 62 1; 63 5; 64 1; 
65 3; 70 1; 71 2; 74 1; 75 2; 
76 3; 77 5; 78 1; 82 2; 84 2; 
87 1; 88 2; 89 6; 91 4; 95 2; 
101 2; 102 3; 103 1; 107 2; 113 1; 
114 1; 115 18; 116 2; 117 1; 126 3; 
127 4; 128 10; 129 2; 131 1; 139 8; 
140 1; 141 2; 150 3; 151 7; 152 17; 
153 4; 163 6; 164 6; 165 30; 166 6; 
167 1; 175 1; 176 8; 177 5; 178 26; 
179 6; 180 1; 181 1; 187 1; 188 1; 
189 19; 190 8; 191 12; 192 4; 193 2; 
194 2; 195 1; 200 1; 201 3; 202 15; 
203 7; 204 2; 205 6; 206 1; 207 1; 
215 2; 218 6; 219 10; 220 3; 221 2; 
