Name: N,N-Dimethylamphetamine
Synon: DMA
Synon: N,N,.alpha.-Trimethylphenethylamine
Synon: Dimethylamphetamine
Synon: Dimetamfetamine
Synon: N,N-alpha-Trimethyl-benzeneethanamine
InChIKey: OBDSVYOSYSKVMX-UHFFFAOYSA-N
Formula: C11H17N
MW: 163
ExactMass: 163.1361
CASNO: 4075961
ID: 1714
Comment: DEA SWL / SWGDRUG Monograph available
Num Peaks: 60
38 2; 39 27; 40 3; 41 19; 42 68; 
43 9; 44 55; 45 2; 50 7; 51 20; 
52 6; 53 2; 54 5; 55 6; 56 51; 
57 19; 58 62; 59 3; 62 3; 63 14; 
64 4; 65 42; 66 3; 70 30; 71 13; 
72 999; 73 46; 74 4; 75 2; 76 3; 
77 16; 78 8; 79 3; 87 1; 89 12; 
90 4; 91 85; 92 7; 102 3; 103 8; 
104 5; 105 4; 115 16; 116 5; 117 13; 
118 6; 119 2; 130 3; 131 2; 132 6; 
133 9; 134 2; 144 2; 146 8; 147 3; 
148 12; 149 1; 160 2; 162 2; 163 1; 
