Name: Oxybutynin
Synon: Ditropan
InChIKey: XIQVNETUBQGFHX-UHFFFAOYSA-N
Formula: C22H31NO3
MW: 357
ExactMass: 357.230394
CASNO: 5633205
ID: 1716
Comment: DEA SWL
Num Peaks: 152
40 15; 41 264; 42 218; 43 54; 44 66; 
45 4; 47 15; 50 14; 51 72; 52 90; 
53 112; 54 135; 55 417; 56 223; 57 62; 
58 221; 59 9; 62 1; 63 6; 64 1; 
65 27; 66 16; 67 108; 68 86; 69 85; 
70 38; 71 18; 72 47; 73 112; 74 10; 
75 3; 76 8; 77 284; 78 46; 79 290; 
80 78; 81 67; 82 32; 83 123; 84 16; 
85 5; 86 77; 87 6; 89 7; 90 4; 
91 243; 92 24; 93 28; 94 94; 95 31; 
96 35; 97 228; 98 17; 99 3; 101 1; 
102 6; 103 40; 104 11; 105 485; 106 54; 
107 443; 108 204; 109 135; 110 25; 111 7; 
112 8; 113 5; 114 1; 115 58; 116 13; 
117 33; 118 6; 119 3; 120 10; 121 20; 
122 66; 123 57; 124 82; 125 91; 126 176; 
127 25; 128 36; 129 92; 130 14; 131 18; 
132 11; 133 27; 134 3; 135 2; 137 2; 
138 3; 139 4; 140 26; 141 42; 142 30; 
143 19; 144 4; 145 17; 146 6; 147 4; 
151 3; 152 6; 153 1; 154 2; 155 5; 
156 3; 157 8; 158 2; 159 4; 165 1; 
167 1; 169 3; 170 2; 171 30; 172 6; 
173 7; 174 1; 179 1; 185 4; 186 2; 
187 8; 188 7; 189 388; 190 53; 191 4; 
197 1; 199 12; 200 3; 202 1; 203 2; 
207 1; 257 2; 258 7; 260 1; 274 66; 
275 13; 276 1; 313 1; 324 1; 328 3; 
329 1; 338 1; 339 2; 340 2; 341 1; 
342 999; 343 239; 344 34; 345 2; 356 17; 
357 34; 358 7; 
