Name: Di-n-pentyl phthalate
Synon: Phthalate, Di-n-pentyl
InChIKey: IPKKHRVROFYTEK-UHFFFAOYSA-N
Formula: C18H26O4
MW: 306
ExactMass: 306.18311
CASNO: 131180
ID: 1725
Comment: AAFS
Num Peaks: 48
50 15; 51 5; 52 1; 53 5; 54 2; 
55 34; 56 2; 57 2; 63 1; 65 26; 
66 2; 67 2; 68 1; 69 6; 70 14; 
71 13; 74 3; 75 6; 76 47; 77 13; 
78 1; 79 1; 91 1; 92 2; 93 22; 
94 1; 104 43; 105 23; 106 2; 121 21; 
122 16; 123 9; 129 1; 132 3; 133 1; 
135 2; 149 999; 150 89; 151 9; 167 6; 
174 1; 176 1; 219 20; 220 4; 237 52; 
238 8; 239 1; 306 2; 
