Name: Dinonyl phthalate
Synon: Phthalate: Dinonyl
InChIKey: DROMNWUQASBTFM-UHFFFAOYSA-N
Formula: C26H42O4
MW: 418
ExactMass: 418.30831
CASNO: 84764
ID: 1726
Comment: AAFS
Num Peaks: 99
50 10; 51 5; 52 1; 53 16; 54 11; 
55 174; 56 65; 57 758; 58 36; 59 1; 
63 1; 64 1; 65 18; 66 2; 67 20; 
68 11; 69 149; 70 111; 71 219; 72 12; 
73 1; 74 2; 75 5; 76 44; 77 19; 
78 2; 79 5; 80 1; 81 6; 83 66; 
84 13; 85 9; 86 1; 91 3; 92 2; 
93 16; 94 2; 95 20; 96 2; 97 5; 
98 8; 99 2; 104 43; 105 26; 106 3; 
109 2; 111 66; 112 6; 113 1; 115 1; 
119 1; 121 17; 122 15; 123 5; 124 1; 
126 11; 127 65; 128 7; 129 5; 131 1; 
132 6; 133 3; 135 1; 145 1; 146 3; 
149 999; 150 101; 151 10; 159 57; 160 7; 
163 1; 167 55; 168 4; 174 36; 175 6; 
176 27; 177 3; 179 2; 190 1; 193 4; 
194 2; 203 2; 205 6; 219 1; 236 1; 
275 14; 276 11; 277 2; 293 153; 294 29; 
295 4; 319 1; 320 7; 321 1; 347 1; 
361 2; 362 10; 363 3; 403 1; 
