Name: Di-n-butyl phthalate
Synon: Phthalate, Di-n-butyl
InChIKey: DOIRQSBPFJWKBE-UHFFFAOYSA-N
Formula: C16H22O4
MW: 278
ExactMass: 278.15181
CASNO: 84742
ID: 1727
Comment: AAFS
Num Peaks: 48
50 15; 51 5; 53 2; 54 1; 55 9; 
56 20; 57 19; 63 1; 64 1; 65 24; 
66 2; 73 1; 74 4; 75 7; 76 48; 
77 13; 78 1; 79 1; 91 1; 92 2; 
93 24; 94 2; 104 50; 105 27; 106 2; 
121 23; 122 15; 123 7; 129 1; 132 5; 
133 1; 135 4; 136 1; 149 999; 150 89; 
151 9; 160 6; 161 1; 167 3; 177 1; 
178 1; 193 1; 205 35; 206 5; 223 46; 
224 6; 233 1; 278 4; 
