Name: Dimethylsulfone
Synon: DMSO2
Synon: Methylsulfonylmethane
Synon: MSM
InChIKey: HHVIBTZHLRERCL-UHFFFAOYSA-N
Formula: C2H6O2S
MW: 94
ExactMass: 94.0088506
CASNO: 67710
ID: 1729
Comment: DEA SWL
Num Peaks: 27
35 3; 40 1; 44 9; 45 100; 46 39; 
47 25; 48 87; 49 22; 50 7; 51 4; 
57 3; 58 4; 59 2; 60 2; 61 5; 
62 20; 63 85; 64 40; 65 24; 66 2; 
78 13; 79 999; 80 21; 81 45; 94 573; 
95 18; 96 26; 
