Name: Dimethyl phthalate
Synon: Phthalate, Dimethyl
InChIKey: NIQCNGHVCWTJSM-UHFFFAOYSA-N
Formula: C10H10O4
MW: 194
ExactMass: 194.057909
CASNO: 131113
ID: 1730
Comment: AAFS
Num Peaks: 42
49 7; 50 108; 51 32; 52 7; 53 7; 
59 10; 61 2; 62 5; 63 21; 64 27; 
65 11; 66 7; 73 8; 74 51; 75 42; 
76 130; 77 214; 78 16; 79 19; 80 1; 
89 1; 90 1; 91 14; 92 110; 93 9; 
104 55; 105 36; 106 3; 107 2; 119 9; 
120 24; 121 3; 133 70; 134 7; 135 55; 
136 6; 149 7; 163 999; 164 99; 165 10; 
194 56; 195 6; 
