Name: Hydromorphone
Synon: Dilaudid
InChIKey: WVLOADHCBXTIJK-UHFFFAOYSA-N
Formula: C17H19NO3
MW: 285
ExactMass: 285.136494
CASNO: 466999
ID: 1731
Comment: DEA SWL
Num Peaks: 203
36 6; 38 13; 39 107; 40 8; 41 104; 
42 571; 43 67; 44 265; 45 15; 50 30; 
51 98; 52 37; 53 81; 54 31; 55 177; 
56 52; 57 190; 58 211; 59 224; 60 54; 
62 19; 63 86; 64 25; 65 91; 66 29; 
67 37; 68 73; 69 23; 70 222; 71 23; 
72 18; 73 3; 74 20; 75 28; 76 43; 
77 158; 78 56; 79 31; 80 31; 81 46; 
82 199; 83 87; 84 96; 85 12; 86 3; 
87 18; 88 17; 89 87; 90 30; 91 137; 
92 38; 93 22; 94 95; 95 25; 96 408; 
97 42; 98 14; 99 17; 100 16; 101 31; 
102 65; 103 89; 104 30; 105 37; 106 17; 
107 43; 108 41; 109 10; 110 29; 111 20; 
112 15; 113 14; 114 56; 115 442; 116 108; 
117 61; 118 40; 119 19; 120 53; 121 15; 
122 27; 123 23; 124 43; 125 10; 126 9; 
127 165; 128 215; 129 94; 130 36; 131 154; 
132 53; 133 9; 134 63; 135 13; 136 21; 
137 15; 138 4; 139 65; 140 29; 141 86; 
142 38; 143 53; 144 116; 145 68; 146 33; 
147 56; 148 35; 149 10; 150 9; 151 22; 
152 81; 153 86; 154 36; 155 56; 156 35; 
157 111; 158 49; 159 41; 160 71; 161 116; 
162 113; 163 50; 164 19; 165 36; 166 14; 
167 24; 168 46; 169 57; 170 47; 171 303; 
172 98; 173 113; 174 116; 175 44; 176 30; 
177 12; 178 6; 179 3; 180 14; 181 63; 
182 33; 183 34; 184 114; 185 141; 186 111; 
187 90; 188 37; 189 11; 190 4; 191 5; 
193 4; 194 3; 195 17; 196 28; 197 38; 
198 131; 199 109; 200 249; 201 80; 202 47; 
203 41; 204 3; 207 1; 208 10; 209 12; 
210 15; 211 40; 212 39; 213 33; 214 311; 
215 90; 216 74; 217 11; 223 3; 224 10; 
225 12; 226 68; 227 48; 228 339; 229 366; 
230 81; 231 9; 238 4; 239 6; 240 23; 
241 9; 242 100; 243 15; 253 8; 254 4; 
256 114; 257 55; 258 8; 266 2; 268 18; 
269 3; 270 37; 271 4; 283 8; 284 117; 
285 999; 286 204; 287 29; 
