Name: Diisobutyl phthalate
Synon: Phthalate: Diisobutyl
InChIKey: MGWAVDBGNNKXQV-UHFFFAOYSA-N
Formula: C16H22O4
MW: 278
ExactMass: 278.15181
CASNO: 84695
ID: 1734
Comment: AAFS
Num Peaks: 48
50 30; 51 10; 52 1; 53 4; 55 11; 
56 37; 57 130; 58 6; 63 1; 64 2; 
65 36; 66 3; 73 1; 74 7; 75 12; 
76 83; 77 19; 78 1; 79 1; 91 1; 
92 2; 93 27; 94 2; 104 97; 105 24; 
106 2; 115 1; 121 23; 122 12; 123 7; 
132 19; 133 2; 135 2; 149 999; 150 96; 
151 10; 161 1; 162 2; 163 1; 167 28; 
168 2; 189 1; 205 13; 206 2; 207 1; 
223 56; 224 8; 225 1; 
