Name: Dihydromorphine
InChIKey: IJVCSMSMFSCRME-UHFFFAOYSA-N
Formula: C17H21NO3
MW: 287
ExactMass: 287.152143
CASNO: 509604
ID: 1735
Comment: DEA SWL
Num Peaks: 177
40 7; 41 72; 42 342; 43 81; 44 323; 
45 16; 50 6; 51 50; 52 10; 53 42; 
54 7; 55 115; 56 35; 57 94; 58 123; 
59 182; 60 15; 63 32; 64 11; 65 60; 
66 16; 67 26; 68 34; 69 8; 70 407; 
71 67; 72 17; 75 22; 76 8; 77 120; 
78 49; 79 43; 80 14; 81 26; 82 133; 
83 60; 84 23; 85 7; 89 47; 90 11; 
91 129; 92 13; 93 15; 94 64; 95 21; 
96 65; 97 10; 98 18; 99 13; 101 8; 
102 39; 103 78; 104 20; 105 39; 106 18; 
107 48; 108 54; 109 21; 110 7; 113 18; 
114 28; 115 290; 116 68; 117 59; 118 24; 
119 28; 120 38; 121 15; 122 24; 123 38; 
124 10; 126 42; 127 132; 128 155; 129 70; 
130 30; 131 117; 132 42; 133 14; 134 32; 
135 43; 136 51; 137 24; 138 7; 139 34; 
140 8; 141 71; 142 20; 143 44; 144 96; 
145 70; 146 96; 147 89; 148 53; 149 21; 
150 31; 151 27; 152 64; 153 60; 154 39; 
155 52; 156 33; 157 82; 158 34; 159 31; 
160 50; 161 78; 162 54; 163 40; 164 398; 
165 115; 166 16; 167 16; 168 25; 169 38; 
170 21; 171 132; 172 39; 173 106; 174 104; 
175 44; 176 55; 177 16; 181 46; 182 24; 
183 52; 184 51; 185 141; 186 82; 187 84; 
188 47; 189 19; 190 8; 191 1; 193 17; 
195 16; 196 6; 197 31; 198 29; 199 63; 
200 63; 201 70; 202 37; 203 23; 204 14; 
205 6; 209 7; 210 7; 211 45; 212 69; 
213 60; 214 94; 215 33; 216 94; 217 20; 
226 27; 227 14; 228 141; 229 77; 230 150; 
231 47; 240 13; 242 47; 243 69; 244 66; 
254 19; 256 14; 258 66; 268 39; 269 16; 
270 121; 271 23; 272 50; 286 225; 287 999; 
288 208; 289 21; 
