Name: Diethyl ether
Synon: Ethyl ether
Synon: Ether
InChIKey: RTZKZFJDLAIYFH-UHFFFAOYSA-N
Formula: C4H10O
MW: 74
ExactMass: 74.073165
CASNO: 60297
ID: 1741
Comment: DEA SWL
Num Peaks: 30
13 1; 14 9; 15 40; 16 2; 19 14; 
26 67; 27 284; 28 86; 29 579; 31 999; 
32 15; 33 2; 39 4; 41 107; 42 37; 
43 155; 44 47; 45 492; 46 11; 47 11; 
55 2; 57 7; 59 752; 60 25; 61 2; 
70 1; 73 94; 74 573; 75 44; 76 3; 
