Name: Didodecyl phthalate
Synon: Phthalate: Didodecyl
InChIKey: PUFGCEQWYLJYNJ-UHFFFAOYSA-N
Formula: C32H54O4
MW: 502
ExactMass: 502.40221
CASNO: 2432908
ID: 1742
Comment: AAFS
Num Peaks: 67
50 3; 51 1; 53 5; 54 10; 55 81; 
56 33; 57 96; 58 4; 65 5; 66 1; 
67 13; 68 10; 69 50; 70 21; 71 38; 
72 2; 75 1; 76 13; 77 7; 78 1; 
79 2; 81 6; 82 7; 83 26; 84 10; 
85 20; 86 1; 93 6; 95 2; 96 3; 
97 18; 98 5; 99 5; 104 18; 105 12; 
106 1; 110 1; 111 7; 112 2; 113 3; 
121 8; 122 8; 123 9; 124 1; 125 1; 
127 1; 132 2; 133 1; 135 1; 140 3; 
145 1; 146 2; 149 999; 150 100; 151 11; 
160 1; 167 23; 168 5; 169 4; 176 2; 
260 2; 274 1; 317 5; 318 3; 335 78; 
336 17; 337 2; 
