Name: Methylene chloride
Synon: Dichloromethane
InChIKey: YMWUJEATGCHHMB-UHFFFAOYSA-N
Formula: CH2Cl2
MW: 84
ExactMass: 83.9533553
CASNO: 75092
ID: 1744
Comment: DEA SWL / Sigma-Aldrich lot 00542JE
Num Peaks: 28
12 8; 13 20; 14 44; 25 1; 28 1; 
35 224; 36 37; 37 77; 38 13; 41 17; 
42 11; 43 2; 47 268; 48 138; 49 999; 
50 49; 51 297; 52 4; 61 1; 70 11; 
72 7; 74 1; 82 9; 84 612; 85 28; 
86 389; 87 7; 88 57; 
