Name: Dibromoethane
InChIKey: APQIUTYORBAGEZ-UHFFFAOYSA-N
Formula: C2H4Br2
MW: 186
ExactMass: 185.867974
CASNO: 557915
ID: 1746
Comment: DEA SWL
Num Peaks: 26
79 84; 80 24; 81 85; 82 23; 83 2; 
91 15; 92 10; 93 58; 94 12; 95 42; 
103 3; 104 15; 105 35; 106 25; 107 999; 
108 28; 109 926; 110 19; 158 6; 160 12; 
162 5; 173 1; 186 22; 188 43; 189 1; 
190 19; 
