Name: Dibenzylamine
Synon: N-benzylbenzylamine
InChIKey: BWLUMTFWVZZZND-UHFFFAOYSA-N
Formula: C14H15N
MW: 197
ExactMass: 197.120449
CASNO: 103491
ID: 1747
Comment: DEA SWL / Acros lot A0230922
Num Peaks: 50
40 3; 41 12; 42 2; 50 14; 51 45; 
52 12; 53 3; 62 4; 63 21; 64 6; 
65 124; 66 7; 74 2; 75 2; 76 4; 
77 43; 78 17; 79 39; 80 3; 89 30; 
90 14; 91 999; 92 230; 93 14; 103 2; 
104 26; 105 6; 106 714; 107 56; 108 1; 
115 1; 116 3; 117 7; 118 64; 119 10; 
120 95; 121 8; 152 3; 153 1; 165 6; 
166 2; 167 2; 178 1; 179 1; 180 1; 
194 6; 195 4; 196 100; 197 73; 198 10; 
