Name: Diacetylephedrine
Synon: Efedrine.2AC
Synon: Ephedrine.2AC
InChIKey: DISCLSGXBAXBTJ-UHFFFAOYSA-N
Formula: C14H19NO3
MW: 249
ExactMass: 249.136494
CASNO: 55133909
ID: 1750
Comment: ENFSI / NFI/Bufa BV 97B17FO-112523
Num Peaks: 72
39 7; 40 1; 41 5; 42 45; 43 181; 
44 11; 45 5; 50 4; 51 17; 52 5; 
53 2; 54 4; 55 4; 56 54; 57 20; 
58 999; 59 36; 60 3; 62 1; 63 6; 
64 1; 65 8; 66 1; 68 1; 70 1; 
71 2; 72 1; 73 1; 74 5; 75 1; 
76 2; 77 43; 78 11; 79 21; 80 1; 
82 4; 86 3; 88 1; 89 9; 90 4; 
91 32; 92 3; 99 2; 100 648; 101 41; 
102 5; 103 8; 104 4; 105 34; 106 7; 
107 21; 108 2; 115 26; 116 10; 117 43; 
118 26; 119 2; 130 7; 131 9; 132 10; 
133 14; 134 9; 135 1; 144 2; 145 1; 
146 12; 147 5; 148 30; 149 4; 189 5; 
190 3; 192 1; 
