Name: Diethyltryptamine
Synon: DET
Synon: N,N-DET
Synon: N,N-Diethyltryptamine
Synon: TIHKAL #3
InChIKey: LSSUMOWDTKZHHT-UHFFFAOYSA-N
Formula: C14H20N2
MW: 216
ExactMass: 216.162648
CASNO: 61518
ID: 1755
Comment: DEA SWL
Num Peaks: 61
41 2; 42 16; 43 6; 44 1; 50 2; 
51 6; 52 2; 54 2; 55 1; 56 16; 
57 7; 58 59; 59 2; 62 1; 63 5; 
64 1; 65 3; 70 3; 71 3; 72 3; 
74 1; 75 3; 76 5; 77 30; 78 3; 
84 4; 86 999; 87 58; 88 2; 89 8; 
90 5; 91 4; 101 4; 102 14; 103 22; 
104 3; 113 1; 114 2; 115 27; 116 7; 
117 12; 118 2; 127 3; 128 11; 129 9; 
130 82; 131 10; 132 1; 140 1; 141 2; 
142 8; 143 23; 144 32; 145 3; 155 1; 
156 1; 157 1; 169 1; 199 1; 216 8; 
217 1; 
