Name: Normethadone
Synon: Desmethylmethadone
InChIKey: WCJFBSYALHQBSK-UHFFFAOYSA-N
Formula: C20H25NO
MW: 295
ExactMass: 295.193615
CASNO: 467856
ID: 1757
Comment: AAFS / Probability Based Matching Data Base Entry
Num Peaks: 97
29 12; 30 11; 39 1; 41 1; 42 19; 
43 5; 44 3; 51 2; 56 10; 57 40; 
58 999; 59 39; 63 2; 65 4; 70 5; 
71 86; 72 238; 73 11; 74 1; 75 1; 
76 3; 77 16; 78 3; 82 1; 88 1; 
89 6; 91 30; 92 3; 101 1; 102 11; 
103 9; 104 1; 105 12; 113 2; 114 1; 
115 34; 116 9; 117 7; 118 1; 121 1; 
126 1; 127 1; 128 5; 129 2; 131 2; 
132 3; 133 1; 139 5; 140 1; 141 1; 
144 1; 145 1; 150 1; 151 4; 152 16; 
153 2; 158 1; 160 5; 163 5; 164 7; 
165 48; 166 8; 167 12; 168 2; 176 7; 
177 4; 178 29; 179 18; 180 7; 181 1; 
189 5; 190 2; 191 7; 192 2; 193 12; 
194 8; 195 4; 202 1; 203 1; 204 1; 
205 1; 206 2; 209 1; 217 1; 220 1; 
222 1; 223 2; 224 90; 225 16; 226 1; 
236 4; 237 1; 251 5; 252 1; 294 1; 
295 12; 296 2; 
