Name: Nordazepam
Synon: Nordiazepam
Synon: Dealkylprazepam
Synon: Demethyldiazepam
Synon: Desalkylprazepam
Synon: Desmethyldiazepam
InChIKey: AKPLHCDWDRPJGD-UHFFFAOYSA-N
Formula: C15H11ClN2O
MW: 270
ExactMass: 270.05599
CASNO: 1088115
ID: 1763
Comment: AAFS / Probability Based Matching Data Base Entry
Num Peaks: 180
41 20; 42 15; 43 10; 44 5; 49 10; 
50 100; 51 230; 52 80; 53 15; 54 5; 
55 10; 56 5; 57 5; 60 5; 61 20; 
62 65; 63 170; 64 40; 65 5; 66 10; 
67 5; 68 5; 69 10; 70 5; 71 5; 
72 5; 73 35; 74 70; 75 190; 76 250; 
77 260; 78 50; 79 30; 80 10; 81 20; 
82 30; 83 5; 84 5; 85 10; 86 25; 
87 40; 88 40; 89 200; 90 95; 91 90; 
92 10; 93 20; 94 15; 95 10; 96 10; 
97 10; 98 30; 99 40; 100 35; 101 30; 
102 100; 103 300; 104 80; 105 15; 106 5; 
107 60; 108 30; 109 10; 110 20; 111 65; 
112 55; 113 40; 114 35; 115 20; 116 85; 
117 40; 118 10; 120 65; 121 55; 122 15; 
123 10; 124 20; 125 30; 126 70; 127 35; 
128 15; 129 10; 130 5; 132 5; 135 15; 
136 25; 137 25; 138 100; 139 40; 140 45; 
141 10; 144 10; 147 5; 148 5; 149 15; 
150 60; 151 140; 152 130; 153 35; 154 5; 
157 5; 161 5; 162 10; 163 110; 164 50; 
165 70; 166 30; 167 15; 168 5; 174 5; 
175 10; 176 25; 177 110; 178 120; 179 100; 
180 55; 181 10; 186 15; 187 5; 188 10; 
189 5; 190 20; 191 15; 192 20; 193 25; 
194 5; 195 5; 199 10; 200 5; 201 5; 
202 5; 203 5; 204 10; 205 85; 206 60; 
207 170; 208 35; 209 5; 212 10; 213 45; 
214 150; 215 40; 216 55; 217 15; 218 5; 
219 5; 220 5; 221 5; 224 5; 226 10; 
227 10; 228 25; 229 5; 230 10; 233 10; 
234 45; 235 200; 236 35; 237 5; 238 5; 
239 35; 240 60; 241 670; 242 999; 243 480; 
244 340; 245 80; 246 10; 253 5; 254 5; 
255 5; 266 5; 267 10; 268 35; 269 780; 
270 880; 271 390; 272 290; 273 50; 274 5; 
