Name: Diethylamine
Synon: N,N-diethylamine
Synon: DEA
InChIKey: HPNMFZURTQLUMO-UHFFFAOYSA-N
Formula: C4H11N
MW: 73
ExactMass: 73.0891495
CASNO: 109897
ID: 1764
Comment: DEA SWL
Num Peaks: 32
15 30; 16 1; 18 17; 26 29; 27 112; 
28 140; 29 107; 30 439; 31 7; 34 1; 
37 1; 38 4; 39 10; 40 25; 41 48; 
42 117; 43 51; 44 233; 45 6; 51 2; 
52 5; 53 1; 54 8; 56 53; 58 999; 
59 41; 68 2; 70 5; 72 172; 73 285; 
74 40; 75 1; 
