Name: Dapsone
InChIKey: MQJKPEGWNLWLTK-UHFFFAOYSA-N
Formula: C12H12N2O2S
MW: 248
ExactMass: 248.061949
CASNO: 80080
ID: 1767
Comment: DEA SWL
Num Peaks: 93
40 18; 41 61; 42 16; 44 18; 45 12; 
48 7; 50 22; 51 30; 52 66; 53 57; 
54 27; 59 6; 61 9; 62 36; 63 98; 
64 88; 65 561; 66 88; 67 5; 68 5; 
69 9; 71 8; 73 10; 74 15; 75 12; 
76 9; 77 9; 78 23; 79 16; 80 217; 
81 19; 85 15; 86 5; 89 17; 90 17; 
91 71; 92 496; 93 92; 94 9; 95 8; 
96 15; 97 7; 101 4; 103 7; 106 9; 
108 999; 109 137; 110 11; 112 19; 113 8; 
115 15; 116 5; 117 14; 123 37; 124 77; 
125 9; 126 8; 127 13; 128 12; 129 7; 
130 13; 140 730; 141 227; 142 48; 143 22; 
144 8; 153 5; 154 17; 155 8; 156 72; 
157 8; 158 7; 165 7; 166 25; 167 36; 
168 18; 169 18; 181 15; 182 28; 183 132; 
184 182; 185 27; 186 15; 191 6; 193 5; 
198 17; 199 4; 201 4; 207 18; 214 6; 
248 951; 249 126; 250 54; 
