Name: Lysergic acid N-(methylpropyl)amide
Synon: LAMPA
Synon: N,6-Dimethyl-n-propyl-9,10-didehydroergoline-8-carboxamide
InChIKey: CZRJGQXHVRNZRZ-UHFFFAOYSA-N
Formula: C20H25N3O
MW: 323
ExactMass: 323.199762
CASNO: 40158983
ID: 1771
Comment: DEA SCL / LOT#30021
Num Peaks: 153
41 97; 42 113; 43 200; 44 81; 45 2; 
50 3; 51 6; 52 3; 53 3; 54 5; 
55 15; 56 9; 57 7; 58 75; 59 15; 
60 6; 62 3; 63 8; 65 2; 66 2; 
67 1; 68 9; 69 2; 70 8; 72 102; 
73 19; 74 18; 75 11; 76 18; 77 24; 
78 3; 81 2; 82 5; 84 13; 86 10; 
87 4; 88 4; 90 32; 93 1; 94 3; 
96 9; 97 12; 98 7; 99 3; 100 26; 
101 8; 102 13; 103 23; 110 45; 111 68; 
113 4; 114 8; 115 14; 116 3; 117 5; 
118 3; 124 2; 125 14; 126 25; 127 62; 
128 96; 129 13; 130 8; 131 2; 137 3; 
138 4; 139 22; 140 25; 141 10; 142 5; 
143 2; 144 2; 149 3; 150 27; 151 87; 
152 120; 153 81; 154 148; 155 31; 156 6; 
157 2; 162 4; 163 12; 164 24; 165 38; 
166 35; 167 159; 168 44; 169 5; 175 1; 
176 6; 177 21; 178 137; 179 117; 180 220; 
181 520; 182 97; 183 17; 184 2; 189 2; 
190 15; 191 70; 192 147; 193 68; 194 59; 
195 50; 196 237; 197 38; 198 2; 203 6; 
205 158; 206 122; 207 486; 208 196; 209 61; 
210 8; 217 3; 219 38; 220 135; 221 915; 
222 363; 223 270; 224 45; 225 4; 233 3; 
234 3; 235 10; 236 7; 237 13; 238 3; 
247 1; 248 3; 249 27; 250 20; 251 13; 
252 3; 253 2; 263 2; 265 77; 266 15; 
267 3; 278 2; 279 14; 280 72; 281 18; 
282 3; 294 3; 308 5; 321 6; 323 999; 
324 230; 325 28; 326 2; 
