Name: Isoamylnitrite
Synon: Isoamylnitriet
InChIKey: OWFXIOWLTKNBAP-UHFFFAOYSA-N
Formula: C5H11NO2
MW: 117
ExactMass: 117.0789785
CASNO: 110463
ID: 1781
Comment: ENFSI / NFI/Sigma/Aldrich 03106-128
Num Peaks: 43
26 13; 27 181; 28 59; 29 627; 30 499; 
31 81; 32 5; 37 6; 38 18; 39 231; 
40 34; 41 999; 42 232; 43 489; 44 119; 
45 66; 46 15; 47 2; 49 1; 50 8; 
51 11; 52 2; 53 25; 54 5; 55 228; 
56 47; 57 477; 58 65; 59 3; 60 417; 
61 6; 62 2; 67 3; 68 2; 69 32; 
70 88; 71 146; 72 14; 73 1; 74 1; 
85 7; 86 10; 87 1; 
