Name: Propranolol
Synon: Inderal
InChIKey: AQHHHDLHHXJYJD-UHFFFAOYSA-N
Formula: C16H21NO2
MW: 259
ExactMass: 259.157228
CASNO: 525666
ID: 1786
Comment: DEA SWL
Num Peaks: 75
40 3; 41 42; 42 24; 43 64; 44 29; 
45 2; 50 3; 51 8; 54 3; 55 7; 
56 68; 57 54; 58 22; 59 2; 60 16; 
62 6; 63 21; 64 3; 65 9; 68 3; 
70 19; 72 999; 73 43; 74 16; 75 11; 
76 5; 77 18; 78 2; 82 4; 84 8; 
85 2; 86 11; 87 7; 88 8; 89 26; 
90 2; 96 2; 98 10; 99 2; 100 25; 
101 15; 102 26; 103 5; 113 12; 114 27; 
115 270; 116 85; 117 7; 122 12; 126 24; 
127 77; 128 38; 129 18; 130 3; 141 7; 
143 33; 144 108; 145 14; 155 6; 156 2; 
157 16; 158 3; 165 3; 168 2; 169 8; 
170 2; 183 12; 184 3; 186 6; 215 38; 
216 4; 244 18; 245 2; 259 31; 260 5; 
