Name: Sumatriptan
Synon: Imitrex
InChIKey: KQKPFRSPSRPDEB-UHFFFAOYSA-N
Formula: C14H21N3O2S
MW: 295
ExactMass: 295.135448
CASNO: 103628462
ID: 1788
Comment: DEA SWL
Num Peaks: 63
41 1; 42 18; 43 6; 44 2; 48 10; 
50 2; 51 3; 52 1; 56 3; 57 9; 
58 999; 59 37; 60 1; 63 3; 64 15; 
65 2; 66 1; 75 1; 76 1; 77 6; 
78 2; 89 5; 90 1; 91 2; 92 1; 
94 1; 99 1; 100 2; 101 1; 102 3; 
103 2; 113 1; 114 2; 115 24; 116 5; 
117 3; 126 1; 127 5; 128 9; 129 3; 
130 4; 140 2; 141 3; 142 28; 143 50; 
144 8; 154 5; 155 2; 156 24; 157 10; 
158 11; 159 1; 168 1; 169 1; 185 1; 
199 2; 200 1; 201 6; 202 1; 237 1; 
251 1; 295 8; 296 1; 
