Name: Loperamide
Synon: Immodium
InChIKey: RDOIQAHITMMDAJ-UHFFFAOYSA-N
Formula: C29H33ClN2O2
MW: 476
ExactMass: 476.223057
CASNO: 53179116
ID: 1789
Comment: DEA SWL
Num Peaks: 209
40 1; 41 30; 42 517; 43 40; 44 23; 
45 6; 46 3; 50 6; 51 13; 52 4; 
53 7; 54 15; 55 42; 56 240; 57 28; 
58 33; 59 1; 60 25; 61 1; 62 2; 
63 8; 64 1; 65 10; 66 1; 67 4; 
68 20; 69 16; 70 36; 71 13; 72 313; 
73 16; 74 6; 75 12; 76 12; 77 40; 
78 10; 79 4; 80 3; 81 1; 82 35; 
83 14; 84 67; 85 7; 86 39; 87 4; 
88 2; 89 15; 90 4; 91 217; 92 19; 
93 1; 94 4; 95 3; 97 1; 98 4; 
99 3; 101 10; 102 25; 103 44; 104 15; 
105 12; 106 15; 107 1; 108 3; 110 2; 
111 42; 112 27; 113 18; 114 6; 115 110; 
116 26; 117 21; 118 26; 119 5; 120 12; 
121 3; 122 1; 125 63; 126 12; 127 35; 
128 32; 129 48; 130 46; 131 16; 132 13; 
133 10; 134 4; 135 6; 136 3; 137 72; 
138 12; 139 115; 140 12; 141 38; 142 13; 
143 14; 144 12; 145 4; 146 5; 147 8; 
148 9; 149 9; 150 5; 151 19; 152 45; 
153 16; 154 12; 155 5; 156 6; 157 3; 
158 7; 159 2; 160 4; 161 1; 162 3; 
163 11; 164 16; 165 216; 166 86; 167 97; 
168 16; 169 6; 170 7; 171 10; 172 4; 
173 1; 174 3; 175 3; 176 12; 177 19; 
178 99; 179 78; 180 37; 181 11; 182 4; 
183 1; 184 2; 185 4; 186 2; 187 1; 
188 2; 189 21; 190 17; 191 23; 192 47; 
193 25; 194 61; 195 12; 196 9; 197 2; 
198 2; 202 2; 203 14; 204 12; 205 10; 
206 193; 207 8; 208 70; 209 10; 210 155; 
211 25; 212 11; 213 1; 217 1; 218 5; 
219 4; 220 133; 221 23; 222 60; 223 16; 
224 520; 225 73; 226 169; 227 22; 228 2; 
232 1; 233 1; 234 7; 235 3; 236 14; 
237 14; 238 999; 239 669; 240 416; 241 57; 
242 4; 249 1; 250 8; 251 3; 252 3; 
254 1; 264 3; 266 98; 267 19; 268 2; 
284 2; 295 1; 326 1; 342 1; 346 1; 
386 7; 387 2; 388 1; 389 1; 401 4; 
402 3; 403 2; 404 1; 405 1; 
