Name: Hexylcaine
InChIKey: DKLKMKYDWHYZTD-UHFFFAOYSA-N
Formula: C16H23NO2
MW: 261
ExactMass: 261.172878
CASNO: 532774
ID: 1795
Comment: DEA SWL
Num Peaks: 64
40 4; 41 98; 42 24; 43 18; 44 8; 
45 1; 50 10; 51 46; 52 5; 53 14; 
54 26; 55 136; 56 116; 57 25; 58 73; 
59 3; 65 4; 66 1; 67 17; 68 44; 
69 18; 70 25; 71 1; 74 2; 75 3; 
76 9; 77 195; 78 17; 79 21; 80 7; 
81 19; 82 32; 83 83; 84 11; 85 1; 
91 2; 93 1; 94 7; 96 138; 97 12; 
98 14; 99 1; 105 235; 106 20; 107 1; 
108 2; 109 3; 110 34; 112 999; 113 79; 
114 3; 122 7; 123 2; 124 15; 125 1; 
137 5; 138 10; 139 330; 140 36; 141 1; 
163 21; 164 2; 218 30; 219 4; 
