Name: Hexobarbital
InChIKey: UYXAWHWODHRRMR-UHFFFAOYSA-N
Formula: C12H16N2O3
MW: 236
ExactMass: 236.116093
CASNO: 56291
ID: 1798
Comment: DEA SWL
Num Peaks: 143
40 22; 41 110; 42 31; 43 21; 44 22; 
45 3; 50 17; 51 63; 52 55; 53 118; 
54 34; 55 54; 56 47; 57 23; 58 62; 
59 2; 61 1; 62 4; 63 21; 64 8; 
65 100; 66 50; 67 94; 68 20; 69 8; 
70 29; 71 17; 72 3; 73 2; 74 2; 
75 6; 76 5; 77 219; 78 62; 79 418; 
80 328; 81 674; 82 58; 83 56; 84 15; 
85 12; 86 3; 87 1; 89 8; 90 5; 
91 223; 92 39; 93 142; 94 48; 95 32; 
96 22; 97 5; 98 27; 99 12; 100 18; 
101 3; 102 3; 103 21; 104 11; 105 48; 
106 30; 107 54; 108 123; 109 20; 110 17; 
111 3; 112 22; 113 12; 114 6; 115 5; 
116 4; 117 11; 118 13; 119 14; 120 11; 
121 47; 122 52; 123 104; 124 18; 125 2; 
126 2; 127 6; 128 29; 129 14; 130 5; 
131 2; 132 13; 133 14; 134 29; 135 46; 
136 75; 137 42; 138 6; 139 2; 140 8; 
141 4; 143 2; 144 1; 145 2; 146 10; 
147 44; 148 12; 149 9; 150 38; 151 59; 
152 9; 153 5; 155 304; 156 98; 157 454; 
158 34; 159 4; 160 3; 161 1; 162 3; 
163 2; 164 37; 165 27; 166 3; 167 3; 
176 1; 177 2; 178 25; 179 8; 180 2; 
189 1; 190 4; 191 3; 192 3; 193 25; 
194 3; 203 2; 207 2; 208 3; 217 3; 
218 3; 219 5; 221 999; 222 126; 223 13; 
224 1; 236 47; 237 7; 
