Name: Hexamine
Synon: Hexamethylenetetramine
Synon: Methenamine
InChIKey: VKYKSIONXSXAKP-UHFFFAOYSA-N
Formula: C6H12N4
MW: 140
ExactMass: 140.106196
CASNO: 100970
ID: 1800
Comment: DEA SWL / Aldrich lot 00309CX
Num Peaks: 33
40 15; 41 61; 42 999; 43 39; 44 25; 
45 1; 53 1; 54 3; 55 3; 56 12; 
57 5; 58 4; 69 27; 70 4; 71 31; 
72 1; 81 2; 82 1; 83 29; 84 13; 
85 93; 86 5; 96 9; 97 6; 98 6; 
110 1; 111 15; 112 70; 113 5; 139 1; 
140 428; 141 34; 142 1; 
