Name: Harmaline
InChIKey: RERZNCLIYCABFS-UHFFFAOYSA-N
Formula: C13H14N2O
MW: 214
ExactMass: 214.110613
CASNO: 304212
ID: 1802
Comment: ENFSI / NFI/Aldrich 11009 096
Num Peaks: 124
37 1; 38 7; 39 26; 40 5; 41 7; 
42 17; 43 1; 44 1; 50 20; 51 41; 
52 23; 53 12; 54 26; 55 18; 56 13; 
58 7; 61 4; 62 27; 63 66; 64 21; 
65 19; 66 5; 67 2; 68 3; 69 1; 
71 12; 72 8; 73 5; 74 19; 75 35; 
76 34; 77 67; 78 24; 79 4; 80 5; 
81 1; 85 48; 87 16; 88 26; 89 55; 
90 22; 91 49; 93 5; 98 5; 100 24; 
101 32; 102 46; 103 36; 104 12; 105 3; 
107 68; 110 1; 111 2; 112 2; 113 17; 
114 33; 115 99; 116 44; 117 32; 118 10; 
119 3; 125 2; 126 13; 127 35; 128 47; 
129 26; 130 57; 131 15; 132 4; 133 1; 
138 1; 139 3; 140 39; 141 43; 142 78; 
143 91; 144 76; 145 14; 146 4; 147 1; 
151 1; 152 4; 153 11; 154 34; 155 44; 
156 30; 157 8; 158 33; 159 6; 160 5; 
165 1; 166 2; 167 5; 168 19; 169 105; 
170 229; 171 98; 172 114; 173 86; 174 22; 
175 2; 179 2; 180 1; 181 8; 182 27; 
183 18; 184 22; 185 36; 186 72; 187 33; 
188 4; 195 1; 196 1; 197 16; 198 258; 
199 156; 200 21; 201 2; 211 7; 212 32; 
213 999; 214 959; 215 139; 216 12; 
