Name: Halazepam
InChIKey: WYCLKVQLVUQKNZ-UHFFFAOYSA-N
Formula: C17H12ClF3N2O
MW: 352
ExactMass: 352.059025
CASNO: 23092173
ID: 1805
Comment: DEA SWL
Num Peaks: 220
40 4; 41 10; 42 13; 49 3; 50 50; 
51 121; 52 22; 53 2; 56 11; 60 1; 
61 7; 62 30; 63 80; 64 29; 65 53; 
66 3; 68 3; 69 24; 73 21; 74 39; 
75 96; 76 73; 77 144; 78 18; 79 2; 
82 43; 83 16; 84 5; 85 7; 86 19; 
87 32; 88 29; 89 139; 90 45; 91 145; 
92 11; 93 7; 94 4; 96 115; 97 19; 
98 18; 99 35; 100 32; 101 22; 102 64; 
103 56; 104 19; 105 9; 106 5; 107 7; 
108 8; 110 106; 111 62; 112 22; 113 48; 
114 10; 115 32; 116 56; 117 60; 118 11; 
119 10; 120 25; 121 15; 122 3; 123 28; 
124 35; 125 78; 126 55; 127 100; 128 37; 
129 6; 130 2; 132 2; 133 3; 134 20; 
135 14; 136 34; 137 52; 138 53; 139 47; 
140 26; 141 17; 142 9; 143 17; 144 31; 
146 1; 147 7; 148 9; 149 30; 150 75; 
151 113; 152 98; 153 24; 154 10; 161 9; 
162 35; 163 171; 164 102; 165 245; 166 58; 
167 8; 168 1; 173 4; 174 4; 175 10; 
176 33; 177 88; 178 56; 179 31; 180 15; 
181 2; 182 2; 183 3; 185 4; 186 12; 
187 5; 188 9; 189 7; 190 56; 191 50; 
192 62; 193 107; 194 18; 195 4; 197 4; 
198 5; 199 31; 200 11; 201 15; 202 8; 
203 17; 204 15; 205 125; 206 37; 207 12; 
208 4; 209 4; 211 2; 212 7; 213 44; 
214 16; 215 18; 216 6; 217 7; 218 26; 
219 32; 220 13; 221 5; 222 4; 225 8; 
226 19; 227 56; 228 22; 229 20; 230 5; 
232 2; 233 9; 234 1; 238 18; 239 106; 
240 51; 241 269; 242 46; 243 79; 244 12; 
247 7; 248 2; 249 12; 251 2; 252 2; 
253 23; 254 13; 255 22; 256 8; 257 3; 
260 5; 261 8; 267 6; 268 33; 269 12; 
270 9; 271 2; 276 1; 281 6; 282 4; 
283 14; 284 1; 285 2; 287 7; 288 7; 
289 159; 290 35; 291 5; 296 51; 297 10; 
298 19; 303 5; 305 5; 309 4; 311 2; 
316 11; 317 79; 318 16; 323 668; 324 999; 
325 519; 326 380; 327 103; 328 14; 331 6; 
333 30; 334 5; 335 7; 341 3; 350 2; 
351 463; 352 406; 353 229; 354 131; 355 22; 
