Name: Flumazenil
InChIKey: OFBIFZUFASYYRE-UHFFFAOYSA-N
Formula: C15H14FN3O3
MW: 303
ExactMass: 303.10192
CASNO: 78755814
ID: 1821
Comment: AAFS
Num Peaks: 114
42 558; 43 35; 44 15; 45 9; 50 28; 
51 13; 52 40; 53 23; 54 19; 55 12; 
56 13; 57 35; 62 8; 63 14; 64 8; 
65 6; 66 13; 67 8; 68 25; 69 13; 
74 21; 75 53; 76 11; 77 5; 79 5; 
80 16; 81 51; 82 30; 83 10; 87 12; 
88 7; 92 6; 93 32; 94 131; 95 98; 
96 13; 99 13; 100 30; 101 13; 105 10; 
106 25; 107 51; 108 47; 109 19; 110 8; 
114 6; 115 7; 118 5; 119 18; 120 96; 
121 49; 122 69; 123 14; 126 24; 130 5; 
132 138; 133 46; 134 53; 135 18; 136 9; 
137 6; 145 23; 146 45; 147 66; 148 110; 
149 22; 150 21; 158 8; 159 24; 160 45; 
161 27; 162 31; 163 9; 164 8; 171 10; 
172 30; 173 67; 174 76; 175 48; 176 20; 
177 12; 178 5; 179 16; 186 20; 187 46; 
188 44; 189 109; 190 12; 200 96; 201 284; 
202 130; 203 52; 204 6; 214 110; 215 157; 
216 25; 217 24; 229 999; 230 351; 231 48; 
232 5; 242 15; 244 32; 245 7; 246 12; 
248 7; 257 488; 258 159; 259 20; 260 5; 
274 14; 275 6; 303 212; 304 37; 
