Name: Fenproporex
InChIKey: IQUFSXIQAFPIMR-UHFFFAOYSA-N
Formula: C12H16N2
MW: 188
ExactMass: 188.131349
CASNO: 15686610
ID: 1826
Comment: DEA SWL
Num Peaks: 65
40 7; 41 41; 42 47; 43 8; 44 75; 
45 2; 50 10; 51 34; 52 26; 53 22; 
54 28; 55 4; 56 474; 57 46; 58 1; 
62 4; 63 16; 64 4; 65 53; 66 4; 
67 1; 68 76; 69 5; 70 3; 71 1; 
74 2; 75 2; 76 2; 77 22; 78 10; 
79 5; 80 1; 81 2; 87 1; 89 14; 
90 6; 91 159; 92 16; 93 1; 95 8; 
96 3; 97 999; 98 63; 99 1; 102 3; 
103 11; 104 7; 105 10; 106 1; 115 24; 
116 6; 117 22; 118 8; 119 7; 120 2; 
129 1; 130 10; 131 3; 132 19; 133 2; 
144 4; 146 4; 148 2; 173 6; 187 2; 
