Name: Fenfluramine
InChIKey: DBGIVFWFUFKIQN-UHFFFAOYSA-N
Formula: C12H16F3N
MW: 231
ExactMass: 231.123485
CASNO: 458242
ID: 1829
Comment: DEA SWL
Num Peaks: 116
40 2; 41 13; 42 37; 43 7; 44 222; 
45 6; 50 3; 51 7; 52 1; 53 1; 
54 2; 55 1; 56 33; 57 9; 58 1; 
62 3; 63 11; 64 2; 65 4; 68 2; 
69 4; 70 21; 72 999; 73 47; 74 2; 
75 7; 76 2; 77 5; 78 1; 81 1; 
82 1; 83 6; 87 2; 88 3; 89 16; 
90 7; 91 15; 92 1; 94 1; 95 4; 
96 2; 99 4; 100 1; 101 4; 102 3; 
103 3; 107 4; 108 3; 109 56; 110 4; 
113 4; 114 5; 115 18; 116 7; 117 13; 
118 3; 119 22; 120 4; 121 2; 125 3; 
126 1; 127 9; 128 2; 130 2; 131 2; 
132 2; 133 7; 134 1; 137 1; 138 4; 
139 7; 140 9; 141 11; 142 1; 144 1; 
145 7; 146 4; 147 2; 148 4; 149 1; 
151 11; 152 1; 153 2; 157 1; 158 2; 
159 125; 160 12; 161 1; 162 1; 164 4; 
165 5; 166 4; 167 2; 168 6; 169 11; 
170 1; 171 1; 172 3; 173 1; 180 1; 
182 2; 183 1; 185 1; 186 2; 187 5; 
188 1; 192 3; 196 1; 198 1; 200 2; 
212 12; 213 1; 214 1; 216 18; 217 2; 
230 6; 
