Name: Metoclopramide
Synon: Reglan
InChIKey: TTWJBBZEZQICBI-UHFFFAOYSA-N
Formula: C14H22ClN3O2
MW: 299
ExactMass: 299.140055
CASNO: 364625
ID: 1832
Comment: AAFS / Probability Based Matching Data Base Entry
Num Peaks: 104
39 1; 40 1; 41 3; 42 16; 43 6; 
44 4; 51 3; 52 3; 53 1; 54 2; 
56 18; 57 6; 58 77; 59 4; 62 1; 
63 5; 64 2; 65 6; 66 2; 68 2; 
70 12; 71 30; 72 9; 73 1; 74 1; 
75 1; 76 3; 77 3; 78 14; 79 2; 
80 1; 81 1; 82 1; 84 21; 86 999; 
87 63; 88 2; 89 2; 90 23; 91 4; 
92 2; 93 7; 94 1; 96 1; 97 4; 
99 243; 100 24; 101 2; 106 1; 112 1; 
113 20; 114 5; 115 6; 116 1; 120 1; 
121 1; 125 2; 126 9; 127 2; 128 6; 
129 1; 133 1; 140 3; 141 19; 142 3; 
143 6; 148 1; 149 2; 150 1; 154 5; 
155 2; 156 3; 157 1; 158 1; 162 1; 
164 1; 166 1; 168 3; 169 8; 170 4; 
171 2; 172 1; 184 71; 185 10; 186 25; 
187 2; 201 32; 202 4; 203 10; 204 1; 
211 1; 212 2; 213 2; 214 1; 226 2; 
227 12; 228 4; 229 6; 230 1; 270 1; 
282 1; 297 3; 299 3; 301 1; 
