Name: Methsuximide
InChIKey: AJXPJJZHWIXJCJ-UHFFFAOYSA-N
Formula: C12H13NO2
MW: 203
ExactMass: 203.094628
CASNO: 77418
ID: 1843
Comment: AAFS / Probability Based Matching Data Base Entry
Num Peaks: 67
42 25; 43 3; 49 1; 50 35; 51 71; 
52 18; 53 6; 54 2; 55 4; 56 48; 
57 37; 58 44; 59 1; 61 2; 62 13; 
63 44; 64 8; 65 36; 66 5; 67 1; 
69 1; 70 4; 73 2; 74 24; 75 24; 
76 37; 77 180; 78 136; 79 12; 86 4; 
87 9; 88 3; 89 34; 90 11; 91 148; 
92 14; 98 3; 99 1; 101 6; 102 63; 
103 244; 104 24; 105 5; 113 2; 115 160; 
116 35; 117 443; 118 999; 119 99; 120 4; 
128 1; 129 1; 130 2; 131 6; 132 3; 
144 3; 145 10; 146 9; 147 1; 159 1; 
160 1; 174 2; 175 4; 188 3; 203 341; 
204 48; 205 4; 
