Name: Methohexital
InChIKey: NZXKDOXHBHYTKP-UHFFFAOYSA-N
Synon: Methohexitone
Synon: Brevital
Synon: Brietal
Formula: C14H18N2O3
MW: 262
ExactMass: 262.131742
CASNO: 151837
ID: 1844
Comment: DEA SWL
Num Peaks: 180
40 54; 41 594; 42 76; 43 52; 44 42; 
45 4; 49 1; 50 46; 51 163; 52 128; 
53 738; 54 87; 55 160; 56 65; 57 38; 
58 114; 59 4; 61 2; 62 15; 63 62; 
64 21; 65 222; 66 168; 67 154; 68 55; 
69 48; 70 64; 71 6; 73 1; 74 9; 
75 15; 76 14; 77 380; 78 117; 79 999; 
80 208; 81 608; 82 106; 83 37; 84 7; 
85 5; 86 3; 87 4; 88 2; 89 20; 
90 12; 91 278; 92 63; 93 362; 94 75; 
95 39; 96 77; 97 105; 98 59; 99 9; 
100 1; 101 6; 102 12; 103 49; 104 27; 
105 166; 106 106; 107 98; 108 261; 109 90; 
110 99; 111 50; 112 54; 113 15; 114 4; 
115 52; 116 23; 117 63; 118 47; 119 103; 
120 206; 121 132; 122 54; 123 33; 124 150; 
125 17; 126 12; 127 10; 128 10; 129 12; 
130 12; 131 26; 132 37; 133 89; 134 99; 
135 27; 136 36; 137 26; 138 115; 139 21; 
140 5; 141 2; 142 11; 143 33; 144 12; 
145 35; 146 34; 147 99; 148 75; 149 57; 
150 38; 151 9; 152 2; 153 8; 154 10; 
155 170; 156 22; 157 3; 158 9; 159 55; 
160 126; 161 146; 162 91; 163 84; 164 355; 
165 68; 166 115; 167 170; 168 25; 169 18; 
170 3; 171 1; 172 6; 173 24; 174 10; 
175 7; 176 55; 177 59; 178 411; 179 68; 
180 22; 181 269; 182 127; 183 23; 184 2; 
186 2; 187 4; 188 11; 189 5; 190 36; 
191 31; 192 8; 193 13; 194 5; 195 2; 
202 2; 203 5; 204 22; 205 78; 206 34; 
207 15; 208 4; 215 1; 216 1; 217 5; 
218 2; 219 69; 220 55; 221 577; 222 74; 
223 8; 229 2; 231 2; 232 1; 233 264; 
234 56; 235 6; 244 2; 245 5; 247 259; 
248 38; 249 4; 261 74; 262 19; 263 3; 
