Name: Methenolone Enanthate
InChIKey: TXUICONDJPYNPY-UHFFFAOYSA-N
Formula: C27H42O3
MW: 414
ExactMass: 414.313395
CASNO: 303424
ID: 1845
Comment: DEA SWL
Num Peaks: 238
41 226; 42 46; 43 539; 44 20; 45 8; 
50 1; 51 5; 52 3; 53 42; 54 18; 
55 233; 56 31; 57 112; 58 5; 59 5; 
60 38; 61 4; 63 2; 65 32; 66 14; 
67 145; 68 28; 69 103; 70 13; 71 13; 
73 26; 74 3; 77 127; 78 28; 79 275; 
80 39; 81 175; 82 57; 83 177; 84 25; 
85 167; 86 13; 87 9; 88 1; 89 3; 
91 249; 92 45; 93 248; 94 180; 95 215; 
96 52; 97 24; 98 9; 99 5; 100 2; 
101 6; 103 17; 105 161; 106 50; 107 254; 
108 96; 109 133; 110 29; 111 18; 113 585; 
114 49; 115 29; 116 10; 117 47; 118 15; 
119 118; 120 53; 121 298; 122 324; 123 695; 
124 280; 125 46; 126 3; 127 5; 128 18; 
129 30; 130 21; 131 73; 132 24; 133 164; 
134 90; 135 518; 136 999; 137 390; 138 38; 
139 5; 140 1; 141 10; 142 8; 143 24; 
144 28; 145 82; 146 50; 147 142; 148 342; 
149 260; 150 53; 151 23; 152 14; 153 5; 
154 2; 155 8; 156 6; 157 25; 158 20; 
159 75; 160 191; 161 300; 162 89; 163 51; 
164 7; 165 11; 166 5; 167 5; 168 1; 
169 8; 170 4; 171 30; 172 14; 173 51; 
174 28; 175 57; 176 22; 177 20; 178 7; 
179 7; 180 4; 181 2; 182 3; 183 9; 
184 6; 185 30; 186 60; 187 57; 188 18; 
189 22; 190 20; 191 14; 192 4; 193 3; 
194 2; 195 3; 196 3; 197 8; 198 10; 
199 34; 200 21; 201 28; 202 23; 203 16; 
204 6; 205 4; 207 7; 208 2; 209 4; 
210 2; 211 7; 212 3; 213 23; 214 9; 
215 21; 216 6; 217 6; 218 3; 223 6; 
224 3; 225 6; 226 3; 227 26; 228 10; 
229 7; 230 4; 231 4; 237 1; 238 1; 
239 1; 241 47; 242 19; 243 18; 244 5; 
245 6; 246 4; 247 3; 250 1; 251 7; 
252 2; 253 1; 255 6; 256 15; 257 3; 
259 47; 260 9; 263 1; 265 1; 266 8; 
267 9; 268 3; 269 47; 270 7; 273 2; 
274 2; 278 2; 279 1; 281 2; 282 2; 
283 10; 284 65; 285 36; 287 50; 288 7; 
289 2; 291 9; 292 1; 301 20; 302 131; 
303 31; 304 3; 316 40; 317 10; 328 2; 
329 3; 330 4; 331 2; 345 3; 355 1; 
357 2; 358 2; 370 1; 372 72; 373 20; 
374 2; 381 1; 386 2; 399 5; 400 2; 
414 98; 415 29; 416 5; 
