Name: Trimecaine
Synon: Mesocaine
InChIKey: GOZBHBFUQHMKQB-UHFFFAOYSA-N
Formula: C15H24N2O
MW: 248
ExactMass: 248.188864
CASNO: 616682
ID: 1853
Comment: AAFS / Probability Based Matching Data Base Entry
Num Peaks: 75
39 3; 40 1; 41 5; 42 17; 43 7; 
44 3; 50 1; 51 1; 52 2; 53 2; 
54 2; 55 1; 56 16; 57 8; 58 78; 
59 4; 64 1; 65 8; 66 1; 67 1; 
70 4; 72 78; 73 4; 77 9; 78 3; 
79 7; 80 1; 84 11; 86 999; 87 69; 
88 2; 89 1; 90 2; 91 23; 92 3; 
93 2; 94 1; 100 1; 102 1; 103 4; 
104 1; 105 4; 106 3; 107 2; 109 1; 
115 5; 116 3; 117 8; 118 6; 119 10; 
120 6; 121 1; 130 1; 131 1; 132 9; 
133 7; 134 28; 135 5; 136 2; 144 1; 
145 1; 146 7; 147 2; 148 5; 158 1; 
159 1; 160 2; 161 7; 162 4; 174 2; 
177 3; 233 2; 248 37; 249 8; 250 1; 
