Name: Mepivacaine
InChIKey: INWLQCZOYSRPNW-UHFFFAOYSA-N
Formula: C15H22N2O
MW: 246
ExactMass: 246.173213
CASNO: 96888
ID: 1856
Comment: DEA SWL
Num Peaks: 60
40 1; 41 14; 42 58; 43 4; 44 11; 
50 1; 51 5; 52 3; 53 6; 54 6; 
55 16; 56 7; 57 5; 58 1; 63 2; 
64 1; 65 7; 66 1; 67 4; 68 17; 
69 4; 70 91; 71 5; 77 22; 78 6; 
79 8; 80 4; 81 3; 82 9; 83 3; 
84 5; 89 1; 90 1; 91 19; 92 5; 
93 3; 94 5; 96 28; 98 999; 99 69; 
100 1; 102 1; 103 8; 104 4; 105 10; 
106 4; 107 1; 116 2; 117 2; 118 7; 
119 4; 120 13; 121 4; 130 3; 131 2; 
132 3; 134 1; 144 1; 147 1; 148 2; 
