Name: Mephobarbital
Synon: Methylphenobarbital
Synon: N-Methylethylphenylbarbituric acid
InChIKey: ALARQZQTBTVLJV-UHFFFAOYSA-N
Formula: C13H14N2O3
MW: 246
ExactMass: 246.100442
CASNO: 115388
ID: 1857
Comment: DEA SWL
Num Peaks: 119
40 4; 41 7; 42 6; 43 4; 44 9; 
50 21; 51 70; 52 16; 53 8; 54 4; 
55 5; 56 26; 57 20; 58 56; 61 2; 
62 18; 63 58; 64 10; 65 34; 66 7; 
67 2; 68 2; 69 4; 70 19; 73 3; 
74 9; 75 14; 76 26; 77 157; 78 64; 
79 9; 80 2; 82 2; 83 3; 85 2; 
86 4; 87 9; 88 9; 89 126; 90 55; 
91 167; 92 19; 93 2; 94 2; 96 1; 
97 2; 98 2; 101 6; 102 39; 103 204; 
104 94; 105 53; 106 6; 107 2; 109 2; 
112 6; 113 3; 114 5; 115 222; 116 63; 
117 515; 118 290; 119 27; 120 2; 126 4; 
127 1; 128 7; 129 5; 130 14; 131 34; 
132 33; 133 42; 134 4; 140 1; 141 2; 
142 6; 143 27; 144 38; 145 24; 146 280; 
147 41; 148 3; 155 8; 156 6; 157 1; 
158 5; 159 5; 160 38; 161 98; 162 14; 
163 1; 168 1; 169 12; 170 1; 171 2; 
172 7; 173 4; 174 68; 175 80; 176 9; 
186 2; 187 6; 188 56; 189 30; 190 51; 
191 6; 199 1; 202 1; 203 16; 204 2; 
218 999; 219 126; 220 13; 221 1; 229 7; 
231 37; 232 5; 246 50; 247 8; 
