Name: m-Dinitrobenzene
InChIKey: WDCYWAQPCXBPJA-UHFFFAOYSA-N
Synon: 1,3-Dinitrobenzene
Formula: C6H4N2O4
MW: 168
ExactMass: 168.017107
CASNO: 99650
ID: 1863
Comment: DEA SWL / Acros A010801601
Num Peaks: 57
40 6; 41 1; 42 1; 43 1; 44 3; 
45 4; 46 46; 48 2; 50 694; 51 97; 
52 37; 53 17; 54 8; 55 11; 60 4; 
61 36; 62 63; 63 233; 64 232; 65 15; 
66 10; 67 3; 68 1; 69 1; 73 58; 
74 366; 75 904; 76 911; 77 77; 78 7; 
79 10; 80 5; 86 2; 87 7; 88 7; 
89 1; 90 7; 92 366; 93 29; 94 2; 
104 1; 105 1; 106 4; 107 11; 108 2; 
120 1; 122 335; 123 25; 124 2; 138 15; 
139 1; 152 33; 153 3; 154 1; 168 999; 
169 78; 170 9; 
