Name: Pregabalin
Synon: Lyrica
Synon: (S)-3-(aminomethyl)-5-methylhexanoic acid
InChIKey: AYXYPKUFHZROOJ-UHFFFAOYSA-N
Formula: C8H17NO2
MW: 159
ExactMass: 159.125929
CASNO: 148553508
ID: 1865
Comment: DEA SWL
Num Peaks: 46
40 106; 41 999; 42 341; 43 872; 44 268; 
50 5; 51 40; 52 35; 53 143; 54 127; 
55 642; 56 760; 57 142; 58 27; 59 13; 
63 5; 65 39; 66 21; 67 107; 68 154; 
69 235; 70 242; 71 15; 77 12; 79 24; 
80 13; 81 60; 82 64; 83 102; 84 275; 
85 115; 93 6; 94 6; 95 32; 96 40; 
97 38; 98 150; 99 25; 110 5; 111 110; 
112 45; 123 12; 126 55; 140 7; 141 199; 
142 22; 
