Name: l-Methamphetamine TPC derivative
Synon: N-(trifluoroacetyl)prolylmethamphetamine
InChIKey: XCJPRBUJGZAZPO-UHFFFAOYSA-N
Formula: C17H21F3N2O2
MW: 342
ExactMass: 342.155512
CASNO: 21772623
ID: 1867
Comment: DEA SWL
Num Peaks: 102
40 4; 41 63; 42 67; 43 16; 44 2; 
47 1; 50 3; 51 10; 52 3; 53 26; 
54 7; 55 14; 56 45; 57 37; 58 688; 
59 24; 60 1; 62 1; 63 6; 64 3; 
65 34; 66 4; 67 6; 68 23; 69 110; 
70 22; 71 32; 72 1; 73 5; 74 1; 
75 1; 76 1; 77 17; 78 15; 79 6; 
80 1; 81 1; 82 2; 83 1; 84 2; 
85 1; 86 3; 89 10; 90 6; 91 336; 
92 28; 93 1; 94 4; 96 75; 97 13; 
98 23; 99 1; 102 2; 103 10; 104 6; 
105 2; 109 6; 110 3; 112 4; 114 4; 
115 19; 116 11; 117 37; 118 57; 119 80; 
120 8; 122 1; 124 2; 126 13; 127 1; 
128 12; 129 2; 130 1; 131 1; 132 4; 
133 2; 134 5; 136 1; 137 4; 138 1; 
139 11; 146 2; 147 7; 148 18; 149 6; 
154 9; 155 1; 164 5; 166 999; 167 74; 
168 4; 176 17; 177 2; 193 2; 194 55; 
195 4; 225 6; 251 306; 252 36; 253 3; 
257 9; 258 2; 
