Name: Levorphan
Synon: Levorphanol
Synon: (-)-N-Methylmorphinan-3-ol
InChIKey: JAQUASYNZVUNQP-UHFFFAOYSA-N
Formula: C17H23NO
MW: 257
ExactMass: 257.177965
CASNO: 77076
ID: 1869
Comment: DEA SWL
Num Peaks: 176
40 9; 41 97; 42 323; 43 49; 44 206; 
45 7; 50 6; 51 40; 52 16; 53 48; 
54 17; 55 87; 56 36; 57 55; 58 171; 
59 999; 60 54; 61 1; 62 2; 63 22; 
64 8; 65 49; 66 13; 67 52; 68 29; 
69 11; 70 75; 71 13; 72 8; 74 1; 
75 8; 76 12; 77 137; 78 39; 79 69; 
80 21; 81 49; 82 137; 83 32; 84 21; 
85 6; 87 4; 88 5; 89 28; 91 133; 
92 22; 93 28; 94 82; 95 35; 96 44; 
97 16; 98 9; 100 22; 101 12; 102 27; 
103 58; 104 16; 105 48; 106 13; 107 142; 
108 78; 109 24; 110 17; 111 1; 113 3; 
114 13; 115 242; 116 61; 117 57; 118 21; 
119 26; 120 63; 121 48; 122 67; 123 45; 
124 60; 125 6; 126 13; 127 150; 128 245; 
129 113; 130 26; 131 145; 132 78; 133 80; 
134 52; 135 12; 136 34; 137 8; 138 1; 
139 32; 140 12; 141 98; 142 36; 143 29; 
144 124; 145 139; 146 81; 147 113; 148 169; 
149 35; 150 939; 151 122; 152 69; 153 60; 
154 27; 155 31; 156 18; 157 610; 158 258; 
159 75; 160 159; 161 70; 162 23; 163 4; 
164 4; 165 44; 166 15; 167 16; 168 20; 
169 52; 170 86; 171 117; 172 52; 173 23; 
174 43; 175 10; 176 4; 177 1; 178 7; 
179 9; 180 4; 181 32; 182 20; 183 42; 
184 31; 185 39; 186 40; 187 20; 188 51; 
189 247; 190 29; 191 4; 194 1; 195 5; 
196 8; 197 27; 198 121; 199 159; 200 367; 
201 63; 202 14; 203 1; 210 4; 211 3; 
212 22; 213 12; 214 75; 215 22; 216 3; 
225 1; 226 8; 227 1; 228 103; 229 21; 
230 1; 240 8; 241 1; 242 70; 243 12; 
254 5; 255 3; 256 599; 257 843; 258 150; 
259 13; 
