Name: Levobunolol
InChIKey: IXHBTMCLRNMKHZ-UHFFFAOYSA-N
Formula: C17H25NO3
MW: 291
ExactMass: 291.183443
CASNO: 47141424
ID: 1871
Comment: AAFS
Num Peaks: 57
42 21; 43 9; 44 7; 51 17; 55 17; 
56 29; 57 105; 58 38; 60 29; 63 9; 
65 7; 70 64; 71 70; 72 19; 74 9; 
77 35; 78 13; 79 8; 84 11; 86 999; 
87 61; 89 14; 90 7; 91 22; 96 7; 
98 11; 100 7; 103 10; 105 16; 106 11; 
107 5; 114 29; 115 35; 116 36; 117 19; 
118 5; 124 10; 131 16; 132 6; 133 10; 
134 12; 138 9; 145 13; 147 15; 160 8; 
161 9; 162 20; 175 8; 177 9; 201 15; 
206 25; 247 8; 276 279; 277 50; 278 6; 
291 31; 292 7; 
