Name: Levallorphan
InChIKey: OZYUPQUCAUTOBP-UHFFFAOYSA-N
Formula: C19H25NO
MW: 283
ExactMass: 283.193615
CASNO: 152023
ID: 1873
Comment: AAFS / Probability Based Matching Data Base Entry
Num Peaks: 178
39 68; 41 288; 42 92; 43 140; 44 43; 
45 4; 51 23; 52 12; 53 41; 54 40; 
55 88; 56 194; 57 188; 58 80; 59 4; 
63 20; 64 8; 65 48; 66 13; 67 77; 
68 113; 69 28; 70 152; 71 15; 72 4; 
75 6; 76 10; 77 145; 78 34; 79 94; 
80 45; 81 49; 82 111; 83 23; 84 458; 
85 277; 86 44; 87 6; 88 5; 89 30; 
90 9; 91 145; 92 24; 93 38; 94 39; 
95 22; 96 33; 97 7; 98 8; 99 8; 
101 11; 102 30; 103 63; 104 19; 105 58; 
106 37; 107 181; 108 92; 109 19; 110 13; 
111 4; 113 11; 114 13; 115 262; 116 71; 
117 69; 118 26; 119 29; 120 63; 121 83; 
122 27; 123 5; 126 13; 127 180; 128 292; 
129 132; 130 36; 131 163; 132 78; 133 106; 
134 119; 135 33; 136 38; 137 6; 138 6; 
139 34; 140 13; 141 123; 142 51; 143 37; 
144 145; 145 203; 146 192; 147 55; 148 42; 
149 17; 150 47; 151 25; 152 79; 153 75; 
154 35; 155 40; 157 848; 158 309; 159 98; 
160 33; 161 9; 162 21; 163 7; 164 6; 
165 49; 166 23; 167 30; 168 23; 169 76; 
170 126; 171 151; 172 87; 173 39; 174 69; 
176 692; 177 98; 178 15; 179 16; 180 8; 
181 47; 182 29; 183 68; 184 57; 185 64; 
186 62; 187 21; 188 39; 189 6; 194 5; 
195 10; 196 22; 197 45; 198 317; 199 321; 
200 536; 201 100; 202 12; 208 3; 209 5; 
210 11; 211 12; 212 29; 213 47; 214 59; 
215 254; 216 40; 217 3; 224 12; 225 11; 
226 73; 227 19; 228 14; 229 4; 238 15; 
240 121; 241 72; 242 102; 243 17; 252 4; 
254 68; 255 34; 256 634; 257 122; 258 11; 
266 6; 268 52; 269 10; 280 5; 282 650; 
283 999; 284 200; 285 24; 
