Name: Naphthalene
InChIKey: UFWIBTONFRDIAS-UHFFFAOYSA-N
Formula: C10H8
MW: 128
ExactMass: 128.0626
CASNO: 91203
ID: 1876
Comment: DEA SWL / Sigma lot 21H0099
Num Peaks: 37
49 2; 50 27; 51 54; 52 7; 53 1; 
61 7; 62 16; 63 45; 64 45; 73 3; 
74 34; 75 36; 76 26; 77 30; 78 21; 
79 1; 85 3; 86 8; 87 13; 88 2; 
89 6; 97 2; 98 12; 99 6; 100 6; 
101 24; 102 85; 103 7; 113 1; 121 1; 
122 2; 125 4; 126 72; 127 126; 128 999; 
129 108; 130 5; 
