Name: Nandrolone Propionate
InChIKey: LGRKCTFWUWAKON-UHFFFAOYSA-N
Formula: C21H30O3
MW: 330
ExactMass: 330.219496
CASNO: 7207923
ID: 1877
Comment: DEA SWL
Num Peaks: 211
40 9; 41 127; 42 14; 43 48; 44 3; 
45 6; 50 2; 51 11; 52 10; 53 64; 
54 15; 55 168; 57 999; 58 35; 59 3; 
63 4; 64 5; 65 54; 66 21; 67 121; 
68 17; 69 36; 70 3; 71 11; 72 2; 
73 2; 74 1; 75 4; 77 173; 78 51; 
79 235; 80 44; 81 131; 82 18; 83 31; 
84 3; 85 5; 86 7; 89 6; 91 338; 
92 60; 93 153; 94 62; 95 98; 96 21; 
97 46; 98 5; 99 3; 100 2; 101 3; 
102 4; 103 32; 104 31; 105 196; 106 50; 
107 146; 108 66; 109 121; 110 536; 111 60; 
112 3; 113 3; 115 56; 116 24; 117 105; 
118 45; 119 129; 120 93; 121 71; 122 65; 
123 80; 124 23; 125 4; 127 11; 128 45; 
129 69; 130 33; 131 124; 132 48; 133 131; 
134 67; 135 106; 136 28; 137 13; 138 2; 
139 1; 141 23; 142 22; 143 50; 144 46; 
145 114; 146 159; 147 271; 148 128; 149 69; 
150 15; 151 9; 152 5; 153 9; 154 5; 
155 18; 156 19; 157 45; 158 31; 159 86; 
160 100; 161 76; 162 79; 163 49; 164 23; 
165 22; 166 6; 167 7; 168 4; 169 18; 
170 14; 171 43; 172 42; 173 65; 174 54; 
175 41; 176 9; 177 4; 178 3; 179 4; 
180 2; 181 15; 182 11; 183 20; 184 16; 
185 65; 186 48; 187 44; 188 18; 189 19; 
190 6; 191 2; 192 1; 193 1; 194 2; 
195 20; 196 12; 197 36; 198 22; 199 83; 
200 54; 201 32; 202 17; 203 13; 204 4; 
205 1; 207 2; 208 1; 209 8; 210 16; 
211 11; 212 37; 213 67; 214 81; 215 118; 
216 61; 217 49; 218 14; 219 2; 220 9; 
221 3; 223 23; 224 4; 225 2; 226 1; 
227 20; 228 53; 229 31; 230 23; 231 119; 
232 24; 233 3; 234 1; 237 19; 238 63; 
239 25; 241 68; 242 11; 243 2; 245 14; 
246 62; 247 9; 248 1; 256 354; 257 96; 
258 14; 259 19; 260 5; 270 1; 271 1; 
274 345; 275 69; 276 6; 286 2; 287 1; 
288 17; 289 4; 301 3; 302 23; 303 6; 
312 5; 313 1; 315 2; 330 208; 331 50; 
332 7; 
