Name: N-acetylamphetamine
InChIKey: YPKBVWZHVTZSPU-UHFFFAOYSA-N
Formula: C11H15NO
MW: 177
ExactMass: 177.115364
CASNO: 14383609
ID: 1891
Comment: ENFSI / impurity in amphetamine syn, For.Sci.Rev. 1:1; 1989 pp 1-11;also intermediate synth amphetamine from allylbenzene & acetonitrile
Num Peaks: 35
38 8; 39 71; 40 20; 41 29; 42 79; 
43 240; 44 999; 45 32; 50 16; 51 50; 
52 21; 56 10; 57 12; 60 32; 62 16; 
63 36; 64 11; 65 139; 66 10; 77 30; 
78 17; 86 493; 87 26; 89 33; 90 17; 
91 289; 92 30; 103 22; 115 44; 117 143; 
118 339; 119 44; 120 44; 134 12; 177 15; 
