Name: Noscapine
InChIKey: AKNNEGZIBPJZJG-UHFFFAOYSA-N
Formula: C22H23NO7
MW: 413
ExactMass: 413.147451
CASNO: 128621
ID: 1908
Comment: DEA SWL
Num Peaks: 106
41 2; 42 14; 43 1; 44 2; 50 3; 
51 8; 52 1; 53 4; 55 1; 62 2; 
63 5; 64 4; 65 6; 66 4; 67 1; 
68 1; 73 1; 74 1; 75 5; 76 11; 
77 22; 78 9; 79 11; 80 2; 81 1; 
87 1; 88 1; 89 6; 90 6; 91 10; 
92 8; 93 3; 94 5; 102 3; 103 4; 
104 11; 105 12; 106 8; 107 12; 108 2; 
110 2; 115 1; 116 4; 117 9; 118 24; 
119 26; 120 20; 121 17; 122 16; 123 1; 
127 1; 128 1; 129 1; 130 5; 131 6; 
132 8; 133 5; 134 4; 135 11; 136 1; 
137 1; 139 2; 144 1; 145 4; 146 8; 
147 35; 148 24; 149 16; 150 12; 151 2; 
152 1; 153 1; 158 2; 159 4; 160 5; 
161 2; 162 3; 163 5; 164 2; 165 2; 
174 5; 175 9; 176 12; 177 13; 178 4; 
179 1; 188 7; 189 4; 190 5; 191 3; 
193 35; 194 4; 195 1; 203 12; 205 151; 
206 21; 207 4; 218 21; 220 999; 221 135; 
222 14; 223 1; 265 1; 281 1; 282 1; 
382 1; 
