Name: Nortriptyline
Synon: Pamelor
InChIKey: PHVGLTMQBUFIQQ-UHFFFAOYSA-N
Formula: C19H21N
MW: 263
ExactMass: 263.1674
CASNO: 72695
ID: 1910
Comment: DEA SWL / Sigma lot 023K1065
Num Peaks: 104
40 1; 41 3; 42 14; 44 999; 45 26; 
50 1; 51 5; 52 1; 53 1; 56 2; 
57 3; 62 1; 63 6; 64 1; 65 6; 
68 1; 70 4; 74 1; 75 3; 76 3; 
77 8; 78 2; 83 1; 86 1; 87 2; 
88 2; 89 8; 91 29; 92 2; 95 4; 
99 1; 100 2; 101 8; 102 5; 103 4; 
104 1; 105 1; 107 2; 108 3; 113 2; 
115 27; 116 4; 117 2; 126 4; 127 7; 
128 13; 129 4; 138 1; 139 9; 140 1; 
141 9; 142 1; 150 5; 151 8; 152 15; 
153 4; 154 1; 162 1; 163 8; 164 7; 
165 25; 166 4; 174 1; 175 2; 176 12; 
177 6; 178 29; 179 8; 187 7; 188 6; 
189 46; 190 16; 191 25; 192 7; 193 2; 
199 1; 200 10; 201 14; 202 106; 203 84; 
204 40; 205 12; 206 1; 211 1; 212 1; 
213 11; 214 5; 215 46; 216 14; 217 32; 
218 21; 219 27; 220 28; 221 5; 226 2; 
227 1; 228 1; 229 1; 230 1; 231 1; 
232 1; 233 1; 263 6; 264 1; 
