Name: N,N-Dimethylacetamide
InChIKey: FXHOOIRPVKKKFG-UHFFFAOYSA-N
Formula: C4H9NO
MW: 87
ExactMass: 87.0684137
CASNO: 127195
ID: 1918
Comment: DEA SWL / Sigma-Aldrich lot 05137BH
Num Peaks: 21
40 24; 41 41; 42 268; 43 430; 44 935; 
45 181; 46 6; 51 2; 52 5; 53 1; 
54 7; 55 7; 56 29; 57 3; 58 18; 
59 1; 72 252; 73 9; 87 999; 88 63; 
89 3; 
