Name: Nitrofurazone
InChIKey: IAIWVQXQOWNYOU-FPYGCLRLSA-N
Formula: C6H6N4O4
MW: 198
ExactMass: 198.038905
CASNO: 59870
ID: 1923
Comment: AAFS / Unverified / Probability Based Matching Data Base Entry
Num Peaks: 107
41 17; 42 15; 43 56; 44 112; 45 10; 
46 4; 49 6; 50 40; 51 107; 52 30; 
53 31; 54 35; 55 33; 56 8; 57 21; 
58 5; 60 75; 61 10; 62 21; 63 85; 
64 28; 65 15; 66 7; 67 14; 68 16; 
69 34; 70 53; 71 21; 72 7; 73 61; 
74 15; 75 30; 76 7; 77 14; 78 7; 
79 146; 80 37; 81 90; 82 16; 83 18; 
84 12; 85 11; 86 12; 87 11; 88 5; 
89 7; 90 34; 91 18; 92 14; 93 11; 
94 5; 95 11; 96 18; 97 22; 98 29; 
99 144; 100 19; 101 43; 102 4; 103 3; 
105 7; 106 3; 107 5; 108 36; 109 17; 
110 11; 111 9; 112 5; 113 5; 114 5; 
115 6; 116 3; 117 3; 119 8; 121 6; 
122 6; 123 7; 124 6; 125 15; 126 66; 
127 106; 128 37; 129 5; 131 3; 135 10; 
136 5; 138 8; 140 3; 141 19; 143 7; 
149 14; 151 3; 152 6; 153 341; 154 999; 
155 201; 156 195; 157 24; 158 4; 163 3; 
167 3; 171 64; 172 7; 173 24; 175 3; 
197 103; 199 12; 
