Name: N-formylmethamphetamine
InChIKey: GLSMSUZWTDVJMA-UHFFFAOYSA-N
Formula: C11H15NO
MW: 177
ExactMass: 177.115364
CASNO: 42932207
ID: 1933
Comment: ENFSI / intermediate in Leuckartsynthesis of methamphetamine; impurity in methamphetamine synthesis by reductive amination
Num Peaks: 62
41 15; 42 33; 43 14; 44 3; 50 6; 
51 19; 52 5; 53 2; 54 3; 55 2; 
56 46; 57 11; 58 341; 59 13; 60 5; 
61 1; 62 4; 63 17; 64 4; 65 50; 
66 4; 70 1; 71 3; 72 1; 74 2; 
75 2; 76 3; 77 21; 78 10; 79 4; 
86 999; 87 50; 88 4; 89 18; 90 6; 
91 141; 92 14; 93 1; 102 4; 103 9; 
104 5; 105 4; 106 1; 107 1; 115 31; 
116 8; 117 46; 118 115; 119 16; 120 1; 
130 3; 131 2; 132 6; 133 4; 134 6; 
135 1; 144 1; 146 1; 148 2; 160 1; 
177 10; 178 1; 
