Name: Neostigmine
InChIKey: FWNHTEHWJKUVPG-UHFFFAOYSA-N
Formula: C11H16N2O2
MW: 208
ExactMass: 208.121178
CASNO: 59994
ID: 1936
Comment: AAFS / Probability Based Matching Data Base Entry
Num Peaks: 68
41 7; 42 80; 43 15; 44 10; 45 1; 
46 1; 50 8; 51 12; 52 14; 53 6; 
54 2; 55 4; 56 25; 57 1; 58 3; 
59 1; 60 1; 62 5; 63 32; 64 19; 
65 50; 66 33; 67 23; 68 6; 69 1; 
72 999; 73 38; 74 5; 76 5; 77 22; 
78 39; 80 26; 81 5; 90 17; 92 37; 
93 102; 94 15; 95 96; 97 1; 103 3; 
104 16; 105 8; 106 7; 107 10; 108 66; 
109 6; 117 1; 118 5; 119 3; 120 11; 
121 3; 122 4; 134 4; 135 13; 136 18; 
137 8; 138 1; 150 22; 151 6; 154 1; 
161 1; 163 2; 164 4; 191 1; 207 10; 
208 294; 209 41; 210 3; 
