Name: Tropicamide
Synon: N-Ethyl-3-hydroxy-2-phenyl-N-(4-pyridinylmethyl)propanamide
InChIKey: BGDKAVGWHJFAGW-UHFFFAOYSA-N
Formula: C17H20N2O2
MW: 284
ExactMass: 284.152477
CASNO: 1508754
ID: 1937
Comment: AAFS
Num Peaks: 94
42 4; 43 6; 44 30; 50 7; 51 27; 
52 13; 53 7; 54 2; 55 2; 56 7; 
58 12; 62 3; 63 18; 64 11; 65 111; 
66 11; 67 4; 70 6; 72 2; 75 2; 
76 2; 77 78; 78 29; 79 35; 80 18; 
89 34; 90 63; 91 170; 92 999; 93 177; 
94 14; 102 6; 103 161; 104 133; 105 28; 
106 21; 107 67; 108 10; 115 2; 116 3; 
117 7; 118 53; 119 20; 120 30; 121 117; 
122 10; 131 36; 132 15; 133 16; 134 8; 
135 67; 136 10; 137 11; 146 5; 147 4; 
148 5; 149 11; 150 3; 161 3; 162 17; 
163 193; 164 20; 165 4; 167 5; 168 10; 
169 4; 174 5; 175 3; 179 2; 180 6; 
181 5; 182 13; 183 16; 184 2; 188 5; 
189 7; 192 11; 193 3; 194 7; 195 3; 
209 2; 225 26; 226 4; 237 2; 251 13; 
252 3; 254 778; 255 150; 256 14; 265 25; 
266 119; 267 25; 268 2; 284 8; 
