Name: N-benzylmethylamine
Synon: N-methylbenzylamine
InChIKey: RIWRFSMVIUAEBX-UHFFFAOYSA-N
Formula: C8H11N
MW: 121
ExactMass: 121.0891495
CASNO: 103673
ID: 1940
Comment: DEA SWL
Num Peaks: 47
40 11; 41 24; 42 275; 43 81; 44 566; 
45 14; 49 4; 50 46; 51 106; 52 34; 
53 9; 54 2; 59 21; 60 15; 61 17; 
62 21; 63 63; 64 18; 65 140; 66 9; 
67 2; 73 1; 74 11; 75 8; 76 16; 
77 93; 78 61; 79 24; 80 5; 85 2; 
86 5; 87 3; 89 56; 91 488; 92 90; 
93 8; 94 3; 103 8; 104 41; 105 9; 
106 18; 117 12; 118 60; 120 999; 121 527; 
122 42; 123 2; 
