Name: N-Isopropylbenzylamine
Synon: N-benzylisopropylamine
InChIKey: LYBKPDDZTNUNNM-UHFFFAOYSA-N
Formula: C10H15N
MW: 149
ExactMass: 149.120449
CASNO: 102976
ID: 1941
Comment: DEA SWL
Num Peaks: 58
37 1; 38 5; 39 53; 40 5; 41 41; 
42 24; 43 23; 44 3; 50 14; 51 42; 
52 12; 53 4; 54 3; 55 1; 56 10; 
57 1; 58 13; 60 1; 61 1; 62 5; 
63 23; 64 7; 65 103; 66 7; 67 12; 
70 1; 72 12; 73 1; 74 3; 75 3; 
76 4; 77 42; 78 14; 79 29; 80 2; 
89 24; 90 10; 91 999; 92 84; 93 2; 
103 3; 104 17; 105 7; 106 37; 107 3; 
117 3; 118 3; 130 1; 132 13; 133 3; 
134 436; 135 45; 136 1; 146 2; 147 2; 
148 12; 149 26; 150 3; 
