Name: Narceine
InChIKey: DEXMFYZAHXMZNM-UHFFFAOYSA-N
Formula: C23H27NO8
MW: 445
ExactMass: 445.173666
CASNO: 131282
ID: 1943
Comment: DEA SWL
Num Peaks: 170
41 2; 42 20; 43 4; 44 4; 45 1; 
50 1; 51 2; 52 2; 53 4; 55 1; 
56 3; 57 8; 58 999; 59 34; 63 5; 
65 4; 72 1; 73 3; 74 1; 75 1; 
76 10; 77 8; 78 5; 79 4; 81 4; 
82 2; 83 1; 84 1; 87 1; 88 2; 
89 5; 90 5; 91 3; 92 2; 93 1; 
97 2; 102 4; 103 1; 104 8; 105 5; 
106 7; 107 3; 109 1; 110 1; 111 2; 
112 1; 115 4; 116 4; 117 3; 118 6; 
120 3; 121 1; 122 2; 123 1; 125 5; 
126 7; 127 5; 128 1; 129 3; 131 3; 
132 1; 133 4; 134 2; 135 2; 136 1; 
137 1; 138 1; 139 7; 140 4; 143 1; 
145 1; 149 4; 150 4; 151 5; 152 8; 
153 3; 154 4; 155 3; 156 2; 157 2; 
159 2; 160 1; 161 1; 162 4; 163 8; 
164 4; 165 9; 166 2; 167 2; 168 2; 
169 1; 171 2; 175 3; 176 6; 177 2; 
178 2; 179 1; 180 3; 181 5; 182 1; 
188 2; 189 2; 190 4; 191 4; 192 2; 
193 3; 194 1; 195 5; 196 1; 197 3; 
198 3; 203 5; 204 10; 205 3; 206 2; 
209 6; 210 2; 211 2; 218 6; 219 4; 
220 5; 221 3; 222 1; 223 2; 224 3; 
225 3; 233 2; 234 66; 235 13; 236 2; 
237 4; 238 2; 239 4; 240 2; 249 6; 
251 1; 252 2; 254 2; 255 1; 265 2; 
266 2; 268 1; 280 2; 282 3; 283 5; 
295 3; 296 4; 309 1; 310 2; 311 2; 
313 2; 315 1; 323 1; 324 1; 325 4; 
326 3; 330 2; 339 1; 345 1; 346 1; 
369 2; 383 3; 384 1; 402 2; 407 1; 
417 1; 427 44; 428 10; 429 3; 430 4; 
