Name: Oxymetazoline
InChIKey: WYWIFABBXFUGLM-UHFFFAOYSA-N
Formula: C16H24N2O
MW: 260
ExactMass: 260.188864
CASNO: 1491594
ID: 1948
Comment: AAFS / Probability Based Matching Data Base Entry
Num Peaks: 127
41 118; 42 65; 43 54; 44 384; 45 16; 
51 26; 53 42; 54 25; 55 64; 56 16; 
57 46; 58 18; 63 17; 64 13; 65 55; 
66 24; 67 26; 68 14; 69 26; 70 12; 
71 69; 77 113; 78 47; 79 76; 80 37; 
81 81; 82 30; 83 24; 84 165; 85 63; 
86 24; 87 52; 89 19; 91 203; 92 33; 
93 48; 94 55; 100 20; 101 103; 103 51; 
104 21; 105 102; 106 28; 107 37; 108 64; 
111 12; 115 182; 116 57; 117 69; 118 20; 
119 60; 121 34; 122 35; 127 41; 128 123; 
129 72; 130 44; 131 66; 132 28; 133 57; 
134 23; 135 41; 141 71; 142 54; 143 48; 
144 35; 145 60; 146 51; 147 63; 148 19; 
149 16; 152 12; 153 23; 154 19; 155 14; 
156 16; 157 28; 158 30; 159 73; 160 40; 
161 74; 162 24; 163 56; 169 12; 170 14; 
171 31; 172 28; 173 44; 174 80; 175 128; 
176 30; 185 30; 186 38; 187 102; 188 103; 
189 266; 190 38; 199 21; 200 28; 201 257; 
202 113; 203 142; 204 67; 211 17; 212 12; 
213 31; 214 30; 215 67; 216 50; 217 626; 
218 420; 219 59; 227 33; 228 15; 229 76; 
230 67; 231 34; 241 15; 243 80; 245 999; 
246 180; 247 16; 257 19; 259 178; 260 778; 
261 161; 262 15; 
