Name: Oxazepam
Synon: Serax
InChIKey: ADIMAYPTOBDMTL-UHFFFAOYSA-N
Formula: C15H11ClN2O2
MW: 286
ExactMass: 286.050905
CASNO: 604751
ID: 1952
Comment: DEA SWL
Num Peaks: 140
40 5; 44 5; 49 11; 50 116; 51 284; 
52 49; 53 5; 55 2; 61 20; 62 45; 
63 64; 64 16; 65 6; 69 3; 72 4; 
73 26; 74 135; 75 266; 76 137; 77 703; 
78 93; 79 5; 80 4; 81 4; 82 2; 
84 18; 85 24; 86 44; 87 55; 88 51; 
89 44; 90 5; 92 2; 93 8; 94 4; 
97 14; 98 43; 99 66; 100 177; 101 51; 
102 108; 104 233; 105 17; 107 5; 108 6; 
109 21; 110 115; 111 39; 112 55; 113 33; 
114 16; 115 7; 120 17; 121 11; 122 9; 
123 28; 124 24; 125 36; 126 63; 127 36; 
128 13; 129 4; 134 6; 135 12; 136 97; 
137 50; 138 45; 139 28; 140 13; 141 2; 
146 3; 147 7; 148 7; 149 53; 150 174; 
151 232; 152 90; 153 21; 154 4; 160 3; 
161 9; 162 22; 163 119; 164 27; 165 44; 
166 7; 171 2; 173 3; 174 15; 175 66; 
176 167; 177 364; 178 105; 179 28; 180 4; 
184 5; 185 6; 186 21; 187 9; 188 13; 
189 6; 190 7; 191 2; 198 3; 199 17; 
200 6; 201 12; 202 53; 203 120; 204 155; 
205 999; 206 154; 207 12; 211 26; 212 11; 
213 30; 214 43; 215 7; 216 9; 217 6; 
218 2; 224 6; 226 4; 233 604; 234 106; 
235 11; 237 7; 239 874; 240 399; 241 349; 
242 128; 243 31; 251 9; 253 4; 267 720; 
268 708; 269 357; 270 222; 271 43; 272 9; 
