Name: Salicylic Acid
Synon: o-Hydroxybenzoic acid
Synon: Phenol-2-carboxylic acid
InChIKey: YGSDEFSMJLZEOE-UHFFFAOYSA-N
Formula: C7H6O3
MW: 138
ExactMass: 138.031694
CASNO: 69727
ID: 1957
Comment: AAFS
Num Peaks: 33
42 7; 45 55; 46 17; 49 15; 50 49; 
51 28; 52 9; 53 110; 54 8; 55 23; 
60 11; 61 45; 62 80; 63 233; 64 296; 
65 148; 66 32; 67 5; 69 6; 73 8; 
74 24; 75 11; 76 8; 77 11; 81 26; 
92 999; 93 99; 94 8; 120 746; 121 98; 
122 7; 138 393; 139 30; 
