Name: Pindolol
InChIKey: JZQKKSLKJUAGIC-UHFFFAOYSA-N
Formula: C14H20N2O2
MW: 248
ExactMass: 248.152478
CASNO: 13523869
ID: 1962
Comment: AAFS / Probability Based Matching Data Base Entry
Num Peaks: 99
30 217; 31 5; 38 2; 39 16; 40 2; 
41 45; 42 25; 43 53; 44 22; 45 2; 
50 10; 51 24; 52 6; 53 2; 54 4; 
55 5; 56 77; 57 49; 58 28; 59 2; 
60 26; 61 1; 62 7; 63 15; 64 4; 
65 4; 66 2; 67 1; 68 3; 70 22; 
71 20; 72 702; 73 36; 74 20; 75 6; 
76 20; 77 57; 78 39; 79 8; 80 1; 
82 5; 84 8; 85 1; 86 12; 87 3; 
88 6; 89 49; 90 11; 91 6; 96 2; 
98 10; 100 47; 101 4; 102 40; 103 12; 
104 148; 105 41; 106 4; 107 1; 114 20; 
115 13; 116 165; 117 36; 118 18; 119 1; 
130 7; 132 87; 133 999; 134 103; 135 7; 
143 1; 144 8; 145 3; 146 18; 147 11; 
148 2; 157 1; 158 7; 159 7; 160 6; 
161 1; 170 2; 171 1; 172 19; 173 3; 
174 1; 175 8; 176 2; 187 4; 188 1; 
204 60; 205 8; 233 15; 234 2; 246 2; 
247 5; 248 156; 249 26; 250 2; 
