Name: Piminodine
InChIKey: PXXKIYPSXYFATG-UHFFFAOYSA-N
Formula: C23H30N2O2
MW: 366
ExactMass: 366.230728
CASNO: 13495095
ID: 1963
Comment: DEA SWL
Num Peaks: 181
40 2; 41 27; 42 186; 43 67; 44 47; 
45 3; 50 4; 51 24; 52 6; 53 14; 
54 15; 55 23; 56 89; 57 91; 58 13; 
59 21; 60 3; 62 1; 63 4; 64 4; 
65 37; 66 8; 67 5; 68 25; 69 17; 
70 82; 71 75; 72 10; 73 3; 74 2; 
75 3; 76 7; 77 165; 78 39; 79 45; 
80 12; 81 5; 82 73; 83 41; 84 19; 
85 3; 86 5; 88 1; 89 6; 90 3; 
91 152; 92 27; 93 24; 94 11; 95 11; 
96 36; 97 78; 98 8; 99 4; 102 14; 
103 187; 104 89; 105 40; 106 421; 107 50; 
108 7; 109 1; 110 5; 111 5; 112 2; 
113 1; 115 103; 116 53; 117 61; 118 70; 
119 35; 120 77; 121 8; 122 4; 124 1; 
125 1; 126 4; 127 16; 128 49; 129 63; 
130 42; 131 83; 132 226; 133 168; 134 24; 
135 4; 136 1; 139 1; 140 6; 141 10; 
142 7; 143 29; 144 22; 145 14; 146 39; 
148 4; 149 4; 152 2; 154 4; 155 5; 
156 27; 157 7; 158 144; 159 28; 160 31; 
161 16; 162 7; 163 2; 164 1; 166 4; 
167 1; 168 8; 169 6; 170 13; 171 16; 
172 77; 173 31; 174 77; 175 50; 176 11; 
177 6; 182 5; 183 1; 184 22; 185 4; 
186 9; 187 16; 188 13; 189 5; 190 16; 
191 4; 192 3; 193 1; 196 1; 198 8; 
199 3; 200 43; 201 8; 202 15; 203 2; 
204 5; 205 1; 207 1; 208 1; 209 1; 
216 3; 217 2; 218 82; 219 16; 220 1; 
230 2; 232 93; 233 41; 234 145; 235 23; 
236 3; 244 154; 245 35; 246 999; 247 163; 
248 18; 249 1; 258 39; 259 14; 260 150; 
261 24; 262 2; 272 38; 273 37; 274 7; 
291 2; 293 11; 294 2; 321 2; 322 1; 
341 1; 351 1; 366 231; 367 65; 368 7; 
369 1; 
