Name: Pilocarpine
InChIKey: QCHFTSOMWOSFHM-UHFFFAOYSA-N
Formula: C11H16N2O2
MW: 208
ExactMass: 208.121178
CASNO: 92137
ID: 1965
Comment: DEA SWL
Num Peaks: 79
40 10; 41 60; 42 80; 43 5; 44 1; 
45 1; 50 2; 51 8; 52 11; 53 27; 
54 49; 55 31; 56 4; 57 2; 59 2; 
62 1; 63 3; 64 2; 65 10; 66 13; 
67 20; 68 30; 69 6; 70 1; 77 7; 
78 3; 79 7; 80 14; 81 18; 82 29; 
83 29; 84 2; 85 5; 91 3; 92 6; 
93 7; 94 21; 95 999; 96 226; 97 13; 
98 2; 104 1; 105 1; 106 4; 107 7; 
108 7; 109 102; 110 10; 111 3; 112 1; 
118 1; 119 3; 120 3; 121 31; 122 10; 
123 18; 124 7; 125 1; 131 1; 133 8; 
134 2; 135 7; 136 1; 137 3; 138 2; 
147 2; 149 8; 150 3; 151 6; 152 1; 
163 2; 164 2; 168 1; 177 1; 179 1; 
193 3; 207 1; 208 50; 209 7; 
