Name: Phenylalanine
InChIKey: COLNVLDHVKWLRT-UHFFFAOYSA-N
Formula: C9H11NO2
MW: 165
ExactMass: 165.078979
CASNO: 150301
ID: 1970
Comment: DEA SWL
Num Peaks: 41
38 21; 39 127; 40 4; 41 50; 42 65; 
43 45; 44 84; 45 32; 46 155; 50 62; 
51 151; 52 48; 53 22; 58 33; 60 58; 
62 36; 63 91; 64 22; 65 255; 66 27; 
74 999; 75 50; 76 26; 77 155; 78 40; 
89 76; 90 35; 91 865; 92 278; 93 59; 
102 20; 103 173; 104 60; 105 25; 117 45; 
118 114; 119 125; 120 928; 121 79; 135 46; 
165 16; 
