Name: Phenylacetic acid, 2-methylpropyl ester
InChIKey: RJASFPFZACBKBE-UHFFFAOYSA-N
Formula: C12H16O2
MW: 192
ExactMass: 192.115029
CASNO: 102136
ID: 1971
Comment: ENFSI / impurity in clandestine P2P
Num Peaks: 53
40 6; 41 158; 42 8; 43 21; 44 1; 
46 3; 50 7; 51 18; 52 6; 53 3; 
55 11; 56 28; 57 312; 58 13; 61 1; 
62 8; 63 32; 64 11; 65 130; 66 7; 
71 9; 72 1; 73 1; 74 2; 75 2; 
76 1; 77 7; 78 3; 79 4; 86 1; 
87 1; 89 56; 90 38; 91 999; 92 285; 
93 19; 94 1; 104 1; 105 3; 107 2; 
118 11; 119 85; 120 7; 121 1; 131 1; 
136 437; 137 168; 138 14; 139 1; 149 6; 
177 1; 192 24; 193 3; 
