Name: Promethazine
Synon: Phenergan
InChIKey: PWWVAXIEGOYWEE-UHFFFAOYSA-N
Formula: C17H20N2S
MW: 284
ExactMass: 284.13472
CASNO: 60877
ID: 1979
Comment: DEA SWL
Num Peaks: 111
41 5; 42 33; 43 6; 44 28; 45 7; 
50 4; 51 8; 52 2; 54 2; 55 3; 
56 31; 57 9; 58 7; 62 1; 63 7; 
64 2; 65 7; 68 1; 69 8; 70 31; 
72 999; 73 49; 74 4; 75 4; 76 5; 
77 14; 78 5; 82 2; 84 4; 85 6; 
86 9; 87 1; 88 7; 89 5; 90 3; 
91 2; 95 3; 96 2; 100 1; 101 2; 
102 2; 103 2; 106 2; 108 5; 109 6; 
113 2; 114 1; 115 6; 116 3; 121 2; 
125 1; 126 5; 127 11; 128 7; 130 1; 
134 2; 135 2; 138 2; 139 13; 140 12; 
141 2; 146 2; 150 2; 151 11; 152 30; 
153 13; 154 19; 155 2; 159 1; 164 6; 
165 2; 166 16; 167 9; 168 2; 170 2; 
171 9; 172 4; 173 1; 177 4; 178 9; 
179 11; 180 56; 181 8; 183 3; 184 7; 
185 3; 186 10; 187 2; 192 1; 196 7; 
197 13; 198 73; 199 15; 200 4; 204 2; 
205 2; 206 3; 207 3; 209 1; 210 6; 
212 15; 213 19; 214 3; 215 2; 223 4; 
224 3; 238 2; 239 2; 282 2; 283 2; 
284 3; 
