Name: Phenazine
InChIKey: PCNDJXKNXGMECE-UHFFFAOYSA-N
Formula: C12H8N2
MW: 180
ExactMass: 180.068748
CASNO: 92820
ID: 1984
Comment: AAFS / Probability Based Matching Data Base Entry
Num Peaks: 57
37 1; 38 2; 39 3; 50 27; 51 14; 
52 11; 53 1; 61 2; 62 6; 63 19; 
64 8; 65 1; 73 2; 74 18; 75 31; 
76 53; 77 23; 78 5; 79 1; 86 1; 
87 3; 88 3; 89 6; 90 70; 98 1; 
99 4; 100 5; 101 11; 102 31; 103 25; 
104 2; 112 1; 113 1; 114 2; 115 1; 
116 1; 124 1; 125 12; 126 20; 127 23; 
128 17; 129 20; 130 2; 140 8; 141 1; 
151 7; 152 41; 153 56; 154 37; 155 3; 
165 2; 177 1; 178 4; 179 340; 180 999; 
181 133; 182 9; 
