Name: p-Fluorofentanyl
Synon: para-Fluorofentanyl
Synon: N-(4-fluorophenyl)-N-[1-(2-phenylethyl)-4-piperidinyl]propanamide
Synon: 4-Fluorofentanyl
InChIKey: KXUBAVLIJFTASZ-UHFFFAOYSA-N
Formula: C22H27FN2O
MW: 354
ExactMass: 354.210741
CASNO: 90736235
ID: 1985
Comment: DEA SWL
Num Peaks: 153
40 4; 41 85; 42 419; 43 66; 44 414; 
45 11; 50 6; 51 20; 52 8; 53 18; 
54 27; 55 72; 56 59; 57 400; 58 18; 
59 1; 62 2; 63 10; 64 4; 65 47; 
66 6; 67 44; 68 55; 69 51; 70 110; 
71 10; 72 1; 73 1; 74 2; 75 27; 
76 6; 77 90; 78 28; 79 96; 80 21; 
81 11; 82 51; 83 26; 84 22; 85 2; 
86 3; 88 3; 89 12; 90 6; 91 183; 
92 18; 93 5; 94 30; 95 163; 96 236; 
97 34; 98 8; 100 1; 101 3; 102 8; 
103 87; 104 52; 105 370; 106 35; 107 7; 
108 7; 109 52; 110 18; 111 70; 112 19; 
113 2; 115 9; 116 4; 117 19; 118 5; 
119 2; 120 1; 121 10; 122 108; 123 35; 
124 35; 125 2; 127 1; 128 3; 129 5; 
130 32; 131 11; 132 21; 133 7; 134 18; 
135 38; 136 119; 137 36; 138 14; 139 21; 
140 3; 143 3; 144 9; 145 2; 146 7; 
147 3; 148 107; 149 81; 150 177; 151 27; 
152 2; 156 3; 157 1; 158 6; 159 2; 
160 28; 161 7; 162 16; 163 15; 164 909; 
165 104; 166 12; 167 6; 168 6; 169 1; 
174 1; 175 2; 176 58; 177 18; 178 9; 
179 3; 182 1; 184 11; 185 7; 186 32; 
187 6; 188 24; 189 4; 190 4; 191 3; 
192 2; 205 14; 206 19; 207 327; 208 42; 
209 3; 218 1; 219 1; 220 114; 221 16; 
222 1; 234 5; 235 1; 253 2; 261 1; 
262 1; 263 999; 264 176; 265 17; 266 1; 
282 2; 297 1; 352 3; 
