Name: p-Benzoquinone
InChIKey: AZQWKYJCGOJGHM-UHFFFAOYSA-N
Synon: 1,4-Benzoquinone
Formula: C6H4O2
MW: 108
ExactMass: 108.021129
CASNO: 106514
ID: 1992
Comment: DEA SWL / Aldrich lot 14611PC
Num Peaks: 30
40 2; 41 14; 42 2; 48 7; 49 38; 
50 100; 51 72; 52 271; 53 257; 54 973; 
55 41; 56 3; 60 14; 61 40; 62 30; 
63 20; 64 3; 69 1; 73 2; 74 2; 
77 2; 80 317; 81 5; 82 416; 83 18; 
84 2; 108 999; 109 67; 110 39; 111 2; 
