Name: Parathion
Synon: Phosphorothioic acid, O,O-diethyl O-(4-nitrophenyl) ester
InChIKey: LCCNCVORNKJIRZ-UHFFFAOYSA-N
Formula: C10H14NO5PS
MW: 291
ExactMass: 291.03303
CASNO: 56382
ID: 1994
Comment: AAFS / Probability Based Matching Data Base Entry
Num Peaks: 93
43 19; 45 70; 47 78; 50 66; 51 37; 
52 32; 53 35; 54 20; 56 13; 57 5; 
59 11; 60 20; 61 23; 62 35; 63 231; 
64 126; 65 240; 66 19; 68 1; 69 7; 
70 18; 74 32; 75 82; 76 64; 77 32; 
79 43; 80 66; 81 179; 82 19; 83 18; 
91 75; 92 64; 93 142; 94 30; 95 29; 
96 139; 97 999; 98 69; 107 19; 109 878; 
110 46; 111 28; 114 28; 115 18; 119 12; 
120 11; 121 24; 122 28; 123 242; 124 48; 
125 310; 126 24; 127 30; 137 350; 139 391; 
140 129; 141 108; 142 17; 149 29; 150 75; 
153 42; 154 342; 156 50; 157 10; 169 27; 
170 26; 171 40; 173 11; 185 15; 186 169; 
187 35; 188 126; 190 12; 202 15; 214 16; 
216 1; 217 46; 218 107; 219 14; 233 12; 
234 16; 235 150; 236 80; 237 17; 246 26; 
248 17; 261 18; 262 15; 263 93; 264 16; 
291 570; 292 70; 293 36; 
