Name: Selegiline
InChIKey: MEZLKOACVSPNER-UHFFFAOYSA-N
Formula: C13H17N
MW: 187
ExactMass: 187.1361
CASNO: 14611519
ID: 2000
Comment: DEA SWL / Mylan lot 0L078
Num Peaks: 64
40 7; 41 27; 42 93; 43 5; 44 11; 
50 6; 51 18; 52 8; 53 11; 54 10; 
55 11; 56 180; 57 14; 58 31; 59 1; 
62 3; 63 13; 64 4; 65 44; 66 7; 
67 4; 68 8; 70 27; 71 2; 74 1; 
75 2; 76 2; 77 18; 78 9; 79 4; 
80 13; 81 10; 82 1; 89 11; 90 4; 
91 120; 92 11; 93 1; 94 17; 95 4; 
96 999; 97 68; 98 2; 102 4; 103 8; 
104 3; 105 3; 115 19; 116 5; 117 17; 
118 6; 119 3; 127 2; 128 7; 129 3; 
130 3; 131 2; 132 3; 133 1; 144 2; 
146 2; 162 2; 170 2; 172 3; 
