Name: Rofecoxib
Synon: Vioxx
InChIKey: RZJQGNCSTQAWON-UHFFFAOYSA-N
Formula: C17H14O4S
MW: 314
ExactMass: 314.06128
CASNO: 162011907
ID: 2003
Comment: DEA SWL
Num Peaks: 97
44 33; 50 38; 51 73; 52 14; 62 30; 
63 144; 64 20; 65 29; 70 14; 73 15; 
74 37; 75 76; 76 105; 77 69; 78 19; 
79 44; 82 24; 83 46; 86 26; 87 56; 
88 75; 89 124; 91 14; 94 27; 95 72; 
98 30; 99 24; 100 19; 101 30; 102 82; 
103 265; 104 23; 105 25; 111 19; 113 41; 
114 18; 115 79; 117 13; 122 14; 126 74; 
127 30; 128 24; 131 411; 132 51; 137 22; 
139 100; 140 13; 149 16; 150 132; 151 215; 
152 252; 153 50; 162 17; 163 97; 164 79; 
165 333; 166 98; 167 36; 174 32; 175 50; 
176 516; 177 309; 178 950; 179 231; 180 29; 
183 32; 187 49; 188 51; 189 346; 190 104; 
191 205; 192 41; 193 101; 194 35; 195 80; 
196 13; 205 46; 206 48; 207 83; 208 21; 
209 14; 226 25; 234 33; 235 56; 236 13; 
257 999; 258 196; 259 69; 269 14; 283 17; 
285 108; 286 54; 287 14; 313 32; 314 606; 
315 112; 316 49; 
