Name: Temazepam
Synon: Restoril
InChIKey: SEQDDYPDSLOBDC-UHFFFAOYSA-N
Formula: C16H13ClN2O2
MW: 300
ExactMass: 300.066555
CASNO: 846504
ID: 2004
Comment: DEA SWL
Num Peaks: 216
41 3; 42 7; 43 3; 44 2; 45 1; 
49 3; 50 27; 51 78; 52 22; 53 5; 
54 1; 55 2; 56 3; 57 3; 58 6; 
60 1; 61 5; 62 20; 63 51; 64 16; 
65 17; 66 10; 67 1; 68 2; 70 4; 
71 1; 72 1; 73 18; 74 26; 75 71; 
76 52; 77 207; 78 29; 79 12; 80 2; 
81 9; 82 12; 83 11; 84 16; 85 6; 
86 11; 87 19; 88 20; 89 39; 90 25; 
91 28; 92 4; 93 3; 94 1; 96 18; 
97 18; 98 16; 99 25; 100 24; 101 18; 
102 40; 103 28; 104 108; 105 47; 106 8; 
107 2; 108 2; 109 7; 110 15; 111 54; 
112 21; 113 27; 114 32; 115 30; 116 16; 
117 19; 118 39; 119 4; 120 2; 121 16; 
122 13; 123 13; 124 29; 125 35; 126 35; 
127 32; 128 15; 129 7; 130 5; 131 11; 
132 20; 133 2; 134 2; 135 6; 136 22; 
137 12; 138 43; 139 37; 140 68; 141 14; 
142 16; 143 3; 147 2; 148 2; 149 11; 
150 51; 151 95; 152 95; 153 29; 154 17; 
155 3; 158 2; 160 2; 161 4; 162 8; 
163 44; 164 46; 165 143; 166 60; 167 39; 
168 10; 169 3; 170 2; 173 2; 174 3; 
175 6; 176 15; 177 53; 178 43; 179 31; 
180 34; 181 9; 182 2; 185 1; 186 5; 
187 2; 188 7; 189 4; 190 16; 191 25; 
192 50; 193 105; 194 27; 195 38; 196 6; 
197 8; 198 3; 199 15; 200 7; 201 10; 
202 6; 203 9; 204 4; 205 15; 206 14; 
207 15; 208 16; 209 4; 210 1; 211 1; 
212 3; 213 18; 214 24; 215 11; 216 8; 
217 3; 218 2; 219 4; 220 10; 221 81; 
222 14; 223 1; 224 1; 225 1; 226 9; 
227 44; 228 113; 229 30; 230 42; 231 5; 
232 1; 234 1; 235 11; 236 14; 237 10; 
238 3; 239 18; 240 6; 241 22; 242 12; 
243 79; 244 17; 245 23; 246 5; 247 1; 
253 2; 254 7; 255 170; 256 141; 257 120; 
258 57; 259 22; 260 3; 267 1; 268 1; 
269 14; 271 999; 272 177; 273 339; 274 59; 
275 5; 282 3; 283 1; 284 2; 298 1; 
299 22; 300 71; 301 23; 302 26; 303 5; 
304 1; 
