Name: Quinidine
InChIKey: LOUPRKONTZGTKE-UHFFFAOYSA-N
Formula: C20H24N2O2
MW: 324
ExactMass: 324.183779
CASNO: 56542
ID: 2007
Comment: DEA SWL
Num Peaks: 181
41 162; 42 152; 43 30; 44 35; 51 21; 
52 13; 53 71; 54 42; 55 181; 56 71; 
57 22; 58 11; 63 16; 64 8; 65 24; 
66 19; 67 61; 68 49; 69 31; 70 34; 
74 12; 75 15; 76 10; 77 54; 78 20; 
79 136; 80 58; 81 200; 82 151; 83 33; 
84 14; 88 21; 89 49; 90 48; 91 43; 
93 27; 94 72; 95 75; 96 27; 101 25; 
102 21; 103 17; 104 7; 105 16; 106 15; 
107 19; 108 87; 109 26; 110 57; 111 28; 
113 11; 114 16; 115 30; 116 80; 117 218; 
118 30; 119 10; 120 7; 121 9; 122 41; 
123 17; 124 26; 125 8; 126 31; 127 30; 
128 43; 129 36; 130 28; 131 9; 132 15; 
133 8; 134 33; 136 999; 137 126; 138 238; 
139 54; 140 19; 141 14; 142 17; 143 23; 
144 25; 145 100; 146 41; 147 7; 150 9; 
151 8; 152 21; 153 16; 154 41; 155 25; 
156 22; 157 16; 158 93; 159 78; 160 137; 
161 14; 166 45; 167 26; 168 19; 169 30; 
170 33; 171 13; 172 157; 173 235; 174 140; 
175 28; 181 8; 182 33; 183 37; 184 30; 
185 26; 186 80; 187 31; 188 128; 189 360; 
190 41; 191 12; 193 8; 195 8; 196 25; 
197 22; 198 34; 199 21; 200 39; 201 46; 
202 32; 204 11; 205 8; 207 26; 208 13; 
209 11; 210 17; 211 21; 212 16; 213 14; 
214 40; 215 17; 216 10; 222 7; 224 15; 
225 11; 226 21; 227 17; 229 15; 234 7; 
236 10; 237 8; 240 27; 241 16; 242 8; 
243 9; 249 14; 251 12; 252 9; 253 15; 
254 10; 265 15; 266 11; 267 18; 268 10; 
269 35; 279 12; 280 7; 281 30; 282 9; 
283 80; 284 18; 285 10; 295 27; 297 49; 
298 10; 307 22; 309 79; 310 24; 311 42; 
312 8; 323 39; 324 379; 325 88; 326 124; 
327 32; 
