Name: Quetiapine
Synon: Seroquel
InChIKey: URKOMYMAXPYINW-UHFFFAOYSA-N
Formula: C21H25N3O2S
MW: 383
ExactMass: 383.166748
CASNO: 111974697
ID: 2008
Comment: DEA SWL
Num Peaks: 193
41 59; 42 309; 43 82; 44 57; 45 602; 
46 8; 50 16; 51 28; 53 3; 54 58; 
55 70; 56 322; 57 58; 58 97; 59 20; 
63 24; 65 14; 68 25; 69 178; 70 151; 
71 41; 72 16; 73 11; 74 14; 75 28; 
76 21; 77 32; 78 8; 79 3; 80 13; 
81 13; 82 226; 83 58; 84 84; 85 44; 
86 24; 87 19; 88 20; 89 35; 90 4; 
91 24; 92 3; 93 6; 94 26; 95 514; 
96 67; 97 119; 98 41; 99 11; 100 54; 
101 22; 102 17; 103 17; 104 13; 105 21; 
107 2; 108 79; 109 40; 110 86; 111 46; 
112 24; 113 35; 114 35; 115 27; 116 15; 
117 14; 118 12; 119 14; 123 54; 124 4; 
125 5; 126 50; 127 24; 128 24; 129 3; 
130 29; 131 7; 132 27; 133 8; 134 17; 
135 20; 136 11; 137 7; 138 16; 139 212; 
140 72; 141 10; 142 38; 144 986; 145 99; 
146 11; 148 6; 149 14; 150 20; 151 42; 
152 38; 153 4; 154 47; 155 2; 156 15; 
157 298; 158 41; 159 4; 161 3; 163 5; 
164 55; 165 26; 166 30; 167 34; 171 21; 
172 15; 173 12; 176 7; 177 78; 178 65; 
179 39; 180 13; 181 2; 182 27; 183 208; 
184 83; 185 21; 186 3; 189 3; 190 4; 
191 11; 192 15; 193 15; 194 26; 195 16; 
196 2; 197 10; 198 11; 199 3; 204 26; 
205 21; 206 13; 207 46; 208 39; 209 363; 
210 999; 211 277; 212 119; 213 17; 218 25; 
219 69; 220 13; 221 40; 222 15; 223 20; 
224 23; 225 19; 226 164; 227 146; 228 31; 
229 3; 233 3; 236 14; 237 35; 238 24; 
239 470; 240 85; 241 25; 247 26; 248 3; 
249 10; 250 19; 251 234; 252 127; 253 198; 
254 51; 255 10; 263 4; 265 45; 266 9; 
267 10; 277 8; 279 54; 280 9; 281 13; 
282 2; 283 1; 288 10; 292 3; 308 38; 
320 3; 321 123; 322 90; 323 16; 327 7; 
331 3; 355 3; 383 7; 
