Name: Pyrilamine
InChIKey: YECBIJXISLIIDS-UHFFFAOYSA-N
Formula: C17H23N3O
MW: 285
ExactMass: 285.184113
CASNO: 91849
ID: 2009
Comment: DEA SWL
Num Peaks: 86
40 1; 41 5; 42 30; 43 9; 44 5; 
45 3; 50 2; 51 17; 52 18; 53 6; 
54 1; 55 3; 56 12; 57 10; 58 482; 
59 17; 63 4; 64 3; 65 12; 66 2; 
67 3; 70 4; 71 92; 72 126; 73 6; 
76 1; 77 46; 78 85; 79 65; 80 6; 
89 12; 90 10; 91 35; 92 6; 93 6; 
94 2; 95 1; 103 1; 104 1; 105 8; 
106 26; 107 16; 108 4; 109 1; 117 1; 
118 3; 119 20; 121 999; 122 88; 123 5; 
131 1; 133 3; 134 3; 135 2; 136 7; 
147 1; 148 8; 149 1; 154 1; 162 4; 
163 1; 168 2; 169 6; 170 1; 180 2; 
181 1; 182 1; 183 8; 184 1; 191 1; 
195 1; 197 1; 198 1; 199 2; 210 1; 
211 3; 212 1; 213 49; 214 63; 215 73; 
216 10; 225 3; 227 10; 228 1; 285 12; 
286 2; 
