Name: Pyrazinamide
InChIKey: IPEHBUMCGVEMRF-UHFFFAOYSA-N
Formula: C5H5N3O
MW: 123
ExactMass: 123.043262
CASNO: 98964
ID: 2011
Comment: AAFS / Probability Based Matching Data Base Entry
Num Peaks: 37
40 18; 41 14; 42 7; 43 18; 44 165; 
45 9; 50 14; 51 125; 52 342; 53 503; 
54 32; 55 5; 56 2; 59 2; 64 2; 
66 5; 67 6; 68 10; 69 17; 70 3; 
71 3; 76 9; 77 18; 78 30; 80 933; 
81 49; 84 5; 85 2; 94 2; 95 5; 
96 2; 104 5; 105 8; 107 8; 123 999; 
124 62; 125 4; 
