Name: Proparacaine
InChIKey: KCLANYCVBBTKTO-UHFFFAOYSA-N
Formula: C16H26N2O3
MW: 294
ExactMass: 294.194344
CASNO: 499672
ID: 2017
Comment: DEA SWL
Num Peaks: 79
40 1; 41 22; 42 23; 43 19; 44 18; 
45 1; 51 4; 52 12; 53 13; 54 5; 
55 3; 56 35; 57 8; 58 48; 59 1; 
63 3; 64 2; 65 3; 68 1; 69 1; 
70 19; 71 45; 72 11; 73 1; 77 1; 
78 6; 79 13; 80 33; 81 3; 82 1; 
84 36; 86 999; 87 59; 88 1; 90 2; 
91 4; 92 2; 93 1; 94 1; 96 3; 
97 2; 99 276; 100 42; 101 2; 104 1; 
105 1; 106 5; 107 24; 108 30; 109 4; 
116 1; 118 3; 119 4; 120 1; 121 1; 
122 1; 124 1; 134 2; 135 11; 136 61; 
137 5; 148 3; 149 1; 150 6; 151 2; 
152 1; 153 12; 154 1; 162 1; 176 2; 
178 43; 179 14; 180 8; 181 1; 192 1; 
195 5; 207 1; 222 13; 223 1; 
