Name: Procarbazine
InChIKey: CPTBDICYNRMXFX-UHFFFAOYSA-N
Formula: C12H19N3O
MW: 221
ExactMass: 221.152812
CASNO: 671169
ID: 2020
Comment: AAFS / Probability Based Matching Data Base Entry
Num Peaks: 163
41 32; 42 27; 43 96; 44 63; 45 349; 
46 9; 47 4; 48 1; 49 14; 50 28; 
51 43; 52 10; 53 7; 54 4; 55 9; 
56 11; 57 24; 58 38; 59 14; 60 5; 
61 1; 62 9; 63 35; 64 23; 65 50; 
66 5; 67 9; 68 5; 69 13; 70 8; 
71 4; 72 4; 73 3; 74 9; 75 22; 
76 47; 77 125; 78 42; 79 30; 80 8; 
81 13; 83 9; 84 23; 85 5; 86 23; 
87 3; 88 5; 89 181; 90 446; 91 336; 
92 164; 93 22; 94 5; 95 6; 96 4; 
97 8; 98 3; 99 2; 100 2; 102 14; 
103 22; 104 81; 105 98; 106 146; 107 26; 
108 3; 109 4; 111 4; 112 3; 113 3; 
114 2; 115 8; 116 12; 117 59; 118 925; 
119 243; 120 26; 121 8; 122 7; 123 3; 
124 2; 125 1; 126 3; 127 4; 128 4; 
129 5; 130 14; 131 9; 132 74; 133 29; 
134 96; 135 272; 136 26; 138 2; 139 1; 
141 1; 142 1; 143 2; 144 1; 145 4; 
146 6; 148 26; 149 18; 150 1; 152 1; 
153 1; 154 1; 155 4; 156 1; 157 4; 
158 6; 159 10; 160 5; 161 39; 162 12; 
163 37; 164 12; 165 13; 166 3; 167 1; 
168 1; 171 2; 172 2; 173 3; 174 2; 
175 13; 176 57; 177 999; 178 145; 179 9; 
180 2; 181 3; 182 1; 183 2; 185 1; 
186 1; 187 3; 189 6; 190 13; 191 19; 
192 15; 193 4; 194 3; 196 1; 199 1; 
201 1; 204 3; 205 4; 206 2; 207 3; 
209 1; 210 1; 211 1; 212 2; 215 3; 
217 2; 218 3; 219 10; 220 4; 221 234; 
222 43; 223 4; 224 1; 
