Name: Progesterone
Synon: Pregn-4-ene-3,20-dione
InChIKey: RJKFOVLPORLFTN-UHFFFAOYSA-N
Formula: C21H30O2
MW: 314
ExactMass: 314.22458
CASNO: 57830
ID: 2025
Comment: AAFS / Probability Based Matching Data Base Entry
Num Peaks: 211
41 107; 42 26; 43 951; 44 26; 45 26; 
51 25; 52 19; 53 118; 54 20; 55 272; 
56 17; 57 25; 58 9; 59 6; 60 6; 
63 8; 64 4; 65 102; 66 42; 67 292; 
68 39; 69 95; 70 14; 71 154; 72 9; 
73 6; 77 353; 78 95; 79 527; 80 72; 
81 224; 82 38; 83 58; 84 97; 85 86; 
86 23; 89 9; 90 8; 91 590; 92 79; 
93 307; 94 114; 95 285; 96 58; 97 70; 
98 9; 99 10; 100 14; 102 8; 103 58; 
104 34; 105 334; 106 85; 107 290; 108 83; 
109 201; 110 48; 111 55; 112 7; 113 3; 
115 100; 116 32; 117 137; 118 38; 119 196; 
120 91; 121 214; 122 156; 123 203; 124 999; 
125 124; 126 14; 127 20; 128 61; 129 82; 
130 33; 131 167; 132 82; 133 265; 134 145; 
135 183; 136 91; 137 135; 138 48; 139 11; 
140 3; 141 33; 142 30; 143 67; 144 37; 
145 139; 146 60; 147 247; 148 82; 149 141; 
150 32; 151 12; 152 10; 153 13; 154 9; 
155 34; 156 15; 157 55; 158 25; 159 132; 
160 40; 161 68; 162 30; 163 43; 164 10; 
165 20; 166 7; 167 7; 168 7; 169 23; 
170 12; 171 56; 172 48; 173 148; 174 62; 
175 54; 176 27; 177 34; 178 17; 179 9; 
181 7; 182 5; 183 24; 184 15; 185 57; 
186 27; 187 111; 188 38; 189 31; 190 97; 
191 220; 192 33; 193 12; 195 6; 196 3; 
197 27; 198 11; 199 30; 200 25; 201 67; 
202 34; 203 16; 204 3; 205 5; 206 3; 
207 4; 209 8; 211 68; 212 22; 213 36; 
214 23; 215 33; 216 22; 217 7; 218 5; 
219 3; 222 12; 223 7; 225 32; 226 22; 
227 67; 228 41; 229 437; 230 112; 231 45; 
232 12; 237 4; 238 8; 239 25; 240 7; 
241 9; 242 4; 243 29; 244 131; 245 31; 
246 4; 252 3; 253 42; 254 39; 255 10; 
256 20; 257 54; 258 14; 263 7; 267 8; 
268 8; 269 6; 270 10; 271 44; 272 488; 
273 110; 274 11; 278 3; 281 25; 282 4; 
285 5; 286 11; 287 4; 296 41; 297 13; 
299 103; 300 21; 301 3; 314 785; 315 180; 
316 24; 
