Name: Xylometazoline
InChIKey: HUCJFAOMUPXHDK-UHFFFAOYSA-N
Formula: C16H24N2
MW: 244
ExactMass: 244.193949
CASNO: 526363
ID: 2031
Comment: AAFS / Probability Based Matching Data Base Entry
Num Peaks: 87
41 32; 42 45; 43 34; 44 48; 54 55; 
55 92; 57 34; 58 6; 59 41; 60 60; 
65 43; 67 44; 68 56; 69 37; 71 51; 
72 36; 73 67; 76 37; 77 72; 79 55; 
81 34; 82 17; 83 50; 84 35; 85 37; 
86 43; 87 40; 91 115; 92 21; 93 83; 
94 53; 97 35; 98 56; 99 86; 100 231; 
102 54; 103 7; 104 5; 105 67; 107 51; 
111 58; 112 36; 113 56; 114 43; 115 116; 
116 17; 117 99; 125 245; 126 999; 127 438; 
128 101; 129 96; 130 30; 131 80; 132 40; 
133 39; 141 49; 143 45; 144 62; 145 135; 
146 26; 156 65; 157 68; 158 96; 159 63; 
160 44; 162 37; 171 98; 172 72; 173 295; 
175 54; 185 49; 186 40; 187 43; 188 99; 
190 80; 199 69; 200 55; 202 39; 213 86; 
214 103; 227 48; 229 921; 230 204; 243 193; 
244 675; 245 159; 
