Name: Trifluoperazine
InChIKey: ZEWQUBUPAILYHI-UHFFFAOYSA-N
Formula: C21H24F3N3S
MW: 407
ExactMass: 407.164303
CASNO: 117895
ID: 2041
Comment: AAFS / Probability Based Matching Data Base Entry
Num Peaks: 231
41 150; 42 386; 43 749; 44 179; 45 68; 
46 11; 50 9; 51 20; 52 11; 53 25; 
54 35; 55 106; 56 211; 57 147; 58 288; 
59 48; 60 32; 61 8; 62 5; 63 18; 
64 6; 65 17; 66 6; 67 32; 68 40; 
69 106; 70 959; 71 314; 72 76; 73 38; 
74 8; 75 9; 76 8; 77 48; 78 13; 
79 20; 80 12; 81 39; 82 62; 83 88; 
84 109; 85 135; 86 22; 87 12; 88 3; 
89 8; 90 6; 91 21; 92 8; 93 11; 
94 10; 95 35; 96 49; 97 88; 98 136; 
99 89; 100 24; 101 15; 102 7; 103 5; 
104 5; 105 8; 106 8; 107 56; 108 103; 
109 34; 110 14; 111 94; 112 25; 113 999; 
114 116; 115 18; 116 3; 117 8; 118 4; 
119 7; 120 12; 121 12; 122 4; 123 12; 
124 15; 125 19; 126 16; 127 233; 128 66; 
129 17; 131 3; 132 5; 133 7; 135 7; 
136 9; 137 26; 138 10; 139 39; 140 15; 
141 341; 142 36; 143 161; 144 15; 145 10; 
146 5; 147 4; 149 21; 151 9; 152 19; 
153 12; 154 4; 156 15; 158 6; 159 4; 
163 3; 164 6; 165 6; 166 7; 167 13; 
168 7; 169 21; 170 8; 171 12; 172 4; 
173 4; 174 3; 175 4; 176 8; 178 10; 
179 8; 180 4; 182 7; 183 26; 184 58; 
185 31; 186 5; 187 4; 188 4; 189 4; 
190 4; 191 4; 192 3; 193 4; 194 5; 
195 6; 196 34; 197 27; 198 12; 199 6; 
201 13; 202 19; 203 10; 204 9; 205 4; 
206 5; 207 5; 208 7; 209 8; 210 10; 
211 15; 212 16; 213 11; 214 8; 215 12; 
216 7; 219 6; 220 8; 221 7; 222 29; 
223 12; 224 4; 225 4; 226 8; 227 6; 
228 20; 229 6; 230 4; 232 10; 234 18; 
235 15; 236 7; 237 5; 238 8; 239 12; 
240 11; 241 6; 242 3; 245 4; 246 17; 
247 32; 248 207; 249 36; 250 4; 251 6; 
252 4; 254 3; 256 4; 259 4; 260 13; 
261 10; 262 11; 264 4; 265 9; 266 178; 
267 86; 268 16; 269 4; 272 5; 274 7; 
278 8; 279 7; 280 99; 281 58; 282 12; 
283 4; 291 7; 292 27; 293 36; 294 44; 
295 10; 296 4; 297 4; 298 7; 306 111; 
307 57; 308 13; 309 4; 350 15; 351 3; 
363 9; 364 4; 368 3; 407 98; 408 29; 
409 9; 
