Name: Triethylamine
InChIKey: ZMANZCXQSJIPKH-UHFFFAOYSA-N
Formula: C6H15N
MW: 101
ExactMass: 101.1204495
CASNO: 121448
ID: 2042
Comment: DEA SWL / Sigma-Aldrich lot 016K1359
Num Peaks: 26
40 5; 41 22; 42 88; 43 14; 44 72; 
45 2; 51 1; 52 2; 53 1; 54 13; 
55 8; 56 63; 58 259; 59 9; 68 3; 
70 32; 71 13; 72 32; 73 1; 84 5; 
86 999; 87 67; 88 1; 100 86; 101 232; 
102 17; 
