Name: Triethanolamine
InChIKey: GSEJCLTVZPLZKY-UHFFFAOYSA-N
Formula: C6H15NO3
MW: 149
ExactMass: 149.105193
CASNO: 102716
ID: 2043
Comment: AAFS / Probability Based Matching Data Base Entry
Num Peaks: 47
41 64; 42 322; 43 163; 44 202; 45 498; 
46 13; 47 1; 51 1; 52 4; 53 1; 
54 22; 55 13; 56 830; 57 52; 58 59; 
59 7; 60 13; 67 2; 68 7; 69 3; 
70 51; 71 6; 72 37; 73 11; 74 782; 
75 44; 76 3; 82 2; 84 2; 85 3; 
86 27; 87 7; 88 55; 89 3; 100 18; 
101 1; 102 3; 103 1; 104 15; 116 2; 
118 999; 119 61; 120 5; 121 2; 130 2; 
148 1; 149 12; 
