Name: Tocainide
InChIKey: BUJAGSGYPOAWEI-UHFFFAOYSA-N
Formula: C11H16N2O
MW: 192
ExactMass: 192.126264
CASNO: 41708729
ID: 2049
Comment: AAFS
Num Peaks: 40
42 32; 44 999; 45 21; 46 3; 51 14; 
52 6; 53 5; 55 5; 57 4; 65 16; 
66 6; 71 4; 77 47; 78 14; 79 17; 
80 5; 89 6; 91 34; 92 5; 93 5; 
102 3; 103 10; 104 3; 105 27; 106 59; 
107 7; 116 4; 117 6; 118 13; 119 9; 
120 49; 121 141; 122 15; 132 11; 147 10; 
148 7; 149 6; 160 4; 192 48; 193 5; 
