Name: Tioconazole
Synon: Vagistat
InChIKey: QXHHHPZILQDDPS-UHFFFAOYSA-N
Formula: C16H13Cl3N2OS
MW: 386
ExactMass: 385.981417
CASNO: 65899732
ID: 2051
Comment: AAFS
Num Peaks: 94
45 41; 47 2; 50 5; 51 15; 52 11; 
53 7; 54 37; 55 2; 58 2; 62 2; 
63 5; 69 16; 70 12; 71 4; 73 18; 
74 6; 75 19; 76 2; 79 24; 81 125; 
82 12; 83 3; 84 5; 85 3; 87 16; 
89 8; 95 20; 96 13; 97 9; 99 5; 
101 9; 102 10; 103 4; 105 2; 109 5; 
110 2; 111 5; 113 2; 115 3; 123 5; 
125 2; 131 999; 132 71; 133 381; 134 24; 
135 19; 136 9; 137 13; 138 5; 139 4; 
140 2; 145 9; 146 2; 147 5; 148 2; 
149 5; 150 6; 151 2; 159 9; 160 3; 
161 6; 162 2; 163 2; 168 3; 171 4; 
172 31; 173 11; 174 21; 175 13; 176 9; 
177 116; 178 14; 179 6; 203 7; 205 3; 
212 53; 213 6; 214 19; 215 2; 240 3; 
242 2; 305 27; 306 3; 307 27; 308 3; 
309 9; 351 19; 352 4; 353 13; 354 2; 
355 2; 386 7; 388 7; 390 2; 
