Name: Ticlopidine
InChIKey: PHWBOXQYWZNQIN-UHFFFAOYSA-N
Formula: C14H14ClNS
MW: 263
ExactMass: 263.053549
CASNO: 55142853
ID: 2054
Comment: AAFS / ANTICOAGULANT / PLATELET INHIBITOR
Num Peaks: 121
41 11; 42 47; 43 1; 45 34; 46 1; 
47 2; 49 1; 50 10; 51 24; 52 7; 
53 7; 54 2; 57 2; 58 11; 59 4; 
60 1; 61 1; 62 6; 63 31; 64 7; 
65 38; 66 55; 67 9; 69 11; 70 6; 
71 9; 73 7; 74 3; 75 11; 76 5; 
77 27; 78 10; 79 6; 80 1; 81 1; 
82 4; 83 4; 84 40; 85 7; 86 3; 
87 2; 89 75; 90 22; 91 31; 92 5; 
93 2; 94 2; 95 5; 96 3; 97 12; 
98 1; 99 26; 100 1; 101 9; 102 2; 
103 1; 104 3; 105 5; 106 1; 110 999; 
111 106; 112 54; 113 5; 115 1; 116 1; 
117 3; 118 2; 121 4; 122 3; 123 13; 
125 211; 126 19; 127 71; 128 6; 134 2; 
135 4; 136 29; 137 6; 138 23; 139 3; 
140 2; 150 1; 151 6; 152 28; 153 4; 
154 4; 156 6; 165 2; 166 3; 167 1; 
168 1; 171 1; 184 2; 185 1; 191 1; 
194 1; 197 1; 199 1; 200 1; 204 2; 
221 2; 223 2; 224 1; 226 4; 228 44; 
229 7; 230 35; 231 6; 232 12; 233 2; 
234 2; 235 2; 236 1; 260 3; 262 228; 
263 424; 264 153; 265 159; 266 28; 267 9; 
268 1; 
