Name: Thonzylamine
InChIKey: GULNIHOSWFYMRN-UHFFFAOYSA-N
Formula: C16H22N4O
MW: 286
ExactMass: 286.179361
CASNO: 91850
ID: 2055
Comment: DEA SWL
Num Peaks: 103
40 2; 41 7; 42 44; 43 13; 44 7; 
45 3; 50 2; 51 12; 52 15; 53 23; 
54 6; 55 6; 56 20; 57 16; 58 999; 
59 36; 62 1; 63 6; 64 4; 65 14; 
66 3; 67 3; 68 2; 69 1; 70 6; 
71 115; 72 198; 73 9; 75 1; 76 2; 
77 57; 78 69; 79 29; 80 29; 81 7; 
89 16; 90 11; 91 42; 92 5; 93 3; 
94 5; 95 3; 96 2; 102 1; 103 2; 
104 2; 105 4; 106 17; 107 5; 108 29; 
109 3; 115 1; 116 1; 117 2; 118 3; 
119 3; 120 21; 121 741; 122 71; 123 4; 
132 3; 133 3; 134 7; 135 2; 136 4; 
143 1; 144 1; 145 1; 146 1; 147 1; 
148 9; 149 1; 155 1; 156 1; 157 1; 
158 1; 163 4; 164 1; 165 1; 169 1; 
170 9; 171 1; 182 1; 183 1; 184 9; 
185 2; 196 2; 198 3; 199 2; 200 2; 
211 1; 212 3; 213 2; 214 25; 215 47; 
216 51; 217 6; 226 3; 227 1; 228 5; 
229 1; 286 6; 287 1; 
