Name: Zaleplon
Synon: Sonata
InChIKey: HUNXMJYCHXQEGX-UHFFFAOYSA-N
Formula: C17H15N5O
MW: 305
ExactMass: 305.12766
CASNO: 151319345
ID: 2057
Comment: DEA SWL
Num Peaks: 148
40 5; 41 4; 43 387; 44 17; 45 2; 
50 13; 51 20; 52 10; 53 6; 54 1; 
57 1; 61 1; 62 11; 63 30; 64 32; 
65 16; 66 4; 67 4; 70 32; 71 1; 
73 2; 74 10; 75 28; 76 21; 77 37; 
78 10; 79 3; 83 1; 86 4; 87 8; 
88 15; 89 22; 90 14; 91 21; 92 10; 
93 2; 96 2; 98 1; 99 4; 100 8; 
101 37; 102 37; 103 26; 104 14; 105 5; 
106 1; 110 2; 111 1; 112 4; 113 17; 
114 21; 115 25; 116 20; 117 12; 118 14; 
119 42; 120 2; 123 2; 124 2; 125 2; 
126 8; 127 20; 128 32; 129 17; 130 42; 
131 10; 132 1; 137 1; 138 13; 139 13; 
140 35; 141 15; 142 20; 143 16; 144 16; 
145 4; 151 2; 152 6; 153 13; 154 17; 
155 31; 156 12; 157 4; 158 2; 163 2; 
164 11; 165 39; 166 16; 167 11; 168 8; 
169 11; 170 3; 171 2; 177 1; 178 4; 
179 6; 180 10; 181 12; 182 16; 183 8; 
184 2; 190 2; 191 9; 192 16; 193 29; 
194 23; 195 5; 196 7; 204 3; 205 9; 
206 8; 207 13; 208 8; 209 2; 217 7; 
218 61; 219 108; 220 56; 221 29; 222 8; 
230 1; 231 25; 232 19; 233 16; 234 23; 
235 20; 236 5; 244 1; 246 68; 248 999; 
249 168; 250 16; 251 1; 260 17; 262 278; 
263 317; 264 54; 265 4; 276 15; 277 32; 
278 10; 281 1; 287 8; 288 1; 290 2; 
305 281; 306 64; 307 7; 
