Name: Talbutal
InChIKey: BJVVMKUXKQHWJK-UHFFFAOYSA-N
Formula: C11H16N2O3
MW: 224
ExactMass: 224.116093
CASNO: 115446
ID: 2064
Comment: DEA SWL
Num Peaks: 84
40 32; 41 475; 42 39; 43 52; 44 67; 
45 2; 50 15; 51 39; 52 47; 53 158; 
54 46; 55 88; 56 40; 57 125; 58 5; 
63 5; 65 29; 66 25; 67 60; 68 37; 
69 45; 70 46; 71 6; 77 48; 78 32; 
79 94; 80 59; 81 65; 82 28; 83 30; 
84 14; 85 4; 91 14; 92 2; 93 11; 
94 22; 95 25; 96 159; 97 326; 98 52; 
99 4; 106 58; 107 18; 108 89; 109 33; 
110 18; 111 14; 112 39; 113 3; 121 2; 
122 28; 123 39; 124 279; 125 36; 126 7; 
128 5; 129 11; 135 5; 136 2; 138 11; 
139 5; 140 10; 141 51; 142 2; 149 4; 
150 13; 151 53; 152 18; 153 211; 154 34; 
155 38; 156 2; 165 15; 167 999; 168 773; 
169 85; 170 8; 181 22; 182 50; 183 65; 
184 6; 195 213; 196 23; 209 1; 
