Name: Terfenadine
InChIKey: GUGOEEXESWIERI-UHFFFAOYSA-N
Formula: C32H41NO2
MW: 471
ExactMass: 471.31373
CASNO: 50679088
ID: 2065
Comment: AAFS / H2-Beta antagonist
Num Peaks: 215
39 9; 40 1; 41 63; 42 57; 43 36; 
44 30; 45 2; 50 2; 51 13; 52 2; 
53 6; 54 10; 55 72; 56 42; 57 151; 
58 15; 60 6; 63 1; 65 4; 67 10; 
68 30; 69 46; 70 32; 71 10; 72 8; 
73 1; 74 35; 75 1; 76 4; 77 131; 
78 15; 79 18; 80 10; 81 6; 82 55; 
83 15; 84 101; 85 176; 86 23; 87 1; 
89 2; 90 3; 91 106; 92 9; 93 3; 
94 10; 95 6; 96 87; 97 64; 98 57; 
99 5; 100 2; 102 3; 103 12; 105 296; 
106 25; 107 5; 108 4; 109 3; 110 12; 
111 15; 112 22; 113 4; 114 3; 115 30; 
116 8; 117 34; 118 11; 119 15; 120 5; 
121 1; 122 6; 123 1; 124 13; 125 2; 
126 18; 127 10; 128 19; 129 37; 130 8; 
131 33; 132 25; 133 34; 134 4; 137 1; 
139 1; 141 7; 142 4; 143 18; 144 4; 
145 21; 146 11; 147 22; 148 19; 149 2; 
150 1; 151 2; 152 9; 153 4; 154 5; 
155 6; 156 3; 157 15; 158 5; 159 13; 
160 6; 161 55; 162 7; 163 9; 164 2; 
165 11; 166 3; 167 16; 168 2; 169 1; 
170 3; 171 3; 172 5; 173 9; 174 12; 
175 3; 176 1; 178 7; 179 4; 180 1; 
181 8; 182 5; 183 174; 184 29; 185 3; 
186 1; 187 5; 188 13; 189 10; 190 9; 
191 7; 192 2; 193 3; 194 1; 200 1; 
201 1; 202 13; 203 66; 204 19; 205 9; 
206 4; 207 2; 214 1; 215 2; 216 4; 
217 3; 218 4; 219 5; 220 1; 226 1; 
228 1; 230 15; 231 4; 232 3; 233 2; 
234 1; 235 1; 246 2; 248 16; 249 4; 
250 5; 251 1; 258 1; 260 2; 262 111; 
263 25; 264 12; 265 1; 266 16; 267 28; 
268 7; 270 9; 271 2; 272 1; 273 1; 
274 1; 277 2; 278 6; 280 999; 281 211; 
282 23; 283 1; 284 1; 286 4; 287 2; 
288 17; 289 11; 290 3; 291 1; 293 42; 
294 10; 295 2; 306 1; 308 4; 309 14; 
310 3; 338 1; 376 2; 394 1; 436 1; 
452 2; 454 2; 455 1; 456 3; 457 1; 
469 1; 470 16; 471 106; 472 36; 473 6; 
