Name: Testosterone Acetate
InChIKey: DJPZSBANTAQNFN-UHFFFAOYSA-N
Formula: C21H30O3
MW: 330
ExactMass: 330.219496
CASNO: 1045698
ID: 2066
Comment: DEA SWL
Num Peaks: 222
40 12; 41 152; 43 982; 44 28; 45 8; 
50 1; 51 16; 52 10; 53 78; 54 17; 
55 215; 56 13; 57 22; 58 4; 59 1; 
60 1; 61 3; 62 1; 63 5; 64 4; 
65 63; 66 26; 67 168; 68 19; 69 43; 
71 18; 72 1; 73 2; 75 1; 77 235; 
78 61; 79 346; 80 49; 81 161; 82 22; 
83 44; 84 7; 85 7; 86 5; 87 2; 
89 10; 91 429; 92 69; 93 255; 94 96; 
95 195; 96 41; 97 65; 98 8; 99 5; 
100 2; 102 7; 103 42; 104 35; 105 348; 
106 91; 107 257; 108 81; 109 208; 110 56; 
111 49; 112 6; 113 2; 115 68; 116 29; 
117 124; 118 53; 119 229; 120 91; 121 177; 
122 113; 123 234; 124 999; 125 109; 126 10; 
127 15; 128 56; 129 83; 130 33; 131 212; 
132 79; 133 274; 134 196; 135 116; 136 56; 
137 90; 138 24; 139 5; 140 2; 141 27; 
142 22; 143 71; 144 75; 145 181; 146 288; 
147 865; 148 214; 149 113; 150 22; 151 19; 
152 8; 153 12; 154 6; 155 26; 156 13; 
157 59; 158 48; 159 133; 160 58; 161 77; 
162 49; 163 34; 164 10; 165 47; 166 9; 
167 11; 168 7; 169 21; 170 13; 171 53; 
172 52; 173 61; 174 47; 175 33; 176 21; 
177 18; 178 4; 179 5; 180 2; 181 9; 
182 6; 183 20; 185 213; 186 62; 187 62; 
188 32; 189 22; 190 9; 191 2; 192 2; 
193 4; 194 1; 195 10; 196 7; 197 17; 
198 9; 199 64; 200 35; 201 33; 202 12; 
203 28; 204 7; 205 3; 206 14; 207 10; 
208 4; 209 11; 210 4; 211 17; 213 145; 
214 33; 215 16; 216 8; 217 5; 218 1; 
221 2; 222 1; 223 4; 224 4; 225 4; 
226 10; 227 64; 228 296; 229 79; 230 57; 
231 20; 232 13; 233 1; 234 1; 235 2; 
237 21; 238 6; 239 1; 241 11; 242 11; 
243 16; 245 91; 246 75; 247 13; 248 4; 
251 4; 252 21; 253 14; 255 45; 256 10; 
257 2; 259 4; 260 5; 268 1; 269 6; 
270 49; 271 21; 272 3; 273 24; 274 5; 
275 1; 281 1; 286 1; 288 209; 289 39; 
290 5; 291 1; 301 3; 302 12; 303 2; 
312 4; 313 3; 315 13; 316 3; 330 179; 
331 47; 332 6; 
