Name: Thebaine
InChIKey: FQXXSQDCDRQNQE-UHFFFAOYSA-N
Formula: C19H21NO3
MW: 311
ExactMass: 311.152143
CASNO: 115377
ID: 2071
Comment: DEA SWL
Num Peaks: 167
39 23; 40 29; 41 24; 42 318; 43 35; 
44 116; 50 15; 51 34; 52 11; 53 17; 
55 18; 56 18; 57 27; 58 112; 63 26; 
64 16; 65 21; 68 16; 70 34; 73 23; 
74 11; 75 19; 76 20; 77 40; 78 21; 
81 12; 82 40; 83 18; 88 21; 89 41; 
90 18; 91 33; 94 32; 95 11; 96 17; 
97 24; 99 25; 101 14; 102 45; 103 30; 
104 41; 105 14; 109 18; 110 30; 111 28; 
112 19; 113 18; 114 20; 115 71; 116 13; 
118 46; 119 16; 120 14; 124 17; 125 47; 
126 52; 127 60; 128 59; 129 19; 130 16; 
131 25; 132 41; 133 17; 134 18; 135 14; 
138 11; 139 142; 141 36; 142 16; 143 13; 
145 12; 146 12; 147 14; 148 35; 150 24; 
151 46; 152 178; 153 120; 154 41; 155 54; 
156 37; 163 34; 164 44; 165 166; 166 71; 
167 54; 168 49; 169 25; 170 13; 171 12; 
175 12; 176 31; 177 40; 178 41; 179 25; 
180 46; 181 80; 182 107; 183 54; 184 34; 
189 16; 191 32; 192 32; 193 28; 194 43; 
195 64; 196 59; 197 36; 198 25; 199 18; 
205 31; 206 14; 207 57; 208 42; 209 37; 
210 66; 211 148; 212 32; 213 11; 219 12; 
220 18; 221 43; 222 39; 223 95; 224 46; 
225 53; 226 60; 227 75; 228 12; 234 13; 
235 17; 236 42; 237 45; 238 34; 239 134; 
240 43; 241 104; 242 139; 243 23; 247 14; 
250 25; 251 29; 252 33; 253 74; 254 74; 
255 44; 264 35; 265 31; 266 21; 267 68; 
268 39; 269 14; 278 32; 279 13; 280 37; 
281 36; 282 46; 283 13; 294 22; 295 24; 
296 780; 297 138; 298 24; 310 31; 311 999; 
312 206; 313 30; 
