Name: Tetrazepam
InChIKey: IQWYAQCHYZHJOS-UHFFFAOYSA-N
Formula: C16H17ClN2O
MW: 288
ExactMass: 288.102942
CASNO: 10379143
ID: 2072
Comment: DEA SWL
Num Peaks: 214
40 18; 41 85; 42 54; 43 8; 44 8; 
49 3; 50 22; 51 53; 52 27; 53 50; 
54 12; 55 20; 56 7; 57 3; 58 7; 
61 5; 62 16; 63 59; 64 22; 65 56; 
66 21; 67 19; 68 8; 69 6; 70 7; 
71 8; 72 3; 73 19; 74 18; 75 66; 
76 43; 77 120; 78 40; 79 71; 80 17; 
81 18; 82 10; 84 19; 85 11; 86 13; 
87 24; 88 21; 89 78; 90 31; 91 53; 
92 14; 93 9; 94 8; 96 8; 97 24; 
98 32; 99 37; 100 25; 101 33; 102 57; 
103 30; 104 17; 105 17; 106 7; 108 14; 
109 10; 110 12; 111 51; 112 32; 113 40; 
114 46; 115 97; 116 52; 117 81; 118 22; 
119 3; 120 7; 122 11; 123 27; 124 24; 
125 59; 126 59; 127 87; 128 63; 129 26; 
130 25; 131 12; 132 5; 135 5; 136 24; 
137 32; 138 48; 139 59; 140 67; 141 50; 
142 32; 143 33; 144 12; 145 8; 146 9; 
147 12; 148 9; 149 33; 150 29; 151 64; 
152 76; 153 53; 154 101; 155 45; 156 21; 
157 8; 159 4; 161 6; 162 25; 163 36; 
164 63; 165 91; 166 74; 167 101; 168 92; 
169 47; 170 19; 171 9; 172 7; 173 4; 
174 8; 175 11; 176 20; 177 40; 178 44; 
179 67; 180 115; 181 122; 182 89; 183 44; 
184 20; 185 5; 186 5; 187 5; 188 23; 
189 20; 190 37; 191 32; 192 34; 193 56; 
194 63; 195 79; 196 84; 197 58; 198 20; 
199 8; 200 6; 201 23; 202 63; 203 69; 
204 57; 205 32; 206 28; 207 24; 208 25; 
209 42; 210 26; 211 16; 212 25; 213 8; 
214 21; 215 62; 216 51; 217 104; 218 61; 
219 48; 220 25; 221 11; 222 15; 223 57; 
224 47; 225 165; 226 31; 227 7; 228 18; 
229 26; 230 45; 231 128; 232 80; 233 59; 
234 27; 235 15; 236 3; 237 9; 238 4; 
241 3; 242 11; 243 23; 244 38; 245 112; 
246 45; 247 48; 248 13; 249 7; 251 17; 
253 999; 254 197; 255 19; 257 8; 258 27; 
259 180; 260 72; 261 63; 262 21; 263 5; 
273 22; 274 3; 275 5; 285 4; 287 334; 
288 392; 289 167; 290 134; 291 23; 
