Name: Tetracaine
InChIKey: GKCBAIGFKIBETG-UHFFFAOYSA-N
Formula: C15H24N2O2
MW: 264
ExactMass: 264.183779
CASNO: 94246
ID: 2073
Comment: DEA SWL
Num Peaks: 77
40 1; 41 17; 42 46; 43 23; 44 14; 
45 2; 50 7; 51 7; 52 3; 53 1; 
54 2; 55 6; 56 37; 58 999; 59 35; 
62 1; 63 6; 64 8; 65 28; 66 4; 
67 2; 71 621; 72 60; 73 2; 74 2; 
75 3; 76 25; 77 22; 78 16; 79 10; 
80 1; 86 1; 88 2; 89 2; 90 5; 
91 17; 92 58; 93 6; 94 2; 102 2; 
103 5; 104 43; 105 130; 106 23; 107 1; 
110 2; 115 1; 116 1; 117 8; 118 14; 
119 12; 120 19; 121 2; 130 4; 131 2; 
132 18; 133 6; 134 1; 144 1; 146 2; 
147 5; 148 8; 150 111; 151 11; 152 1; 
162 2; 164 4; 174 3; 176 178; 177 23; 
178 2; 192 2; 193 48; 194 7; 220 5; 
221 9; 222 1; 
