Name: Fentanyl ortho tolyl analog
Synon: N-(2-Methylphenyl)-N-[1-(2-phenylethyl)-4-piperidinyl]propanamide
Synon: 1-(2-phenylethyl)-4-(2-methyl-N-propananilido)piperidine
InChIKey: DPAJFOSXYXNYMA-UHFFFAOYSA-N
Formula: C23H30N2O
MW: 350
ExactMass: 350.235813
CASNO: 2141471
ID: 2092
Comment: DEA WRL
Num Peaks: 71
14 11; 15 35; 17 25; 18 30; 19 3; 
21 53; 23 18; 28 137; 29 277; 30 16; 
32 15; 36 15; 37 16; 41 24; 42 197; 
43 57; 44 121; 54 18; 55 53; 57 177; 
63 11; 65 180; 66 18; 67 30; 69 49; 
70 62; 75 19; 77 146; 78 50; 79 113; 
80 38; 82 18; 89 45; 91 388; 94 20; 
96 157; 97 24; 102 34; 103 61; 104 38; 
105 191; 106 67; 115 35; 117 94; 118 121; 
119 33; 127 14; 130 66; 131 53; 132 73; 
133 17; 134 32; 139 18; 143 8; 144 83; 
145 99; 146 125; 156 11; 160 943; 161 124; 
164 11; 165 7; 172 156; 173 56; 188 37; 
202 12; 203 503; 204 74; 216 304; 259 999; 
260 154; 
