Name: 17.alpha.-methyl-3.alpha.,17.beta.-dihydroxy-5.alpha.-androstane
InChIKey: QGKQXZFZOIQFBI-MCLROCFVSA-N
Formula: C20H34O2
MW: 306
ExactMass: 306.25588
CASNO: 641827
ID: 2102
Comment: DEA SWL
Num Peaks: 222
38 1; 39 90; 40 25; 41 523; 42 43; 
43 999; 44 43; 45 43; 46 1; 50 3; 
51 20; 52 14; 53 237; 54 68; 55 768; 
56 55; 57 329; 58 196; 59 74; 60 3; 
61 1; 62 1; 63 5; 64 3; 65 130; 
66 55; 67 816; 68 188; 69 297; 70 56; 
71 383; 72 92; 73 10; 74 5; 75 2; 
76 21; 77 390; 78 87; 79 884; 80 169; 
81 844; 82 135; 83 234; 84 32; 85 71; 
86 6; 87 3; 88 8; 89 14; 90 5; 
91 812; 92 165; 93 959; 94 258; 95 707; 
96 103; 97 158; 98 26; 99 15; 100 4; 
101 6; 102 6; 103 43; 104 36; 105 576; 
106 256; 107 984; 108 460; 109 514; 110 94; 
111 104; 112 15; 113 7; 114 3; 115 57; 
116 25; 117 128; 118 60; 119 360; 120 244; 
121 607; 122 326; 123 318; 124 120; 125 79; 
126 10; 127 10; 128 34; 129 52; 130 23; 
131 158; 132 52; 133 330; 134 177; 135 588; 
136 145; 137 83; 138 34; 139 13; 140 2; 
141 13; 142 12; 143 38; 144 22; 145 225; 
146 71; 147 510; 148 329; 149 355; 150 59; 
151 36; 152 12; 153 7; 154 2; 155 6; 
156 4; 157 28; 158 16; 159 160; 160 100; 
161 295; 162 198; 163 203; 164 67; 165 584; 
166 173; 167 28; 168 3; 169 3; 170 1; 
171 23; 172 12; 173 118; 174 60; 175 127; 
176 86; 177 40; 178 24; 179 12; 180 30; 
181 6; 182 1; 183 3; 184 1; 185 22; 
186 9; 187 64; 188 49; 189 60; 190 27; 
191 35; 192 17; 193 6; 194 5; 195 1; 
197 2; 198 1; 199 48; 200 13; 201 105; 
202 37; 203 60; 204 18; 205 15; 206 21; 
207 5; 211 1; 212 1; 213 61; 214 23; 
215 430; 216 124; 217 315; 218 72; 219 70; 
220 16; 221 3; 227 6; 228 17; 229 16; 
230 414; 231 282; 232 83; 233 290; 234 65; 
235 8; 236 1; 241 5; 242 2; 243 1; 
244 2; 245 6; 246 52; 247 15; 248 83; 
249 23; 250 3; 253 1; 254 1; 255 194; 
256 40; 257 6; 259 5; 260 1; 269 3; 
270 100; 271 28; 272 5; 273 193; 274 41; 
275 5; 286 2; 287 2; 288 76; 289 20; 
290 3; 291 247; 292 57; 293 6; 306 81; 
307 18; 308 2; 
