Name: Drostanolone
Synon: Dromostanolone
Synon: 17.beta.-hydroxy-2.alpha.-methyl-5.alpha.-androstan-3-one
InChIKey: IKXILDNPCZPPRV-MEJXYTHRSA-N
Formula: C20H32O2
MW: 304
ExactMass: 304.24023
CASNO: 58195
ID: 2113
Comment: DEA SWL
Num Peaks: 229
38 1; 39 70; 40 22; 41 414; 42 47; 
43 227; 44 39; 45 16; 50 2; 51 15; 
52 12; 53 194; 54 47; 55 597; 56 58; 
57 185; 58 22; 59 6; 60 3; 61 1; 
63 3; 64 2; 65 92; 66 38; 67 556; 
68 220; 69 297; 70 28; 71 87; 72 9; 
73 3; 74 16; 75 2; 76 1; 77 251; 
78 53; 79 533; 80 109; 81 558; 82 99; 
83 99; 84 31; 85 26; 86 5; 87 8; 
88 3; 89 4; 90 2; 91 481; 92 82; 
93 541; 94 198; 95 536; 96 104; 97 135; 
98 16; 99 8; 100 1; 101 3; 102 4; 
103 31; 104 21; 105 365; 106 98; 107 428; 
108 165; 109 296; 110 62; 111 111; 112 15; 
113 9; 114 2; 115 41; 116 18; 117 82; 
118 62; 119 279; 120 114; 121 405; 122 177; 
123 393; 124 132; 125 72; 126 9; 127 8; 
128 25; 129 36; 130 16; 131 117; 132 47; 
133 202; 134 75; 135 196; 136 181; 137 148; 
138 338; 139 49; 140 4; 141 10; 142 9; 
143 34; 144 20; 145 123; 146 46; 147 178; 
148 86; 149 243; 150 90; 151 113; 152 19; 
153 8; 154 8; 155 9; 156 4; 157 44; 
158 22; 159 130; 160 36; 161 164; 162 63; 
163 119; 164 35; 165 23; 166 21; 167 52; 
168 6; 169 5; 170 2; 171 42; 172 19; 
173 105; 174 63; 175 145; 176 106; 177 371; 
178 99; 179 66; 180 11; 181 2; 182 1; 
183 6; 184 2; 185 35; 186 9; 187 56; 
188 26; 189 88; 190 59; 191 35; 192 24; 
193 28; 194 4; 195 1; 197 9; 198 3; 
199 176; 200 59; 201 67; 202 21; 203 53; 
204 32; 205 19; 206 9; 207 1; 211 5; 
212 2; 213 13; 214 7; 215 25; 216 11; 
217 60; 218 89; 219 27; 220 16; 221 3; 
225 4; 226 1; 227 47; 228 10; 229 109; 
230 23; 231 95; 232 34; 233 23; 234 5; 
235 1; 239 1; 241 2; 242 6; 243 22; 
244 20; 245 999; 246 213; 247 112; 248 23; 
249 5; 253 13; 254 3; 255 1; 257 3; 
258 12; 259 4; 260 119; 261 89; 262 18; 
263 2; 268 1; 269 3; 270 1; 271 98; 
272 20; 273 2; 274 1; 275 10; 276 4; 
284 1; 285 3; 286 67; 287 16; 288 3; 
289 58; 290 12; 291 1; 302 9; 303 3; 
304 581; 305 128; 306 15; 307 1; 
