Name: Normethandrolone
Synon: 17.alpha.-methyl-17.beta.-hydroxyestr-4-en-3-one
InChIKey: ZXSWTMLNIIZPET-LUWCXRDKSA-N
Formula: C19H28O2
MW: 288
ExactMass: 288.208931
CASNO: 514614
ID: 2114
Comment: DEA SWL
Num Peaks: 219
38 3; 39 145; 40 31; 41 408; 42 35; 
43 929; 44 25; 45 41; 46 1; 50 7; 
51 51; 52 44; 53 248; 54 44; 55 487; 
56 27; 57 189; 58 193; 59 43; 60 3; 
62 2; 63 21; 64 14; 65 205; 66 80; 
67 475; 68 78; 69 127; 70 15; 71 750; 
72 110; 73 10; 74 4; 75 3; 76 8; 
77 545; 78 162; 79 739; 80 140; 81 345; 
82 52; 83 120; 84 14; 85 40; 86 9; 
87 6; 88 3; 89 18; 90 17; 91 999; 
92 182; 93 424; 94 111; 95 273; 96 61; 
97 108; 98 12; 99 14; 100 5; 101 8; 
102 15; 103 107; 104 78; 105 565; 106 155; 
107 504; 108 317; 109 400; 110 926; 111 116; 
112 10; 113 15; 114 7; 115 160; 116 66; 
117 288; 118 108; 119 363; 120 287; 121 322; 
122 243; 123 302; 124 55; 125 15; 126 4; 
127 32; 128 108; 129 158; 130 64; 131 228; 
132 92; 133 267; 134 143; 135 335; 136 64; 
137 24; 138 4; 139 5; 140 1; 141 59; 
142 44; 143 111; 144 53; 145 242; 146 104; 
147 215; 148 153; 149 127; 150 41; 151 14; 
152 11; 153 16; 154 11; 155 36; 156 31; 
157 89; 158 80; 159 191; 160 192; 161 355; 
162 163; 163 78; 164 11; 165 19; 166 9; 
167 13; 168 7; 169 29; 170 28; 171 74; 
172 58; 173 172; 174 86; 175 152; 176 37; 
177 8; 178 15; 179 38; 180 6; 181 13; 
182 6; 183 23; 184 30; 185 59; 186 81; 
187 114; 188 97; 189 70; 190 43; 191 7; 
192 1; 193 1; 194 1; 195 22; 196 9; 
197 57; 198 20; 199 93; 200 42; 201 43; 
202 38; 203 34; 204 8; 205 1; 209 3; 
210 14; 211 12; 212 70; 213 153; 214 73; 
215 367; 216 71; 217 77; 218 87; 219 16; 
220 2; 223 3; 224 2; 225 2; 226 24; 
227 22; 228 71; 229 20; 230 89; 231 542; 
232 96; 233 9; 234 1; 237 11; 238 2; 
241 10; 242 15; 243 3; 244 2; 245 8; 
246 21; 247 3; 251 1; 252 17; 253 6; 
254 1; 255 65; 256 13; 257 1; 259 1; 
260 8; 261 1; 269 3; 270 142; 271 31; 
272 4; 273 27; 274 5; 286 1; 287 3; 
288 708; 289 148; 290 18; 291 1; 
