Name: Trenbolone
Synon: 17.beta.-hydroxyestr-4,9,11-trien-3-one
InChIKey: MEHHPFQKXOUFFV-DFQJWARBSA-N
Formula: C18H22O2
MW: 270
ExactMass: 270.16198
CASNO: 10161338
ID: 2115
Comment: DEA SWL
Num Peaks: 212
38 4; 39 140; 40 21; 41 209; 42 17; 
43 136; 44 28; 45 22; 50 19; 51 110; 
52 42; 53 165; 54 14; 55 261; 56 14; 
57 136; 58 18; 59 5; 61 1; 62 14; 
63 97; 64 47; 65 188; 66 35; 67 107; 
68 10; 69 40; 70 16; 71 45; 72 4; 
73 1; 74 13; 75 34; 76 88; 77 430; 
78 122; 79 214; 80 26; 81 81; 82 53; 
83 374; 84 57; 85 43; 86 9; 87 16; 
88 18; 89 136; 90 45; 91 626; 92 76; 
93 64; 94 17; 95 46; 96 19; 97 36; 
98 52; 99 28; 100 7; 101 24; 102 81; 
103 148; 104 60; 105 328; 106 42; 107 65; 
108 12; 109 21; 110 20; 111 12; 112 24; 
113 66; 114 19; 115 816; 116 199; 117 250; 
118 54; 119 90; 120 18; 121 21; 122 6; 
123 7; 124 3; 125 4; 126 42; 127 273; 
128 877; 129 655; 130 135; 131 169; 132 44; 
133 61; 134 14; 135 12; 136 2; 137 3; 
138 4; 139 129; 140 42; 141 952; 142 468; 
143 348; 144 102; 145 121; 146 41; 147 71; 
148 26; 149 8; 150 17; 151 74; 152 413; 
153 598; 154 347; 155 793; 156 397; 157 212; 
158 71; 159 67; 160 73; 161 42; 162 42; 
163 24; 164 29; 165 472; 166 224; 167 499; 
168 286; 169 439; 170 285; 171 140; 172 44; 
173 78; 174 22; 175 6; 176 21; 177 19; 
178 137; 179 149; 180 77; 181 439; 182 184; 
183 315; 184 147; 185 228; 186 95; 187 41; 
188 163; 189 40; 190 13; 191 33; 192 19; 
193 73; 194 47; 195 290; 196 155; 197 334; 
198 846; 199 285; 200 81; 201 17; 202 8; 
203 8; 204 6; 205 8; 206 5; 207 21; 
208 18; 209 267; 210 245; 211 402; 212 109; 
213 400; 214 145; 215 23; 216 2; 217 1; 
218 2; 219 17; 220 4; 221 6; 222 6; 
223 112; 224 206; 225 76; 226 405; 227 112; 
228 19; 229 3; 233 3; 234 3; 235 5; 
236 3; 237 255; 238 51; 239 9; 240 2; 
241 47; 242 40; 243 7; 244 1; 250 1; 
251 26; 252 318; 253 67; 254 8; 255 18; 
256 4; 268 4; 269 6; 270 999; 271 199; 
272 24; 273 2; 
