Name: 5-Androstenedione
Synon: Androst-5-en-3,17-dione
InChIKey: SQGZFRITSMYKRH-UHFFFAOYSA-N
Formula: C19H26O2
MW: 286
ExactMass: 286.19328
CASNO: 571368
ID: 2116
Comment: DEA SWL
Num Peaks: 228
38 2; 39 123; 40 28; 41 350; 42 44; 
43 80; 44 5; 45 2; 50 7; 51 54; 
52 35; 53 229; 54 39; 55 560; 56 37; 
57 55; 58 7; 59 4; 60 1; 62 2; 
63 23; 64 16; 65 181; 66 60; 67 337; 
68 44; 69 83; 70 9; 71 26; 72 14; 
73 7; 74 2; 75 4; 76 10; 77 490; 
78 135; 79 710; 80 97; 81 260; 82 38; 
83 48; 84 8; 85 12; 86 11; 87 15; 
88 2; 89 20; 90 10; 91 989; 92 152; 
93 462; 94 234; 95 245; 96 80; 97 329; 
98 36; 99 7; 100 3; 101 8; 102 20; 
103 122; 104 87; 105 745; 106 200; 107 383; 
108 142; 109 211; 110 118; 111 47; 112 4; 
113 3; 114 3; 115 237; 116 94; 117 326; 
118 181; 119 500; 120 179; 121 230; 122 119; 
123 303; 124 280; 125 36; 126 6; 127 48; 
128 179; 129 221; 130 88; 131 371; 132 168; 
133 279; 134 127; 135 221; 136 139; 137 70; 
138 25; 139 12; 140 3; 141 104; 142 84; 
143 189; 144 113; 145 344; 146 108; 147 174; 
148 157; 149 206; 150 94; 151 31; 152 21; 
153 28; 154 17; 155 96; 156 55; 157 209; 
158 90; 159 502; 160 121; 161 129; 162 79; 
163 89; 164 35; 165 21; 166 6; 167 15; 
168 15; 169 86; 170 58; 171 197; 172 129; 
173 293; 174 118; 175 113; 176 63; 177 483; 
178 80; 179 15; 180 4; 181 16; 182 15; 
183 66; 184 44; 185 145; 186 75; 187 141; 
188 67; 189 53; 190 25; 191 11; 192 2; 
193 9; 194 3; 195 57; 196 18; 197 155; 
198 42; 199 53; 200 60; 201 126; 202 48; 
203 60; 204 13; 205 2; 206 1; 207 3; 
208 3; 209 29; 210 21; 211 110; 212 44; 
213 141; 214 36; 215 127; 216 67; 217 26; 
218 6; 219 1; 220 1; 221 2; 222 1; 
223 3; 224 11; 225 45; 226 29; 227 86; 
228 133; 229 296; 230 116; 231 142; 232 23; 
233 2; 235 20; 236 3; 237 1; 238 1; 
239 11; 240 16; 241 6; 242 39; 243 75; 
244 97; 245 16; 246 1; 249 1; 250 3; 
251 3; 252 1; 253 222; 254 42; 255 6; 
256 1; 257 20; 258 115; 259 20; 260 2; 
267 2; 268 46; 269 13; 270 4; 271 209; 
272 42; 273 4; 284 3; 285 5; 286 999; 
287 206; 288 24; 289 2; 
