Name: Bolandione
InChIKey: JRIZOGLBRPZBLQ-UHFFFAOYSA-N
Synon: Estr-4-en-3,17-dione
Synon: 4-Estrene-3,17-dione
Synon: 19-Norandrostenedione
Synon: 19-Norandrost-4-en-3,17-dione
Synon: 19-Nor-4-androstenedione
Formula: C18H24O2
MW: 272
ExactMass: 272.17763
CASNO: 734327
ID: 2119
Comment: DEA SWL
Num Peaks: 205
38 4; 39 190; 40 41; 41 378; 42 48; 
43 56; 44 7; 45 1; 50 12; 51 76; 
52 62; 53 268; 54 53; 55 409; 56 29; 
57 21; 58 8; 59 2; 60 1; 62 4; 
63 35; 64 30; 65 246; 66 98; 67 439; 
68 63; 69 58; 71 26; 72 11; 73 6; 
74 3; 75 5; 76 12; 77 586; 78 184; 
79 768; 80 163; 81 267; 82 57; 83 42; 
84 9; 85 15; 86 27; 88 2; 89 27; 
90 18; 91 999; 92 180; 93 348; 94 130; 
95 147; 96 63; 97 346; 98 31; 99 10; 
100 5; 101 21; 102 20; 103 113; 104 90; 
105 484; 106 212; 107 414; 108 190; 109 218; 
110 808; 111 104; 112 8; 113 6; 114 3; 
115 209; 116 81; 117 316; 118 128; 119 286; 
120 239; 121 155; 122 219; 123 151; 124 50; 
125 6; 126 4; 127 37; 128 132; 129 182; 
130 81; 131 248; 132 146; 133 202; 134 216; 
135 175; 136 59; 137 18; 138 3; 139 8; 
140 2; 141 83; 142 76; 143 121; 144 138; 
145 277; 146 149; 147 172; 148 196; 149 117; 
150 77; 151 38; 152 18; 153 17; 154 14; 
155 55; 156 126; 157 96; 158 94; 159 233; 
160 205; 161 88; 162 70; 163 65; 164 43; 
165 16; 166 4; 167 12; 168 10; 169 56; 
170 55; 171 63; 172 138; 173 182; 174 190; 
175 57; 176 44; 177 8; 178 3; 179 5; 
180 3; 181 13; 182 15; 183 95; 184 44; 
185 59; 186 519; 187 194; 188 94; 189 19; 
190 19; 191 3; 193 5; 194 6; 195 40; 
196 17; 197 79; 198 131; 199 53; 200 49; 
201 95; 202 57; 203 11; 204 1; 207 3; 
208 5; 209 4; 210 40; 211 41; 212 77; 
213 108; 214 26; 215 102; 216 113; 217 20; 
218 2; 221 25; 222 4; 223 1; 225 13; 
226 40; 227 12; 228 318; 229 91; 230 56; 
231 10; 232 1; 235 2; 236 14; 237 4; 
239 35; 240 7; 241 1; 242 1; 243 11; 
244 216; 245 37; 246 4; 253 4; 254 73; 
255 18; 256 2; 257 26; 258 5; 270 1; 
271 13; 272 973; 273 193; 274 22; 275 2; 
