Name: Isomethadone
Synon: 6-Dimethylamino-5-methyl-4,4-diphenyl-3-hexanone
InChIKey: IFKPLJWIEQBPGG-UHFFFAOYSA-N
Formula: C21H27NO
MW: 309
ExactMass: 309.209265
CASNO: 466400
ID: 2120
Comment: DEA SEL
Num Peaks: 59
39 2; 41 3; 42 23; 43 6; 44 5; 
51 2; 56 5; 57 29; 58 999; 59 36; 
63 2; 65 3; 70 4; 71 4; 76 1; 
77 4; 78 1; 84 4; 85 11; 86 7; 
89 2; 91 20; 92 1; 102 3; 103 3; 
105 3; 115 27; 116 7; 117 6; 126 1; 
127 1; 128 3; 129 3; 130 3; 131 1; 
139 2; 151 1; 152 6; 153 1; 163 2; 
164 3; 165 19; 166 4; 167 3; 176 2; 
177 1; 178 13; 179 8; 180 1; 189 3; 
190 1; 191 3; 192 1; 193 9; 194 5; 
195 1; 207 2; 208 2; 236 1; 
