Name: 5-Androstenediol
InChIKey: QADHLRWLCPCEKT-VHLPJZESSA-N
Synon: 5-Androstene-3.beta.,17.beta.-diol
Formula: C19H30O2
MW: 290
ExactMass: 290.22458
CASNO: 521175
ID: 2121
Comment: DEA SWL
Num Peaks: 207
40 32; 41 577; 42 39; 43 360; 44 76; 
45 36; 50 5; 51 44; 52 23; 53 225; 
54 36; 55 610; 56 39; 57 400; 58 43; 
59 11; 63 10; 64 10; 65 148; 66 54; 
67 417; 68 62; 69 126; 70 17; 71 57; 
72 8; 73 7; 74 2; 75 2; 76 9; 
77 431; 78 108; 79 717; 80 103; 81 437; 
82 59; 83 112; 84 29; 85 31; 86 6; 
87 3; 89 15; 90 2; 91 999; 92 201; 
93 576; 94 190; 95 361; 96 66; 97 136; 
98 21; 99 12; 100 3; 101 2; 102 13; 
103 96; 104 70; 105 933; 106 226; 107 774; 
108 167; 109 199; 110 69; 111 55; 112 10; 
113 1; 114 7; 115 165; 116 83; 117 353; 
118 147; 119 564; 120 338; 121 336; 122 85; 
123 121; 124 74; 125 78; 126 12; 127 38; 
128 156; 129 226; 130 108; 131 422; 132 137; 
133 404; 134 128; 135 195; 136 60; 137 52; 
138 22; 139 10; 141 80; 142 66; 143 384; 
144 116; 145 602; 146 145; 147 229; 148 83; 
149 73; 150 43; 151 112; 152 28; 153 25; 
154 14; 155 63; 156 30; 157 189; 158 120; 
159 292; 160 141; 161 371; 162 70; 163 70; 
164 46; 165 38; 166 20; 167 14; 168 12; 
169 71; 170 24; 171 121; 172 60; 173 135; 
174 52; 175 46; 176 21; 177 24; 178 108; 
179 273; 180 39; 181 10; 182 7; 183 76; 
184 24; 185 126; 186 45; 187 141; 188 31; 
189 24; 190 14; 191 17; 192 7; 195 3; 
196 2; 197 74; 198 21; 199 77; 200 25; 
201 32; 202 13; 203 26; 204 35; 205 285; 
206 48; 207 8; 208 3; 209 1; 211 31; 
212 16; 213 156; 214 31; 215 73; 216 25; 
217 27; 218 21; 219 9; 220 4; 224 1; 
225 13; 226 7; 227 10; 228 42; 229 33; 
230 67; 231 74; 232 19; 233 19; 237 1; 
239 190; 240 41; 241 5; 243 19; 244 18; 
245 2; 246 42; 247 16; 253 2; 254 22; 
255 11; 257 186; 258 35; 259 4; 261 1; 
262 3; 270 2; 271 3; 272 226; 273 49; 
274 4; 275 79; 276 16; 288 8; 290 292; 
291 62; 292 6; 
