Name: 4-Androstenedione
Synon: 4-androstene-3,17-dione
InChIKey: AEMFNILZOJDQLW-UHFFFAOYSA-N
Formula: C19H26O2
MW: 286
ExactMass: 286.19328
CASNO: 63058
ID: 2122
Comment: DEA SWL
Num Peaks: 218
40 47; 41 494; 42 69; 43 114; 44 15; 
45 3; 50 10; 51 77; 52 58; 53 309; 
54 56; 55 581; 56 47; 57 30; 58 12; 
59 7; 60 1; 62 2; 63 32; 64 23; 
65 256; 66 102; 67 519; 68 72; 69 66; 
70 4; 71 31; 72 8; 73 12; 74 3; 
75 5; 76 15; 77 634; 78 166; 79 888; 
80 142; 81 297; 82 45; 83 50; 84 6; 
85 14; 86 79; 87 37; 89 22; 90 9; 
91 999; 92 155; 93 468; 94 169; 95 224; 
96 88; 97 387; 98 39; 99 5; 100 3; 
101 14; 102 16; 103 108; 104 68; 105 540; 
106 191; 107 588; 108 183; 109 457; 110 123; 
111 70; 112 7; 113 3; 114 5; 115 198; 
116 69; 117 250; 118 90; 119 341; 120 143; 
121 258; 122 251; 123 306; 124 923; 125 106; 
126 11; 127 41; 128 142; 129 182; 130 68; 
131 247; 132 78; 133 222; 134 161; 135 159; 
136 114; 137 93; 138 23; 139 9; 140 1; 
141 72; 142 51; 143 115; 144 140; 145 285; 
146 147; 147 213; 148 566; 149 266; 150 282; 
151 50; 152 20; 153 23; 154 13; 155 50; 
156 37; 157 86; 158 56; 159 158; 160 76; 
161 91; 162 188; 163 168; 164 52; 165 22; 
166 7; 167 12; 168 10; 169 42; 170 56; 
171 68; 172 45; 173 193; 174 102; 175 58; 
176 22; 177 17; 178 10; 179 4; 180 3; 
181 12; 182 8; 183 73; 184 33; 185 58; 
186 69; 187 158; 188 116; 189 45; 190 30; 
191 7; 192 1; 193 3; 194 2; 195 8; 
196 6; 197 69; 198 32; 199 34; 200 95; 
201 314; 202 101; 203 22; 204 19; 205 4; 
207 5; 208 2; 209 22; 210 10; 211 62; 
212 50; 213 37; 214 19; 215 80; 216 74; 
217 14; 218 1; 221 2; 222 1; 223 4; 
224 11; 225 35; 226 33; 227 47; 228 13; 
229 100; 230 58; 231 10; 232 1; 235 17; 
236 2; 237 1; 239 8; 240 15; 241 10; 
242 108; 243 100; 244 536; 245 105; 246 11; 
249 1; 250 4; 251 2; 252 1; 253 32; 
254 5; 255 2; 257 21; 258 77; 259 15; 
260 1; 267 4; 268 34; 269 14; 270 2; 
271 78; 272 16; 284 2; 285 7; 286 732; 
287 148; 288 17; 289 2; 
