Name: Carbaryl
Synon: Sevin
Synon: 1-Napthyl N-methylcarbamate
Synon: .alpha.-Naphthyl methylcarbamate
InChIKey: CVXBEEMKQHEXEN-UHFFFAOYSA-N
Formula: C12H11NO2
MW: 201
ExactMass: 201.078979
CASNO: 63252
ID: 2127
Comment: DEA SFL1 / ChemService Lot # 418-13C
Num Peaks: 69
37 2; 38 8; 39 29; 40 2; 41 2; 
42 2; 43 2; 44 1; 45 1; 49 1; 
50 20; 51 23; 52 4; 53 4; 54 2; 
55 8; 56 35; 57 105; 58 59; 59 3; 
61 6; 62 25; 63 59; 64 9; 65 24; 
66 2; 71 2; 72 18; 73 2; 74 16; 
75 16; 76 8; 77 11; 78 1; 85 4; 
86 11; 87 17; 88 18; 89 65; 90 10; 
91 1; 98 4; 99 3; 100 2; 101 5; 
102 1; 109 1; 110 1; 111 1; 113 23; 
114 27; 115 602; 116 309; 117 26; 118 2; 
125 1; 126 13; 127 26; 128 6; 129 2; 
142 1; 143 21; 144 999; 145 109; 146 7; 
154 2; 157 2; 201 20; 202 2; 
