Name: 2-Methyl-3-phenylaziridine
InChIKey: NWAQGFVFBBSDAV-UHFFFAOYSA-N
Formula: C9H11N
MW: 133
ExactMass: 133.089149
CASNO: 7763715
ID: 2128
Comment: DEA SFL1
Num Peaks: 56
40 6; 41 8; 42 21; 43 1; 44 2; 
49 2; 50 34; 51 76; 52 23; 53 7; 
54 18; 55 20; 56 6; 58 1; 59 8; 
61 5; 62 21; 63 65; 64 23; 65 52; 
67 1; 73 1; 74 11; 75 10; 76 14; 
77 118; 78 51; 79 54; 80 5; 85 1; 
86 4; 87 4; 88 2; 89 111; 90 51; 
91 223; 92 23; 93 1; 101 1; 102 5; 
103 40; 104 180; 105 204; 106 23; 107 2; 
115 58; 116 14; 117 173; 118 136; 119 11; 
128 1; 130 32; 131 18; 132 999; 133 153; 
134 10; 
