Name: Famprofazone
Synon: 3H-Pyrazol-3-one, 1,2-dihydro-1-methyl-4-(1-methylethyl)-5-[[methyl(1-methyl-2-phenylethyl)amino]methyl]-2-phenyl-
InChIKey: GNUXVOXXWGNPIV-UHFFFAOYSA-N
Formula: C24H31N3O
MW: 377
ExactMass: 377.246712
CASNO: 22881352
ID: 2129
Comment: DEA SFL1 / Spectrum lot # XD0523
Num Peaks: 164
30 2; 39 11; 40 1; 41 38; 42 35; 
43 14; 44 22; 50 1; 51 9; 52 3; 
53 32; 54 6; 55 18; 56 38; 57 4; 
58 18; 63 4; 64 4; 65 38; 66 16; 
67 13; 68 10; 69 29; 70 10; 71 4; 
72 56; 73 3; 75 1; 76 3; 77 71; 
78 10; 79 75; 80 18; 81 76; 82 40; 
83 15; 84 3; 89 4; 90 4; 91 250; 
92 36; 93 27; 94 28; 95 43; 96 27; 
97 4; 98 2; 102 1; 103 7; 104 17; 
105 11; 106 20; 107 9; 108 25; 109 46; 
110 52; 111 5; 112 2; 115 9; 116 3; 
117 12; 118 14; 119 30; 120 10; 121 51; 
122 19; 123 7; 124 26; 125 4; 126 5; 
127 1; 128 4; 129 3; 130 12; 131 6; 
132 15; 133 6; 134 5; 136 128; 137 13; 
138 5; 139 1; 141 1; 142 2; 143 9; 
144 9; 145 6; 146 7; 147 13; 148 6; 
149 3; 150 1; 151 3; 152 2; 153 1; 
154 2; 155 2; 156 6; 157 10; 158 7; 
159 3; 160 4; 161 1; 162 23; 163 4; 
164 1; 165 3; 166 2; 167 2; 168 2; 
169 3; 170 19; 171 6; 172 22; 173 9; 
174 21; 175 4; 181 5; 182 2; 183 3; 
184 5; 185 8; 186 8; 187 32; 188 9; 
189 2; 194 1; 195 1; 196 1; 197 2; 
198 9; 199 12; 200 5; 201 14; 202 2; 
207 1; 210 4; 211 3; 212 1; 213 15; 
214 73; 215 26; 216 3; 226 1; 227 35; 
228 108; 229 249; 230 40; 231 4; 242 2; 
243 3; 244 5; 245 1; 258 3; 271 2; 
285 3; 286 999; 287 200; 288 20; 289 1; 
362 1; 376 1; 377 9; 378 4; 
