Name: Methylparaben
Synon: Benzoic acid, 4-hydroxy-, methyl ester
Synon: p-Hydroxybenzoic methyl ester
Synon: Paraben
InChIKey: LXCFILQKKLGQFO-UHFFFAOYSA-N
Formula: C8H8O3
MW: 152
ExactMass: 152.047344
CASNO: 99763
ID: 2130
Comment: DEA SFL1 / lot # 200, Heyden, Newport
Num Peaks: 55
37 9; 38 27; 39 120; 40 5; 41 4; 
42 2; 43 2; 44 1; 45 1; 46 4; 
49 2; 50 21; 51 14; 52 7; 53 37; 
54 3; 55 5; 59 5; 61 11; 62 29; 
63 64; 64 34; 65 183; 66 19; 67 3; 
69 1; 73 2; 74 9; 75 6; 76 2; 
77 3; 79 2; 80 3; 81 2; 90 1; 
91 2; 92 25; 93 190; 94 17; 95 8; 
107 5; 108 3; 109 5; 119 2; 120 7; 
121 999; 122 80; 123 15; 124 1; 135 2; 
136 2; 151 21; 152 328; 153 27; 154 3; 
