Name: 1-Benzyl-3-methylnaphthalene
InChIKey: UGOQULJNJVAQIJ-UHFFFAOYSA-N
Formula: C18H16
MW: 232
ExactMass: 232.1252
CASNO: 0
ID: 2131
Comment: DEA SFL1
Num Peaks: 98
41 3; 44 5; 50 10; 51 24; 52 5; 
53 2; 62 6; 63 23; 64 5; 65 24; 
74 7; 75 12; 76 14; 77 23; 78 5; 
82 4; 83 4; 86 4; 87 11; 88 18; 
89 34; 90 4; 91 45; 92 3; 94 9; 
95 37; 98 3; 99 4; 100 12; 101 84; 
102 32; 103 7; 108 101; 113 34; 114 48; 
115 126; 116 41; 126 12; 127 33; 128 55; 
129 22; 130 2; 137 2; 138 3; 139 47; 
140 10; 141 47; 142 6; 150 12; 151 24; 
152 67; 153 73; 154 50; 155 99; 156 13; 
162 4; 163 13; 164 9; 165 23; 166 5; 
174 3; 175 4; 176 14; 177 5; 178 16; 
179 8; 187 11; 188 10; 189 48; 190 12; 
191 10; 192 3; 200 15; 201 20; 202 242; 
203 85; 204 14; 205 4; 211 3; 212 3; 
213 42; 214 16; 215 434; 216 232; 217 759; 
218 143; 219 13; 224 6; 225 4; 226 36; 
227 24; 228 38; 229 49; 230 14; 231 219; 
232 999; 233 196; 234 19; 
