Name: 1-phenyl-4-phenethyliminopiperidine
InChIKey: ZEXBLYTXGNNXSZ-UHFFFAOYSA-N
Formula: C19H22N2
MW: 278
ExactMass: 278.178299
CASNO: 0
ID: 2133
Comment: DEA SFL1 / ALB-71-2
Num Peaks: 107
38 7; 39 81; 40 14; 41 84; 42 104; 
44 3; 50 31; 51 128; 52 39; 53 120; 
54 279; 55 93; 56 26; 62 4; 63 29; 
64 17; 65 129; 66 37; 67 75; 68 38; 
69 50; 70 43; 71 12; 74 8; 75 7; 
76 20; 77 533; 78 113; 79 137; 80 55; 
81 16; 82 754; 83 64; 84 144; 85 12; 
87 3; 89 24; 90 14; 91 406; 92 54; 
93 87; 94 147; 95 11; 96 4; 101 4; 
102 22; 103 116; 104 545; 105 999; 106 390; 
107 44; 108 7; 115 25; 116 14; 117 44; 
118 50; 119 47; 120 80; 121 7; 127 11; 
128 19; 129 10; 130 47; 131 20; 132 289; 
133 151; 134 11; 139 17; 142 6; 143 33; 
144 60; 145 20; 146 69; 147 5; 154 13; 
155 6; 156 121; 157 49; 158 245; 159 101; 
160 25; 161 3; 170 8; 171 7; 172 45; 
173 64; 174 644; 175 82; 176 4; 184 8; 
185 103; 186 161; 187 483; 188 69; 189 10; 
191 4; 199 4; 200 13; 201 4; 208 4; 
276 4; 277 174; 278 364; 279 64; 280 7; 
281 5; 282 5; 
