Name: 4-Propionyloxypiperidine
InChIKey: WKXUAPWRMDKVSA-UHFFFAOYSA-N
Formula: C8H15NO2
MW: 157
ExactMass: 157.110279
CASNO: 0
ID: 2134
Comment: DEA SFL1 / ALB-34-1
Num Peaks: 15
39 144; 41 84; 42 530; 43 149; 44 74; 
54 165; 55 338; 56 315; 57 441; 68 419; 
82 999; 83 853; 84 468; 100 86; 157 121; 
