Name: Diethyl sulfone
Synon: Ethyl sulfone
Synon: 1,1'-Sulphonylbisethane
InChIKey: MBDUIEKYVPVZJH-UHFFFAOYSA-N
Formula: C4H10O2S
MW: 122
ExactMass: 122.0401506
CASNO: 597353
ID: 2140
Comment: DEA SFL1
Num Peaks: 44
29 999; 30 21; 33 1; 35 1; 36 1; 
39 2; 40 6; 41 21; 42 9; 43 36; 
44 4; 45 8; 46 6; 47 11; 48 39; 
49 10; 50 15; 51 1; 55 5; 56 2; 
57 10; 58 6; 59 11; 60 1; 61 3; 
63 12; 64 7; 66 730; 67 13; 68 36; 
73 1; 75 6; 76 19; 77 18; 78 14; 
79 4; 82 1; 93 22; 94 355; 95 15; 
96 17; 122 79; 123 2; 124 3; 
