Name: Hexacosane
Synon: n-Hexacosane
InChIKey: HMSWAIKSFDFLKN-UHFFFAOYSA-N
Formula: C26H54
MW: 366
ExactMass: 366.422552
CASNO: 630013
ID: 2144
Comment: DEA SFL1
Num Peaks: 93
29 95; 30 1; 32 1; 39 25; 40 8; 
41 264; 42 75; 43 707; 44 23; 53 11; 
54 24; 55 255; 56 145; 57 999; 58 44; 
65 2; 66 1; 67 31; 68 30; 69 165; 
70 114; 71 678; 72 38; 73 1; 77 1; 
79 3; 81 14; 82 34; 83 127; 84 69; 
85 481; 86 32; 95 6; 96 21; 97 103; 
98 48; 99 148; 100 11; 109 1; 110 9; 
111 51; 112 37; 113 87; 114 7; 124 5; 
125 23; 126 29; 127 60; 128 5; 138 2; 
139 7; 140 25; 141 42; 142 4; 153 3; 
154 19; 155 31; 156 2; 167 1; 168 16; 
169 24; 170 2; 182 13; 183 19; 184 2; 
196 11; 197 15; 198 1; 207 1; 208 1; 
209 3; 210 9; 211 13; 212 1; 224 7; 
225 11; 238 6; 239 9; 252 5; 253 8; 
266 4; 267 8; 280 3; 281 6; 282 1; 
294 2; 295 7; 308 2; 309 5; 323 3; 
337 1; 367 16; 368 4; 
