Name: L-phenylalaninol
Synon: L-2-Amino-3-phenyl-1-propanol
InChIKey: STVVMTBJNDTZBF-UHFFFAOYSA-N
Formula: C9H13NO
MW: 151
ExactMass: 151.099714
CASNO: 3182954
ID: 2145
Comment: DEA SFL1
Num Peaks: 62
29 11; 30 42; 31 19; 36 2; 37 1; 
38 5; 39 36; 40 5; 41 18; 42 151; 
43 28; 44 3; 47 1; 50 14; 51 39; 
52 10; 53 6; 54 3; 55 1; 56 1; 
60 999; 61 30; 62 10; 63 25; 64 7; 
65 75; 66 7; 67 2; 73 1; 74 4; 
75 4; 76 5; 77 78; 78 18; 79 8; 
80 3; 86 1; 87 1; 89 21; 90 11; 
91 193; 92 36; 93 24; 94 3; 101 1; 
102 9; 103 103; 104 18; 105 6; 106 1; 
115 5; 116 3; 117 12; 118 27; 119 20; 
120 385; 121 37; 122 1; 130 2; 131 1; 
132 1; 133 2; 
