Name: 6-Chloropiperonyl alcohol
InChIKey: ADHYYNHCXPPVHQ-UHFFFAOYSA-N
Formula: C8H7ClO3
MW: 186
ExactMass: 186.008371
CASNO: 2591255
ID: 2146
Comment: DEA SFL1
Num Peaks: 129
29 78; 30 14; 31 58; 32 4; 35 2; 
36 7; 37 29; 38 48; 39 133; 40 11; 
41 9; 42 13; 43 7; 44 1; 45 2; 
46 9; 47 11; 48 3; 49 31; 50 108; 
51 78; 52 14; 53 133; 54 7; 55 28; 
56 3; 60 18; 61 97; 62 200; 63 286; 
64 71; 65 369; 66 38; 67 18; 68 3; 
69 26; 70 1; 71 5; 72 16; 73 91; 
74 70; 75 186; 76 31; 77 124; 78 21; 
79 12; 80 3; 81 8; 83 1; 84 27; 
85 27; 86 8; 87 17; 88 4; 89 10; 
90 14; 91 56; 92 96; 93 809; 94 66; 
95 24; 96 10; 97 71; 98 18; 99 297; 
100 46; 101 93; 102 14; 103 5; 104 2; 
105 4; 106 1; 107 1; 108 1; 109 3; 
110 9; 111 106; 112 12; 113 58; 114 5; 
115 11; 116 1; 117 1; 119 21; 120 9; 
121 103; 122 27; 123 137; 124 11; 125 31; 
126 3; 127 402; 128 72; 129 136; 130 22; 
131 3; 133 22; 134 3; 135 2; 138 4; 
139 45; 140 6; 141 16; 142 1; 143 1; 
149 193; 150 151; 151 642; 152 58; 153 12; 
155 130; 156 43; 157 86; 158 17; 159 14; 
160 1; 169 438; 170 44; 171 143; 172 13; 
173 1; 183 56; 184 18; 185 199; 186 999; 
187 149; 188 330; 189 29; 190 3; 
