Name: 2-Ethylnaphthalene
Synon: .beta.-Ethylnaphthalene
InChIKey: RJTJVVYSTUQWNI-UHFFFAOYSA-N
Formula: C12H12
MW: 156
ExactMass: 156.093901
CASNO: 939275
ID: 2147
Comment: DEA SFL1 / MSP-extraction internal standard
Num Peaks: 61
29 1; 37 1; 38 5; 39 30; 40 2; 
41 2; 50 26; 51 49; 52 8; 53 3; 
58 44; 61 4; 62 20; 63 70; 64 28; 
65 15; 66 1; 70 72; 74 26; 75 42; 
76 80; 77 61; 78 39; 85 2; 86 10; 
87 17; 88 7; 89 28; 90 2; 91 10; 
98 8; 99 6; 100 4; 101 14; 102 20; 
103 3; 110 2; 111 2; 113 13; 115 247; 
116 27; 117 1; 122 1; 126 34; 127 55; 
128 112; 129 32; 130 2; 137 2; 139 73; 
141 999; 142 131; 143 7; 150 9; 151 21; 
152 60; 153 56; 154 25; 156 486; 157 68; 
158 4; 
