Name: Lysergol
Synon: Ergoline-8.beta.-methanol, 9,10-didehydro-6-methyl-
Synon: Ergoline, 9,10-didehydro-8-hydroxymethyl-6-methyl-
Synon: LOL
InChIKey: BIXJFIJYBLJTMK-UHFFFAOYSA-N
Formula: C16H18N2O
MW: 254
ExactMass: 254.141913
CASNO: 602857
ID: 2149
Comment: DEA SFL1 / Aldrich
Num Peaks: 161
29 10; 30 8; 31 35; 32 1; 35 1; 
36 7; 38 6; 39 11; 40 3; 41 12; 
42 70; 43 13; 44 36; 45 2; 50 6; 
51 11; 52 5; 53 3; 54 2; 55 6; 
56 4; 57 9; 58 3; 59 1; 62 3; 
63 15; 64 3; 65 6; 67 1; 68 5; 
69 3; 70 9; 71 2; 73 6; 74 9; 
75 18; 76 19; 77 26; 78 6; 79 2; 
81 4; 82 21; 84 29; 86 4; 87 9; 
88 8; 89 23; 90 8; 91 5; 94 7; 
96 31; 97 18; 98 26; 99 7; 100 4; 
101 11; 102 22; 103 39; 104 22; 105 1; 
109 1; 110 104; 111 105; 113 9; 114 8; 
115 26; 116 9; 117 43; 118 30; 119 6; 
124 6; 125 12; 126 39; 127 111; 128 27; 
129 10; 130 12; 131 4; 135 1; 137 7; 
138 7; 139 47; 140 35; 141 17; 142 11; 
143 6; 144 8; 145 1; 147 2; 149 5; 
150 27; 151 68; 152 105; 153 86; 154 355; 
155 72; 156 13; 157 2; 161 3; 162 4; 
163 24; 164 43; 165 87; 166 66; 167 186; 
168 73; 169 14; 170 3; 175 1; 176 8; 
177 16; 178 51; 179 40; 180 253; 181 133; 
182 73; 183 16; 184 2; 189 3; 190 17; 
191 89; 192 634; 193 302; 194 110; 195 47; 
196 37; 197 13; 198 1; 203 5; 204 14; 
205 114; 206 70; 207 106; 208 46; 209 22; 
210 63; 211 27; 212 4; 217 3; 218 6; 
219 23; 220 78; 221 258; 222 72; 223 258; 
224 52; 225 5; 233 4; 234 4; 235 20; 
236 11; 237 10; 238 14; 239 13; 249 2; 
251 9; 252 14; 253 168; 254 999; 255 179; 
256 18; 
