Name: Allylbenzene
Synon: 1-Phenyl-2-propene
Synon: 1-Propene, 3-phenyl-
Synon: 2-Propenylbenzene
Synon: 3-Phenyl-1-propene
Synon: 3-Phenylpropene
InChIKey: HJWLCRVIBGQPNF-UHFFFAOYSA-N
Formula: C9H10
MW: 118
ExactMass: 118.0782504
CASNO: 300572
ID: 2151
Comment: DEA SFL1
Num Peaks: 45
37 7; 38 23; 39 140; 40 12; 41 22; 
43 3; 49 4; 50 59; 51 121; 52 29; 
53 8; 55 1; 58 73; 61 10; 62 34; 
63 95; 64 19; 65 148; 66 12; 73 4; 
74 24; 75 18; 76 18; 77 68; 78 70; 
79 5; 85 6; 86 10; 87 12; 88 5; 
89 79; 90 26; 91 391; 92 36; 101 1; 
102 23; 103 82; 104 8; 113 4; 115 402; 
116 82; 117 999; 118 735; 119 68; 120 3; 
