Name: 2,4-Dimethoxyphenyl-2-nitropropene
InChIKey: PCSLZZWXNFQQHN-VURMDHGXSA-N
Formula: C11H13NO4
MW: 223
ExactMass: 223.084458
CASNO: 0
ID: 2156
Comment: DEA SFL1
Num Peaks: 137
37 1; 38 8; 39 25; 40 17; 41 41; 
42 3; 43 26; 44 2; 45 2; 46 1; 
49 1; 50 18; 51 39; 52 14; 53 15; 
54 2; 55 7; 56 1; 57 3; 59 6; 
61 3; 62 14; 63 45; 64 18; 65 43; 
66 7; 67 4; 68 2; 69 26; 70 1; 
73 1; 74 13; 75 19; 76 28; 77 84; 
78 30; 79 33; 80 8; 81 19; 82 6; 
83 1; 85 2; 86 3; 87 5; 88 4; 
89 39; 90 25; 91 90; 92 26; 93 10; 
94 8; 95 14; 96 3; 97 2; 98 2; 
99 2; 101 8; 102 38; 103 63; 104 23; 
105 33; 106 21; 107 26; 108 15; 109 22; 
110 10; 111 7; 112 1; 113 4; 114 2; 
115 55; 116 17; 117 24; 118 41; 119 44; 
120 33; 121 116; 122 26; 123 10; 124 5; 
125 28; 126 5; 127 4; 128 3; 129 5; 
130 7; 131 46; 132 19; 133 73; 134 35; 
135 45; 136 12; 137 36; 138 15; 139 3; 
140 4; 141 1; 143 1; 144 7; 145 16; 
146 43; 147 369; 148 80; 149 99; 150 27; 
151 11; 152 3; 153 10; 154 1; 159 4; 
160 11; 161 316; 162 300; 163 46; 164 10; 
165 127; 166 98; 167 11; 168 1; 175 76; 
176 999; 177 166; 178 32; 179 4; 180 4; 
189 1; 190 10; 191 17; 192 18; 193 19; 
194 2; 206 3; 207 1; 208 2; 223 762; 
224 94; 225 11; 
