Name: N-Acetyl-2,5-dimethoxyphenethylamine
InChIKey: UEOXHEKRNAFXFS-UHFFFAOYSA-N
Formula: C12H17NO3
MW: 223
ExactMass: 223.120843
CASNO: 0
ID: 2157
Comment: DEA SFL1
Num Peaks: 87
30 179; 31 3; 36 3; 38 3; 39 28; 
40 4; 41 9; 43 143; 44 8; 45 1; 
50 8; 51 30; 52 14; 53 17; 54 7; 
55 12; 56 2; 59 2; 60 1; 62 3; 
63 15; 64 1; 65 67; 66 14; 67 9; 
68 2; 69 2; 72 28; 73 1; 74 2; 
75 4; 77 93; 78 68; 79 36; 80 5; 
81 2; 82 4; 86 1; 87 1; 89 16; 
91 123; 92 18; 93 17; 94 11; 95 4; 
103 6; 104 9; 105 17; 106 20; 107 15; 
108 32; 109 10; 110 1; 116 2; 117 4; 
118 6; 119 7; 121 278; 122 31; 123 29; 
124 3; 132 1; 133 12; 134 19; 135 19; 
137 76; 138 10; 139 1; 149 251; 150 41; 
151 138; 152 37; 153 3; 161 1; 162 2; 
164 999; 165 134; 166 17; 167 1; 176 1; 
180 7; 181 1; 192 1; 207 1; 223 197; 
224 28; 225 3; 
