Name: 4-Methoxyphenyl-2-propanone
InChIKey: WFWKNGZODAOLEO-UHFFFAOYSA-N
Formula: C10H12O2
MW: 164
ExactMass: 164.08373
CASNO: 0
ID: 2159
Comment: DEA SFL1
Num Peaks: 50
29 4; 32 3; 37 1; 38 8; 39 30; 
40 5; 41 12; 42 1; 43 117; 44 3; 
50 25; 51 62; 52 48; 53 16; 55 7; 
61 2; 62 11; 63 31; 64 11; 65 28; 
66 2; 67 2; 74 6; 75 5; 76 1; 
77 132; 78 133; 79 16; 80 1; 86 1; 
87 1; 89 33; 90 18; 91 72; 92 9; 
93 1; 102 1; 103 4; 105 8; 106 16; 
107 11; 118 1; 119 1; 121 999; 122 97; 
123 6; 133 1; 136 2; 164 109; 165 11; 
