Name: 4-Methyl-2,5-dimethoxyphenylnitropropene
InChIKey: CYDRNLOIYGNFSK-SNAWJCMRSA-N
Formula: C12H15NO4
MW: 237
ExactMass: 237.100108
CASNO: 0
ID: 2161
Comment: DEA SFL1
Num Peaks: 153
29 35; 30 44; 31 8; 37 3; 38 18; 
39 218; 40 60; 41 82; 42 8; 43 109; 
44 3; 45 13; 46 7; 50 52; 51 135; 
52 52; 53 107; 54 18; 55 45; 56 7; 
57 16; 58 8; 59 27; 60 1; 61 5; 
62 37; 63 138; 64 66; 65 225; 66 55; 
67 55; 68 45; 69 38; 70 8; 71 3; 
72 9; 73 3; 74 30; 75 45; 76 8; 
77 366; 78 154; 79 207; 80 31; 81 18; 
82 77; 83 18; 84 2; 85 9; 86 12; 
87 22; 88 31; 89 101; 90 17; 91 291; 
92 51; 93 87; 94 35; 95 34; 96 20; 
97 13; 98 30; 99 16; 100 2; 101 15; 
102 62; 103 231; 104 90; 105 236; 106 58; 
107 50; 108 33; 109 77; 110 17; 111 13; 
112 8; 113 9; 115 353; 116 102; 117 107; 
118 51; 119 50; 120 47; 121 75; 122 67; 
123 61; 124 42; 125 61; 126 14; 127 40; 
128 61; 129 44; 131 158; 132 136; 133 145; 
134 90; 135 135; 136 36; 137 120; 138 30; 
139 41; 140 5; 141 6; 142 2; 143 12; 
144 38; 145 147; 146 59; 147 157; 148 72; 
149 87; 150 37; 151 51; 152 62; 153 32; 
154 5; 155 1; 157 4; 158 14; 159 38; 
160 92; 161 854; 162 158; 163 92; 164 64; 
165 60; 166 22; 167 5; 173 11; 175 978; 
176 645; 177 150; 178 98; 179 67; 180 58; 
181 9; 188 2; 190 627; 191 124; 192 43; 
193 6; 194 8; 204 3; 206 115; 207 26; 
208 3; 220 4; 222 13; 223 1; 237 999; 
238 134; 239 17; 240 1; 
