Name: 1-(N-methylamino)-1-phenylpropane
InChIKey: YELGXBUYFOSFJM-UHFFFAOYSA-N
Formula: C10H15N
MW: 149
ExactMass: 149.120449
CASNO: 0
ID: 2163
Comment: DEA SFL1
Num Peaks: 62
29 11; 30 11; 32 1; 38 3; 39 24; 
40 3; 41 28; 42 262; 43 8; 44 7; 
50 13; 51 38; 52 12; 53 4; 54 3; 
56 14; 57 11; 59 10; 60 9; 62 4; 
63 15; 64 4; 65 25; 66 3; 67 1; 
68 1; 70 8; 72 44; 73 3; 74 4; 
75 4; 76 9; 77 65; 78 25; 79 8; 
80 1; 86 1; 87 1; 89 15; 91 102; 
92 10; 93 2; 102 5; 103 15; 104 32; 
105 5; 106 2; 115 21; 116 6; 117 25; 
118 49; 120 999; 121 92; 122 3; 130 2; 
131 1; 132 10; 133 3; 134 1; 146 2; 
148 7; 149 1; 
