Name: 2,5-Dimethoxy-4-n-propylthio-beta-nitrostyrene
InChIKey: WOACJZNZWFRPOA-AATRIKPKSA-N
Formula: C13H17NO4S
MW: 283
ExactMass: 283.08783
CASNO: 0
ID: 2164
Comment: DEA SFL1
Num Peaks: 216
29 10; 30 16; 31 1; 32 1; 37 1; 
38 5; 39 47; 40 7; 41 95; 42 12; 
43 88; 44 5; 45 46; 46 5; 47 9; 
49 1; 50 16; 51 32; 52 8; 53 35; 
54 4; 55 10; 56 2; 57 7; 58 9; 
59 15; 60 2; 61 4; 62 12; 63 39; 
64 10; 65 40; 66 12; 67 10; 68 6; 
69 49; 70 11; 71 17; 72 3; 73 13; 
74 9; 75 28; 76 26; 77 69; 78 28; 
79 35; 80 9; 81 7; 82 18; 83 10; 
84 10; 85 54; 86 8; 87 12; 88 9; 
89 40; 90 19; 91 60; 92 20; 93 23; 
94 17; 95 29; 96 21; 97 20; 98 8; 
99 8; 100 2; 101 8; 102 17; 103 26; 
104 13; 105 27; 106 13; 107 21; 108 46; 
109 41; 110 19; 111 18; 112 5; 113 5; 
114 3; 115 9; 116 9; 117 13; 118 29; 
119 43; 120 34; 121 84; 122 34; 123 34; 
124 15; 125 20; 126 7; 127 10; 128 4; 
129 6; 130 4; 131 31; 132 30; 133 67; 
134 45; 135 51; 136 36; 137 69; 138 27; 
139 27; 140 10; 141 6; 142 9; 143 6; 
144 3; 145 7; 146 8; 147 83; 148 49; 
149 47; 150 36; 151 53; 152 26; 153 32; 
154 10; 155 19; 156 3; 157 7; 158 3; 
159 4; 160 5; 161 43; 162 70; 163 55; 
164 33; 165 116; 166 29; 167 36; 168 16; 
169 11; 170 7; 171 8; 172 2; 173 2; 
174 3; 175 5; 176 9; 177 36; 178 79; 
179 302; 180 95; 181 41; 182 15; 183 37; 
184 5; 185 11; 186 1; 187 1; 188 2; 
189 2; 190 2; 191 20; 192 65; 193 56; 
194 221; 195 40; 196 20; 197 13; 198 5; 
199 7; 200 1; 203 1; 204 2; 205 2; 
206 6; 207 25; 208 15; 209 17; 210 11; 
211 7; 212 9; 213 5; 214 1; 220 2; 
221 10; 222 41; 223 9; 224 7; 225 10; 
226 74; 227 9; 228 4; 234 1; 235 1; 
236 384; 237 59; 238 29; 239 49; 240 40; 
241 22; 242 4; 243 1; 250 1; 251 36; 
252 13; 253 14; 254 15; 255 2; 256 1; 
265 1; 266 1; 267 2; 268 4; 269 2; 
281 2; 283 999; 284 158; 285 66; 286 8; 
287 1; 
