Name: 2,5-Dimethoxyphenylpropyl sulfide
InChIKey: GVEUBDQXASIPKX-UHFFFAOYSA-N
Formula: C11H16O2S
MW: 212
ExactMass: 212.087101
CASNO: 0
ID: 2165
Comment: DEA SFL1
Num Peaks: 124
29 3; 37 1; 38 3; 39 27; 40 1; 
41 35; 42 3; 43 22; 45 20; 46 2; 
47 4; 50 5; 51 19; 52 8; 53 22; 
54 7; 55 10; 57 5; 58 5; 59 4; 
61 2; 62 5; 63 17; 64 9; 65 27; 
66 6; 67 6; 68 3; 69 22; 70 14; 
71 10; 72 2; 73 6; 74 2; 75 6; 
76 3; 77 31; 78 10; 79 37; 80 6; 
81 6; 82 14; 83 15; 84 19; 85 27; 
86 2; 87 2; 91 5; 92 19; 93 13; 
94 10; 95 60; 96 45; 97 40; 98 9; 
99 8; 103 1; 105 3; 106 3; 107 17; 
108 42; 109 54; 110 16; 111 94; 112 23; 
113 3; 114 1; 115 1; 120 1; 121 7; 
122 11; 123 133; 124 55; 125 34; 126 23; 
127 77; 128 7; 129 4; 133 1; 134 2; 
135 5; 136 4; 137 42; 138 23; 139 17; 
140 31; 141 9; 142 2; 147 1; 148 1; 
149 3; 150 2; 151 8; 152 6; 153 31; 
155 999; 156 104; 157 59; 158 4; 163 2; 
164 8; 165 5; 166 5; 167 42; 168 180; 
169 46; 170 138; 171 14; 172 7; 179 1; 
180 2; 181 5; 182 8; 183 39; 184 5; 
185 2; 195 1; 197 64; 198 8; 199 3; 
212 993; 213 145; 214 64; 215 7; 
