Name: N-(1-phenyl-4-piperidyl)-N-benzylpropanamide
InChIKey: QEBCHXSAMGGWSG-UHFFFAOYSA-N
Formula: C21H26N2O
MW: 322
ExactMass: 322.204514
CASNO: 0
ID: 2171
Comment: DEA SFL1 / ALB-70-6
Num Peaks: 155
38 2; 39 44; 40 5; 41 32; 42 29; 
43 23; 44 23; 45 1; 50 7; 51 59; 
52 16; 53 30; 54 21; 55 212; 56 61; 
57 212; 58 9; 62 3; 63 13; 64 7; 
65 112; 66 11; 67 12; 68 15; 69 10; 
70 77; 71 6; 72 2; 73 1; 74 1; 
75 3; 76 13; 77 372; 78 61; 79 62; 
80 12; 81 3; 82 75; 83 117; 84 10; 
85 2; 86 3; 89 28; 90 22; 91 832; 
92 90; 93 76; 94 9; 95 1; 96 1; 
97 1; 98 3; 100 1; 102 4; 103 28; 
104 571; 105 542; 106 591; 107 52; 108 3; 
110 1; 112 19; 113 3; 115 19; 116 16; 
117 75; 118 102; 119 69; 120 134; 121 13; 
126 48; 127 7; 128 13; 129 7; 130 174; 
131 71; 132 753; 133 119; 134 47; 135 3; 
138 5; 139 1; 141 4; 142 4; 143 46; 
144 203; 145 55; 146 136; 147 32; 148 8; 
149 1; 154 3; 156 72; 157 32; 158 999; 
159 836; 160 562; 161 441; 162 71; 163 12; 
164 15; 165 4; 167 2; 170 1; 171 3; 
172 8; 173 17; 174 13; 175 20; 176 7; 
177 2; 180 1; 182 1; 185 1; 187 1; 
188 4; 189 6; 190 4; 193 2; 194 5; 
195 1; 201 8; 202 17; 203 6; 204 2; 
206 1; 208 1; 209 1; 210 1; 211 5; 
212 1; 213 1; 216 3; 217 5; 218 1; 
229 1; 230 6; 231 9; 234 1; 235 3; 
236 1; 237 12; 238 3; 249 1; 263 2; 
265 86; 266 18; 267 2; 304 1; 320 1; 
321 6; 322 367; 323 84; 324 9; 325 1; 
