Name: p-Fluorococaine
InChIKey: JRPRINGETIYVSV-UHFFFAOYSA-N
Formula: C17H20FNO4
MW: 321
ExactMass: 321.137636
CASNO: 0
ID: 2173
Comment: DEA SFL1
Num Peaks: 97
39 24; 40 7; 41 52; 42 206; 43 12; 
44 41; 45 10; 50 13; 51 13; 52 6; 
53 30; 54 22; 55 70; 56 33; 57 43; 
58 8; 59 41; 60 2; 65 20; 66 12; 
67 44; 68 51; 69 23; 70 24; 71 7; 
74 9; 75 67; 76 8; 77 17; 78 9; 
79 26; 80 29; 81 92; 82 999; 83 415; 
84 39; 85 3; 91 41; 92 9; 93 42; 
94 370; 95 304; 96 301; 97 120; 98 10; 
100 7; 104 2; 105 4; 106 7; 107 13; 
108 42; 109 9; 110 18; 111 3; 112 3; 
114 3; 115 2; 118 5; 119 28; 120 19; 
121 8; 122 81; 123 398; 124 43; 125 6; 
126 3; 133 3; 134 3; 135 5; 136 4; 
138 7; 140 19; 148 3; 150 19; 151 6; 
152 39; 153 9; 154 13; 155 25; 156 3; 
166 28; 167 4; 180 18; 181 43; 182 733; 
183 82; 184 9; 198 85; 199 8; 207 5; 
208 2; 262 4; 290 48; 291 10; 321 95; 
322 17; 323 3; 
