Name: Lysergic Acid TBDMS Derivative
InChIKey: IEPITDMEPPUJBV-UHFFFAOYSA-N
Formula: C22H30N2O2Si
MW: 382
ExactMass: 382.207655
CASNO: 0
ID: 2180
Comment: DEA SFL1 / MBSTFA/CHCl3 80C/10 minutes
Num Peaks: 205
29 22; 30 3; 31 3; 38 4; 39 14; 
40 4; 41 48; 42 46; 43 16; 44 51; 
45 29; 46 1; 47 17; 50 1; 51 5; 
53 5; 54 2; 55 16; 56 15; 57 50; 
58 14; 59 37; 60 9; 61 10; 62 1; 
63 4; 65 1; 67 2; 68 5; 69 2; 
70 4; 71 2; 72 6; 73 340; 74 38; 
75 165; 76 16; 77 16; 78 2; 82 4; 
83 3; 84 5; 85 7; 86 3; 87 3; 
88 5; 89 7; 90 4; 93 1; 94 6; 
96 1; 98 4; 99 9; 100 2; 101 7; 
102 8; 103 13; 104 3; 105 4; 110 19; 
111 17; 113 4; 114 6; 115 21; 116 4; 
117 1; 118 1; 119 1; 123 1; 124 2; 
125 5; 126 17; 127 50; 128 17; 129 60; 
130 15; 131 6; 132 2; 133 2; 134 1; 
135 2; 136 1; 137 1; 138 5; 139 19; 
141 122; 143 4; 144 4; 145 1; 147 2; 
148 1; 149 2; 150 22; 151 74; 152 116; 
153 82; 154 178; 155 38; 156 7; 161 1; 
163 11; 164 18; 165 31; 166 32; 167 107; 
168 34; 169 8; 170 5; 171 3; 175 2; 
176 4; 177 18; 178 180; 179 204; 180 199; 
181 115; 182 35; 183 11; 184 4; 190 20; 
191 78; 192 122; 193 54; 194 44; 195 55; 
196 87; 197 18; 203 5; 204 10; 205 122; 
206 108; 207 564; 208 250; 209 50; 210 8; 
211 5; 217 1; 218 6; 219 26; 220 116; 
221 456; 222 134; 223 268; 224 65; 225 12; 
226 1; 234 2; 235 11; 236 14; 237 11; 
238 19; 239 9; 240 4; 247 2; 248 5; 
249 11; 251 7; 252 11; 253 5; 254 6; 
255 3; 263 7; 264 32; 265 13; 266 8; 
267 7; 268 68; 269 19; 270 4; 279 3; 
280 9; 281 47; 282 624; 283 186; 284 47; 
285 8; 294 1; 295 4; 296 1; 307 2; 
310 1; 311 1; 321 2; 322 1; 323 11; 
324 83; 325 59; 326 19; 327 4; 337 1; 
338 8; 339 8; 340 2; 341 1; 355 1; 
367 19; 368 7; 369 1; 379 3; 380 6; 
381 70; 382 999; 383 303; 384 83; 385 15; 
