Name: Pseudoephedrine O-TBDMS Derivative
InChIKey: WIKYZIWJVSQTNP-UHFFFAOYSA-N
Formula: C16H29NOSi
MW: 279
ExactMass: 279.201841
CASNO: 0
ID: 2182
Comment: DEA SFL1 / free base/1.0 ml ch3cn/MTBSTFA/overnight/concentrated and diluted to ca. 1 mg/ml
Num Peaks: 109
39 5; 41 12; 42 11; 43 13; 44 3; 
45 12; 47 6; 50 1; 51 3; 52 1; 
53 1; 54 1; 55 3; 56 22; 57 8; 
58 999; 59 75; 60 4; 61 5; 63 2; 
65 5; 69 1; 70 2; 71 1; 72 1; 
73 129; 74 14; 75 51; 76 4; 77 18; 
78 5; 79 7; 83 1; 85 8; 86 2; 
88 95; 89 16; 90 10; 91 41; 92 3; 
93 1; 99 2; 100 6; 101 1; 102 2; 
103 9; 104 7; 105 25; 106 6; 107 4; 
114 1; 115 27; 116 9; 117 37; 118 11; 
119 3; 120 1; 121 2; 128 1; 129 1; 
130 20; 131 20; 132 23; 133 22; 134 3; 
135 10; 136 1; 137 2; 143 1; 144 4; 
145 5; 146 15; 147 7; 148 37; 149 81; 
150 11; 151 3; 161 2; 163 65; 164 17; 
165 9; 166 1; 173 1; 174 1; 175 2; 
176 2; 177 1; 189 1; 190 1; 191 30; 
192 6; 193 24; 194 4; 195 1; 205 1; 
206 8; 207 1; 220 2; 221 20; 222 122; 
223 23; 224 6; 233 1; 249 1; 264 19; 
265 4; 266 1; 278 1; 280 2; 
