Name: Pseudoephedrine bis-TBDMS Derivative
InChIKey: AMHDNOYWURUBQJ-UHFFFAOYSA-N
Formula: C22H43NOSi2
MW: 393
ExactMass: 393.288319
CASNO: 0
ID: 2183
Comment: DEA SFL1 / ch3cn/rt/MTBSTFA/overnight/concentrated and diluted to 1.0 mg/ml w/ chcl3
Num Peaks: 99
39 1; 41 5; 42 1; 43 2; 45 5; 
47 1; 51 1; 55 1; 56 5; 57 8; 
58 40; 59 22; 60 1; 61 1; 72 1; 
73 196; 74 17; 75 16; 76 1; 77 3; 
78 1; 79 1; 85 3; 86 4; 87 1; 
88 4; 89 1; 90 1; 91 6; 99 2; 
100 11; 101 2; 102 1; 103 2; 104 1; 
105 7; 106 2; 107 1; 114 7; 115 14; 
116 6; 117 10; 118 2; 119 5; 120 1; 
121 1; 124 1; 130 1; 131 9; 133 16; 
134 2; 135 5; 140 2; 142 1; 144 1; 
145 1; 146 6; 147 63; 148 16; 149 18; 
150 2; 156 4; 157 1; 158 1; 160 5; 
161 1; 162 1; 163 9; 164 3; 165 1; 
172 999; 173 168; 174 51; 175 6; 176 1; 
179 2; 188 4; 189 2; 190 3; 191 4; 
193 2; 202 1; 204 2; 205 1; 206 3; 
207 3; 220 4; 221 6; 222 4; 223 2; 
262 5; 263 1; 264 1; 336 19; 337 6; 
338 2; 378 7; 379 2; 392 1; 
