Name: Ephedrine O-TBDMS Derivative
InChIKey: WIKYZIWJVSQTNP-UHFFFAOYSA-N
Formula: C16H29NOSi
MW: 279
ExactMass: 279.201841
CASNO: 0
ID: 2184
Comment: DEA SFL1 / ch3cn/rt/MTBSTFA/overnight/concentrated and diluted to ca. 1 mg/ml in chcl3
Num Peaks: 109
39 5; 41 12; 42 11; 43 14; 44 3; 
45 13; 46 1; 47 5; 50 1; 51 3; 
52 1; 53 1; 54 1; 55 3; 56 23; 
57 6; 58 999; 59 71; 60 4; 61 5; 
63 2; 65 5; 69 1; 70 3; 71 1; 
73 135; 74 14; 75 49; 76 4; 77 18; 
78 5; 79 7; 83 1; 85 8; 86 2; 
88 71; 89 14; 90 9; 91 40; 92 3; 
93 1; 99 2; 100 5; 101 1; 102 2; 
103 8; 104 7; 105 24; 106 6; 107 4; 
114 1; 115 28; 116 9; 117 36; 118 10; 
119 3; 120 1; 121 3; 128 1; 129 1; 
130 15; 131 19; 132 22; 133 25; 134 3; 
135 10; 136 1; 137 2; 143 1; 144 4; 
145 5; 146 14; 147 7; 148 51; 149 82; 
150 11; 151 3; 161 2; 163 65; 164 17; 
165 10; 166 1; 173 1; 174 1; 175 3; 
176 1; 177 1; 189 1; 190 1; 191 21; 
192 4; 193 11; 194 1; 204 1; 205 1; 
206 7; 207 1; 220 2; 221 21; 222 120; 
223 23; 224 6; 233 1; 249 1; 264 24; 
265 5; 266 1; 278 1; 280 2; 
