Name: Norephedrine bis-TBDMS Derivative
InChIKey: OGBYDHAMEGBKFS-UHFFFAOYSA-N
Formula: C21H41NOSi2
MW: 379
ExactMass: 379.272669
CASNO: 0
ID: 2188
Comment: DEA SFL1
Num Peaks: 114
39 2; 41 9; 42 2; 43 5; 44 6; 
45 8; 46 1; 47 1; 55 1; 56 4; 
57 18; 58 7; 59 30; 60 4; 61 2; 
65 1; 66 4; 70 1; 71 1; 73 247; 
74 26; 75 20; 76 1; 77 3; 78 1; 
79 2; 83 1; 84 1; 85 4; 86 17; 
89 1; 90 1; 91 10; 92 1; 97 1; 
99 4; 100 25; 101 18; 102 16; 103 5; 
104 3; 105 6; 106 1; 107 2; 112 2; 
113 1; 114 1; 115 17; 116 5; 117 25; 
118 10; 119 3; 120 1; 121 4; 125 9; 
130 6; 131 9; 132 15; 133 27; 134 7; 
135 9; 136 1; 137 1; 142 3; 143 1; 
144 1; 145 3; 146 24; 147 71; 148 17; 
149 23; 150 3; 151 1; 158 999; 159 184; 
160 60; 161 6; 162 1; 163 11; 164 3; 
165 3; 174 9; 175 3; 176 3; 177 1; 
179 2; 188 7; 189 2; 190 5; 191 4; 
192 3; 193 2; 206 1; 207 5; 208 1; 
209 1; 221 14; 222 3; 223 2; 230 2; 
232 2; 233 1; 248 7; 249 2; 250 1; 
264 1; 266 2; 322 40; 323 11; 324 4; 
364 23; 365 7; 366 2; 378 1; 
