Name: Norpseudoephedrine O-TBDMS Derivative
InChIKey: BABBMLYDRQYLOS-UHFFFAOYSA-N
Formula: C15H27NOSi
MW: 265
ExactMass: 265.186192
CASNO: 0
ID: 2189
Comment: DEA SFL1
Num Peaks: 111
39 7; 40 1; 41 15; 42 9; 43 20; 
44 242; 45 29; 46 3; 47 9; 50 2; 
51 8; 52 2; 53 3; 54 1; 55 4; 
56 6; 57 14; 58 18; 59 66; 60 9; 
61 7; 62 1; 63 2; 65 3; 69 1; 
70 4; 71 1; 72 4; 73 441; 74 93; 
75 127; 76 13; 77 44; 78 8; 79 34; 
80 2; 83 2; 84 2; 85 8; 86 33; 
87 5; 88 3; 89 4; 90 3; 91 19; 
92 2; 93 1; 98 1; 99 5; 100 48; 
101 32; 102 26; 103 11; 104 4; 105 22; 
106 8; 107 19; 108 1; 114 1; 115 23; 
116 9; 117 25; 118 14; 119 6; 120 1; 
121 4; 130 2; 131 3; 132 10; 133 6; 
134 56; 135 14; 136 1; 137 2; 142 4; 
143 1; 145 2; 146 1; 147 2; 148 3; 
149 48; 150 8; 151 2; 158 999; 159 146; 
160 46; 161 5; 162 1; 163 20; 164 5; 
165 7; 166 1; 174 3; 175 2; 176 1; 
190 18; 191 53; 192 11; 193 4; 206 1; 
208 96; 209 17; 210 4; 221 32; 222 10; 
223 2; 232 3; 233 2; 234 1; 250 12; 
251 2; 
