Name: Amphetamine TBDMS Derivative
InChIKey: JIDATUBRKAEZAJ-UHFFFAOYSA-N
Formula: C15H27NSi
MW: 249
ExactMass: 249.191277
CASNO: 0
ID: 2191
Comment: DEA SFL1
Num Peaks: 97
39 6; 41 13; 42 4; 43 11; 44 14; 
45 13; 46 4; 51 2; 53 1; 55 2; 
56 3; 57 12; 58 11; 59 87; 60 10; 
61 3; 63 2; 65 13; 66 1; 69 1; 
70 4; 71 1; 73 276; 74 37; 75 11; 
76 1; 77 4; 78 2; 79 1; 83 2; 
84 2; 85 4; 86 30; 87 4; 88 1; 
89 3; 91 72; 92 7; 93 1; 95 1; 
96 3; 97 1; 98 1; 99 3; 100 139; 
101 36; 102 28; 103 5; 104 2; 105 4; 
107 3; 114 1; 115 16; 116 3; 117 9; 
118 3; 119 5; 120 2; 121 26; 122 3; 
123 1; 130 1; 131 4; 132 2; 133 5; 
134 4; 135 11; 136 2; 142 5; 143 1; 
145 4; 146 2; 147 4; 148 5; 149 12; 
150 2; 158 999; 159 174; 160 57; 161 5; 
162 4; 173 3; 174 5; 175 19; 176 8; 
177 2; 178 1; 190 4; 192 252; 193 46; 
194 12; 195 1; 234 58; 235 12; 236 3; 
248 7; 249 1; 
