Name: 6-Chloropiperonal
Synon: 6-Chloro-3,4-methylenedioxybenzaldehyde
InChIKey: VRNADRCOROWLJC-UHFFFAOYSA-N
Formula: C8H5ClO3
MW: 184
ExactMass: 183.992722
CASNO: 15952611
ID: 2192
Comment: DEA SFL1
Num Peaks: 94
29 98; 30 9; 31 8; 32 4; 35 3; 
36 10; 37 44; 38 31; 39 26; 40 1; 
41 2; 42 12; 43 2; 44 1; 45 1; 
46 4; 47 5; 48 5; 49 37; 50 80; 
51 28; 52 1; 53 61; 54 2; 55 20; 
56 1; 60 22; 61 137; 62 295; 63 282; 
64 26; 65 40; 66 5; 67 1; 69 20; 
71 4; 72 21; 73 41; 74 26; 75 21; 
76 2; 77 17; 78 48; 79 22; 83 1; 
84 6; 85 10; 86 4; 87 7; 88 1; 
89 4; 90 20; 91 34; 92 11; 93 3; 
96 3; 97 126; 98 26; 99 133; 100 17; 
101 31; 102 3; 107 2; 108 1; 109 1; 
110 1; 111 3; 113 12; 114 1; 115 4; 
119 34; 120 36; 121 5; 125 98; 126 12; 
127 34; 128 5; 129 1; 133 1; 137 1; 
148 3; 149 3; 150 1; 153 40; 155 251; 
156 38; 157 80; 158 11; 183 999; 184 765; 
185 388; 186 251; 187 22; 188 2; 
