Name: N-Trichloroacetylmethamphetamine
InChIKey: WIACPBAPANEXFR-UHFFFAOYSA-N
Formula: C12H14Cl3NO
MW: 293
ExactMass: 293.014097
CASNO: 0
ID: 2202
Comment: DEA SFL1 / methamphetamine base std/TCA/rt/45/CHCl3 minutes/washed w/ H2O
Num Peaks: 143
35 2; 36 6; 37 1; 38 4; 39 29; 
40 4; 41 31; 42 134; 43 4; 47 4; 
48 2; 49 3; 50 8; 51 25; 52 7; 
53 3; 54 6; 55 6; 56 144; 57 53; 
58 50; 59 2; 61 1; 62 5; 63 32; 
64 6; 65 77; 66 5; 68 1; 70 2; 
74 3; 75 5; 76 18; 77 38; 78 22; 
79 10; 80 1; 82 13; 83 9; 84 11; 
85 6; 86 3; 87 2; 88 12; 89 28; 
90 12; 91 429; 92 133; 93 5; 94 32; 
95 1; 96 2; 98 1; 101 1; 102 8; 
103 21; 104 22; 105 5; 106 5; 109 1; 
110 19; 111 3; 112 44; 113 3; 114 23; 
115 49; 116 19; 117 180; 118 250; 119 160; 
120 10; 121 30; 122 1; 123 4; 124 7; 
125 4; 126 5; 127 2; 128 3; 129 6; 
130 10; 131 10; 132 27; 133 8; 134 7; 
137 1; 138 9; 139 3; 140 6; 141 2; 
142 3; 143 1; 144 4; 145 2; 146 5; 
147 9; 148 10; 149 2; 158 20; 159 3; 
160 13; 161 1; 162 4; 165 2; 166 5; 
167 20; 168 71; 169 16; 170 44; 171 4; 
172 7; 173 1; 174 6; 176 39; 177 3; 
178 18; 179 1; 180 6; 182 1; 186 2; 
187 1; 188 2; 194 6; 196 2; 202 999; 
203 60; 204 950; 205 57; 206 309; 207 18; 
208 33; 209 2; 222 5; 223 1; 224 2; 
230 1; 258 8; 259 1; 260 5; 262 1; 
293 3; 295 3; 297 1; 
