Name: 2-Phenylpropionaldehyde
Synon: Hydratropaldehyde
Synon: .alpha.-Formylethylbenzene
Synon: .alpha.-Methyl-.alpha.-toluic aldehyde
Synon: .alpha.-Phenylpropionaldehyde
Synon: Cumene aldehyde
Synon: 2-Phenylpropanal
InChIKey: IQVAERDLDAZARL-UHFFFAOYSA-N
Formula: C9H10O
MW: 134
ExactMass: 134.073165
CASNO: 93538
ID: 2203
Comment: DEA SFL1 / aldrich
Num Peaks: 44
37 1; 38 4; 39 24; 40 2; 41 2; 
49 1; 50 23; 51 58; 52 13; 53 8; 
55 1; 61 3; 62 9; 63 25; 64 4; 
65 19; 66 2; 73 1; 74 12; 75 9; 
76 9; 77 166; 78 50; 79 161; 80 10; 
85 1; 86 2; 87 2; 89 16; 90 6; 
91 82; 92 6; 98 1; 101 2; 102 15; 
103 132; 104 35; 105 999; 106 107; 107 5; 
115 3; 118 1; 134 150; 135 15; 
