Name: Methoxyolivetol
InChIKey: MWWIDYNYLZQEQP-UHFFFAOYSA-N
Formula: C12H18O2
MW: 194
ExactMass: 194.13068
CASNO: 0
ID: 2215
Comment: DEA SFL1 / synthesized by tdm
Num Peaks: 84
38 1; 39 17; 41 21; 42 4; 43 8; 
44 6; 45 2; 50 4; 51 11; 52 5; 
53 14; 54 1; 55 16; 56 1; 57 2; 
59 1; 62 1; 63 7; 64 2; 65 22; 
66 17; 67 19; 68 3; 69 24; 70 1; 
75 1; 76 1; 77 52; 78 15; 79 25; 
80 6; 81 10; 82 2; 85 1; 89 3; 
90 4; 91 30; 92 4; 93 6; 94 24; 
95 19; 96 2; 99 1; 103 9; 105 10; 
106 6; 107 48; 108 23; 109 37; 110 7; 
111 2; 115 2; 117 1; 118 2; 119 7; 
120 7; 121 11; 122 6; 123 25; 124 11; 
125 12; 131 2; 133 5; 135 2; 136 4; 
137 169; 138 999; 139 87; 140 7; 147 2; 
149 1; 150 6; 151 102; 152 115; 153 11; 
163 4; 164 1; 165 15; 166 3; 177 1; 
179 4; 194 248; 195 30; 196 2; 
