Name: N,N-Diethylbenzylamine
Synon: N-Benzyldiethylamine
Synon: Benzenemethanamine, N,N-diethyl-
Synon: Benzylamine, N,N-diethyl-
Synon: Benzyldiethylamine
Synon: Diethylbenzylamine
Synon: N-Benzyl-N-ethylethanamine
InChIKey: ZWRDBWDXRLPESY-UHFFFAOYSA-N
Formula: C11H17N
MW: 163
ExactMass: 163.1361
CASNO: 772543
ID: 2217
Comment: DEA SFL1
Num Peaks: 63
38 1; 39 20; 40 2; 41 12; 42 25; 
43 3; 44 4; 46 1; 50 6; 51 17; 
52 5; 53 2; 54 3; 55 2; 56 26; 
57 5; 58 14; 62 3; 63 16; 64 4; 
65 84; 66 6; 70 6; 71 1; 72 8; 
73 1; 74 9; 75 2; 76 2; 77 19; 
78 5; 79 12; 82 4; 86 84; 87 5; 
89 22; 90 12; 91 999; 92 84; 93 3; 
103 3; 104 8; 105 6; 106 3; 115 1; 
116 1; 117 4; 118 7; 119 1; 120 2; 
130 1; 132 2; 134 4; 146 6; 148 489; 
149 55; 150 2; 160 4; 161 1; 162 20; 
163 122; 164 15; 165 1; 
