Name: 1-Benzyl-4-phenyliminopiperidine
InChIKey: ASFHELCYFCRKSF-UHFFFAOYSA-N
Formula: C18H20N2
MW: 264
ExactMass: 264.16265
CASNO: 0
ID: 2224
Comment: DEA SFL1 / from 1-benzyl-4-phenyliminopiperidine synthesis
Num Peaks: 128
36 1; 37 1; 38 3; 39 27; 40 4; 
41 21; 42 132; 43 6; 44 4; 50 13; 
51 69; 52 12; 53 12; 54 15; 55 6; 
56 15; 57 3; 59 1; 62 3; 63 18; 
64 8; 65 116; 66 14; 67 4; 68 3; 
69 1; 70 2; 74 3; 75 5; 76 14; 
77 235; 78 28; 79 9; 80 8; 81 3; 
82 4; 83 2; 89 28; 90 20; 91 999; 
92 96; 93 25; 94 4; 95 1; 96 1; 
97 1; 102 3; 103 21; 104 61; 105 68; 
106 21; 107 4; 109 1; 115 15; 116 12; 
117 123; 118 150; 119 26; 120 7; 127 6; 
128 9; 129 9; 130 110; 131 35; 132 77; 
133 23; 134 71; 135 7; 141 1; 142 4; 
143 34; 144 335; 145 216; 146 137; 147 15; 
148 3; 152 1; 154 2; 155 2; 156 13; 
157 10; 158 24; 159 14; 160 7; 161 1; 
165 2; 166 1; 167 3; 168 1; 169 3; 
170 12; 171 46; 172 326; 173 135; 174 14; 
175 1; 180 2; 181 1; 182 1; 185 3; 
186 5; 187 29; 188 4; 193 3; 194 2; 
205 1; 206 4; 207 2; 208 8; 209 1; 
218 1; 219 1; 220 9; 221 2; 222 6; 
223 1; 232 1; 233 4; 234 9; 235 3; 
236 2; 249 2; 261 5; 262 26; 263 997; 
264 494; 265 76; 266 7; 
