Name: Benzyl propionate
Synon: Propanoic acid, phenylmethyl ester
InChIKey: VHOMAPWVLKRQAZ-UHFFFAOYSA-N
Formula: C10H12O2
MW: 164
ExactMass: 164.08373
CASNO: 122634
ID: 2226
Comment: DEA SFL1 / from reaction of 1-benzyl-4-phenyliminopiperidine and propionyl chloride
Num Peaks: 28
36 50; 38 24; 39 69; 40 16; 41 17; 
44 39; 50 35; 51 92; 52 22; 57 323; 
63 52; 64 19; 65 170; 77 153; 78 37; 
79 157; 83 24; 85 17; 89 120; 90 258; 
91 999; 92 88; 105 49; 107 114; 108 958; 
109 75; 164 290; 165 41; 
