Name: 1-Benzyl-4-hydroxypiperidine
Synon: N-Benzyl-4-hydroxypiperidine
Synon: 1-Benzyl-4-piperidinol
Synon: 1-(Phenylmethyl)-4-piperidinol
Synon: 4-Piperidinol, 1-benzyl-
Synon: 1-Benzyl-piperidin-4-ol
InChIKey: BPPZXJZYCOETDA-UHFFFAOYSA-N
Formula: C12H17NO
MW: 191
ExactMass: 191.131014
CASNO: 4727724
ID: 2229
Comment: DEA SFL1 / Aldrich Std
Num Peaks: 93
38 2; 39 25; 40 3; 41 23; 42 61; 
43 21; 44 57; 45 6; 50 6; 51 18; 
52 6; 53 8; 54 12; 55 27; 56 60; 
57 14; 58 6; 62 3; 63 18; 64 6; 
65 106; 66 7; 67 3; 68 3; 69 4; 
70 9; 71 10; 72 2; 74 1; 75 1; 
76 2; 77 16; 78 8; 79 7; 80 3; 
81 1; 82 38; 83 3; 84 5; 85 1; 
86 1; 87 1; 89 28; 90 17; 91 999; 
92 136; 93 8; 94 1; 95 1; 96 8; 
98 3; 100 254; 101 15; 102 1; 103 4; 
104 25; 105 12; 106 6; 107 6; 112 2; 
113 5; 114 268; 115 22; 116 3; 117 14; 
118 25; 119 8; 120 14; 121 1; 129 1; 
130 4; 131 3; 132 50; 133 7; 134 9; 
135 4; 144 5; 145 1; 146 62; 147 8; 
158 2; 160 2; 162 1; 170 1; 172 27; 
173 8; 174 26; 175 3; 188 4; 190 300; 
191 323; 192 42; 193 3; 
