Name: 1-Propionyl-4-anilinopiperidine
InChIKey: NRDICUQEXUBRLT-UHFFFAOYSA-N
Formula: C14H20N2O
MW: 232
ExactMass: 232.157563
CASNO: 0
ID: 2234
Comment: DEA SFL1 / reaction of N-phenyl-4-piperidinamine and propionyl chloride
Num Peaks: 133
37 1; 38 4; 39 37; 40 7; 41 29; 
42 109; 43 19; 44 30; 45 2; 46 1; 
50 9; 51 49; 52 14; 53 21; 54 37; 
55 111; 56 228; 57 464; 58 104; 59 5; 
62 2; 63 11; 64 10; 65 67; 66 34; 
67 20; 68 113; 69 17; 70 20; 71 11; 
72 51; 73 4; 74 6; 75 3; 76 8; 
77 187; 78 32; 79 16; 80 20; 81 6; 
82 205; 83 999; 84 305; 85 74; 86 28; 
87 3; 89 6; 90 10; 91 105; 92 86; 
93 306; 94 39; 95 2; 96 5; 97 2; 
98 13; 99 5; 100 21; 101 49; 102 13; 
103 15; 104 103; 105 30; 106 100; 107 12; 
108 1; 110 7; 111 4; 112 20; 113 15; 
114 9; 115 20; 116 9; 117 107; 118 320; 
119 137; 120 163; 121 19; 122 3; 124 19; 
125 2; 126 17; 127 12; 128 5; 130 338; 
131 154; 132 978; 133 123; 134 14; 135 1; 
138 6; 139 128; 140 89; 141 8; 142 2; 
143 6; 144 22; 145 16; 146 130; 147 104; 
148 16; 149 2; 156 3; 157 3; 158 37; 
159 16; 160 7; 161 15; 162 2; 171 1; 
172 1; 173 7; 174 5; 175 368; 176 50; 
177 3; 185 3; 186 3; 187 2; 188 1; 
199 1; 202 1; 203 25; 204 3; 213 1; 
214 4; 215 3; 217 11; 218 1; 230 3; 
232 782; 233 126; 234 12; 
