Name: N-benzylpropanamide
InChIKey: ZFNAETKJDHAQEN-UHFFFAOYSA-N
Formula: C10H13NO
MW: 163
ExactMass: 163.099714
CASNO: 10264127
ID: 2243
Comment: DEA SFL1 / ALB 26-3
Num Peaks: 76
37 2; 38 7; 39 54; 40 5; 41 15; 
42 8; 43 6; 44 9; 45 1; 49 1; 
50 38; 51 101; 52 31; 53 10; 54 4; 
55 11; 56 15; 57 198; 58 12; 59 3; 
61 1; 62 10; 63 39; 64 11; 65 140; 
66 9; 67 1; 72 3; 73 1; 74 11; 
75 9; 76 14; 77 155; 78 64; 79 125; 
80 10; 82 2; 84 1; 85 3; 86 6; 
87 1; 89 40; 90 19; 91 999; 92 87; 
93 4; 102 1; 103 12; 104 85; 105 61; 
106 955; 107 333; 108 28; 109 1; 115 2; 
116 3; 117 7; 118 6; 119 6; 120 1; 
130 3; 131 4; 132 13; 133 10; 134 13; 
135 1; 144 3; 145 3; 146 2; 148 24; 
149 2; 160 1; 162 39; 163 767; 164 91; 
165 6; 
