Name: 1-benzoyl-4-piperidone
InChIKey: NZAXGZYPZGEVBD-UHFFFAOYSA-N
Formula: C12H13NO2
MW: 203
ExactMass: 203.094628
CASNO: 24686780
ID: 2253
Comment: DEA SFL1 / Aldrich Std lot 10503CB
Num Peaks: 74
37 1; 38 3; 39 11; 40 4; 41 11; 
42 38; 43 9; 44 1; 49 1; 50 39; 
51 143; 52 13; 53 5; 54 10; 55 24; 
56 38; 57 2; 62 1; 63 3; 64 2; 
65 2; 66 1; 68 1; 69 1; 70 10; 
71 1; 73 1; 74 10; 75 12; 76 27; 
77 500; 78 41; 79 2; 80 1; 81 1; 
82 1; 89 1; 90 2; 91 8; 92 4; 
98 28; 99 1; 102 1; 103 10; 104 49; 
105 999; 106 82; 107 5; 117 2; 118 5; 
119 5; 120 5; 128 4; 129 1; 130 3; 
131 2; 132 15; 133 5; 134 17; 135 1; 
145 2; 146 65; 147 15; 148 2; 158 1; 
160 6; 161 1; 174 83; 175 64; 176 7; 
202 138; 203 111; 204 13; 205 1; 
