Name: 1-(3-phenylpropyl)-4-piperidone
InChIKey: YNDYIKOBCFEDAW-UHFFFAOYSA-N
Formula: C14H19NO
MW: 217
ExactMass: 217.146665
CASNO: 0
ID: 2254
Comment: DEA SFL1 / ALB 43-11
Num Peaks: 70
38 1; 39 15; 40 2; 41 20; 42 175; 
43 36; 44 3; 50 4; 51 13; 52 4; 
53 4; 54 14; 55 32; 56 27; 57 11; 
58 1; 62 1; 63 7; 64 2; 65 31; 
66 2; 67 1; 68 3; 69 6; 70 24; 
71 3; 74 1; 75 1; 76 1; 77 22; 
78 11; 79 10; 80 1; 82 7; 83 4; 
84 45; 85 5; 89 7; 90 2; 91 114; 
92 11; 96 5; 97 4; 98 5; 99 1; 
102 3; 103 12; 104 11; 105 6; 110 2; 
112 999; 113 71; 114 4; 115 15; 116 3; 
117 31; 118 12; 119 1; 124 1; 125 3; 
126 2; 130 1; 131 1; 139 2; 146 1; 
160 1; 174 1; 216 3; 217 41; 218 6; 
