Name: N-benzyl-N-phenylpropanamide
InChIKey: WCXMLNUTGXEHDN-UHFFFAOYSA-N
Formula: C16H17NO
MW: 239
ExactMass: 239.131014
CASNO: 0
ID: 2258
Comment: DEA SFL1 / ALB 24-4
Num Peaks: 91
38 3; 39 34; 40 2; 41 10; 42 1; 
43 1; 50 13; 51 72; 52 12; 53 3; 
54 1; 55 6; 56 3; 57 111; 58 4; 
62 4; 63 27; 64 16; 65 140; 66 10; 
74 3; 75 4; 76 9; 77 238; 78 33; 
79 12; 80 1; 87 1; 88 1; 89 27; 
91 999; 92 82; 93 11; 94 1; 101 1; 
102 2; 103 4; 104 103; 105 34; 106 123; 
107 16; 108 1; 115 6; 116 2; 117 3; 
118 3; 119 8; 120 4; 126 1; 127 4; 
128 4; 129 1; 130 2; 131 1; 132 17; 
133 5; 134 2; 135 1; 139 1; 140 1; 
141 1; 146 3; 148 6; 150 1; 151 4; 
152 14; 153 7; 154 6; 155 1; 160 1; 
161 2; 162 1; 164 1; 165 8; 166 6; 
167 32; 168 5; 178 2; 179 2; 180 35; 
181 14; 182 296; 183 533; 184 74; 185 4; 
210 2; 237 1; 238 8; 239 193; 240 34; 
241 4; 
