Name: 1-benzyl-4-propionyloxypiperidine
InChIKey: XVEBPXDYXUJARN-UHFFFAOYSA-N
Formula: C15H21NO2
MW: 247
ExactMass: 247.157228
CASNO: 0
ID: 2259
Comment: DEA SFL1 / ALB 3
Num Peaks: 91
38 1; 39 20; 40 2; 41 20; 42 51; 
43 7; 44 13; 45 1; 50 3; 51 11; 
52 4; 53 7; 54 10; 55 37; 56 12; 
57 76; 58 3; 62 1; 63 10; 64 3; 
65 81; 66 5; 67 7; 68 4; 69 3; 
70 2; 71 1; 73 1; 74 1; 75 2; 
76 1; 77 10; 78 6; 79 4; 80 8; 
82 578; 83 34; 84 4; 89 20; 90 15; 
91 999; 92 120; 93 6; 94 2; 95 5; 
96 33; 97 2; 98 2; 100 2; 103 3; 
104 17; 105 8; 106 3; 112 3; 113 3; 
114 26; 115 4; 116 1; 117 10; 118 21; 
119 4; 120 3; 128 1; 129 2; 130 4; 
131 4; 132 19; 133 3; 134 2; 144 13; 
145 4; 146 21; 147 2; 156 2; 158 14; 
159 2; 160 1; 162 1; 170 81; 171 10; 
172 182; 173 109; 174 149; 175 18; 176 1; 
188 1; 190 38; 191 5; 246 12; 247 56; 
248 9; 
