Name: 1-phenethyl-4-propionyloxypiperidine
InChIKey: GOSSUQADQNIAMB-UHFFFAOYSA-N
Formula: C16H23NO2
MW: 261
ExactMass: 261.172878
CASNO: 0
ID: 2261
Comment: DEA SFL1 / ALB 8
Num Peaks: 83
39 15; 40 1; 41 33; 42 145; 43 14; 
44 38; 45 1; 50 3; 51 12; 52 4; 
53 9; 54 12; 55 31; 56 27; 57 295; 
58 11; 59 1; 62 1; 63 5; 64 1; 
65 25; 66 2; 67 17; 68 13; 69 18; 
70 12; 71 2; 74 1; 75 2; 76 2; 
77 47; 78 17; 79 41; 80 8; 81 2; 
82 10; 83 2; 84 34; 85 4; 86 3; 
87 1; 89 5; 90 3; 91 65; 92 7; 
93 1; 94 7; 95 11; 96 148; 97 16; 
98 2; 102 4; 103 35; 104 26; 105 131; 
106 11; 108 1; 112 22; 114 279; 115 22; 
116 2; 117 6; 118 1; 127 1; 128 1; 
129 1; 130 7; 131 2; 132 6; 134 1; 
144 1; 146 2; 160 1; 168 2; 170 999; 
171 104; 172 9; 184 1; 186 7; 187 1; 
188 31; 189 4; 204 2; 
