Name: N-(phenylmethyl)-1-phenylmethyl-4-piperidinamine
InChIKey: ZZWIYXVNVZCOSL-UHFFFAOYSA-N
Formula: C19H24N2
MW: 280
ExactMass: 280.193949
CASNO: 0
ID: 2263
Comment: DEA SFL1 / ALB 47-3
Num Peaks: 97
38 1; 39 16; 40 1; 41 15; 42 41; 
43 7; 44 9; 50 3; 51 13; 52 5; 
53 5; 54 9; 55 36; 56 40; 57 5; 
58 3; 62 1; 63 9; 64 3; 65 83; 
66 5; 67 4; 68 7; 69 4; 70 16; 
71 1; 74 1; 75 1; 76 2; 77 17; 
78 8; 79 10; 80 6; 81 3; 82 66; 
83 8; 84 26; 85 2; 89 18; 91 999; 
92 97; 93 5; 94 1; 95 1; 96 47; 
97 9; 98 13; 99 1; 101 3; 102 1; 
103 5; 104 30; 105 18; 106 27; 107 4; 
115 3; 116 3; 117 20; 118 41; 119 19; 
120 30; 121 2; 128 1; 129 2; 130 8; 
131 7; 132 54; 133 15; 134 39; 135 4; 
139 2; 143 2; 144 13; 145 7; 146 106; 
147 16; 148 16; 149 1; 158 32; 159 5; 
160 40; 161 10; 162 3; 170 3; 172 133; 
173 243; 174 57; 175 210; 176 29; 177 1; 
187 3; 189 151; 190 20; 191 1; 251 1; 
280 4; 281 1; 
