Name: N-(1-benzyl-4-piperid-3-enyl)-N-phenylpropanamide
InChIKey: KMINWWLKKPKZIM-UHFFFAOYSA-N
Formula: C21H24N2O
MW: 320
ExactMass: 320.188864
CASNO: 0
ID: 2268
Comment: DEA SFL1 /  ALB 45-7
Num Peaks: 109
38 1; 39 13; 40 2; 41 14; 42 32; 
43 2; 50 4; 51 27; 52 6; 53 15; 
54 13; 55 6; 56 6; 57 65; 58 2; 
62 1; 63 6; 64 3; 65 60; 66 6; 
67 3; 68 4; 69 1; 74 1; 75 1; 
76 4; 77 112; 78 13; 79 4; 80 19; 
81 4; 82 6; 89 16; 90 15; 91 870; 
92 82; 93 18; 94 4; 95 2; 96 1; 
101 1; 102 2; 103 11; 104 24; 105 10; 
106 8; 107 1; 110 1; 115 14; 116 7; 
117 39; 118 31; 119 7; 120 5; 127 4; 
128 10; 129 7; 130 65; 131 11; 132 132; 
133 17; 141 1; 142 6; 143 26; 144 113; 
145 42; 146 61; 147 8; 149 2; 150 1; 
154 2; 155 2; 156 9; 157 7; 158 15; 
159 4; 160 1; 165 1; 167 1; 168 1; 
169 5; 170 124; 171 125; 172 999; 173 162; 
174 14; 185 2; 186 3; 187 3; 188 5; 
200 10; 201 2; 202 3; 207 1; 208 1; 
229 23; 230 3; 231 1; 233 1; 234 1; 
248 1; 261 2; 262 4; 263 34; 264 7; 
265 1; 319 6; 320 10; 321 3; 
