Name: 1-phenyl-4-benzyliminopiperidine
InChIKey: QOFJYVZPQMGKBW-UHFFFAOYSA-N
Formula: C18H20N2
MW: 264
ExactMass: 264.16265
CASNO: 0
ID: 2270
Comment: DEA SFL1 / ALB-70-3  imine from 1-phenyl-4-piperidone and benzylamine
Num Peaks: 128
37 2; 38 7; 39 56; 40 9; 41 36; 
42 30; 43 2; 44 3; 46 1; 47 1; 
49 1; 50 21; 51 75; 52 22; 53 27; 
54 44; 55 21; 56 9; 57 6; 61 1; 
62 6; 63 31; 64 14; 65 149; 66 25; 
67 8; 68 47; 69 5; 70 50; 71 2; 
72 1; 73 1; 74 5; 75 6; 76 11; 
77 263; 78 39; 79 24; 80 16; 81 6; 
82 25; 83 2; 87 1; 89 43; 90 36; 
91 999; 92 94; 93 46; 94 7; 101 1; 
102 5; 103 38; 104 320; 105 241; 106 220; 
107 62; 108 3; 115 17; 116 18; 117 57; 
118 55; 119 96; 120 67; 121 6; 127 4; 
128 12; 129 16; 130 57; 131 38; 132 144; 
133 17; 140 1; 141 4; 142 6; 143 28; 
144 120; 145 57; 146 24; 147 4; 152 1; 
153 1; 154 5; 155 5; 156 62; 157 29; 
158 348; 159 168; 160 29; 161 5; 165 1; 
166 1; 167 1; 169 1; 170 17; 171 46; 
172 137; 173 127; 174 15; 175 1; 178 1; 
181 1; 182 2; 185 6; 186 6; 187 2; 
193 1; 194 2; 195 4; 196 2; 206 1; 
207 1; 208 1; 220 2; 221 1; 222 2; 
234 6; 235 14; 236 5; 237 1; 249 6; 
250 1; 260 1; 261 3; 262 3; 263 140; 
264 212; 265 42; 266 4; 
