Name: 1-phenyl-4-hydroxypiperidine
InChIKey: FMHLUYMKOSEANZ-UHFFFAOYSA-N
Formula: C11H15NO
MW: 177
ExactMass: 177.115364
CASNO: 0
ID: 2271
Comment: DEA SFL1 / ALB-70-4
Num Peaks: 56
39 61; 41 33; 42 56; 43 48; 44 45; 
50 50; 51 155; 52 29; 53 28; 54 17; 
55 124; 56 16; 57 51; 63 26; 64 21; 
65 102; 66 19; 74 17; 75 16; 76 27; 
77 547; 78 91; 79 48; 82 16; 91 162; 
92 37; 93 61; 103 34; 104 621; 105 860; 
106 346; 107 30; 117 62; 118 85; 119 29; 
120 173; 121 29; 130 83; 131 49; 132 421; 
133 56; 134 22; 143 16; 144 36; 148 22; 
156 45; 157 18; 158 358; 159 117; 160 160; 
161 18; 175 38; 176 604; 177 999; 178 119; 
179 17; 
