Name: N-(1-phenethyl-4-piperidyl)-N-benzylpropanamide
InChIKey: QOHQCOIBQCEEGL-UHFFFAOYSA-N
Formula: C23H30N2O
MW: 350
ExactMass: 350.235813
CASNO: 0
ID: 2273
Comment: DEA SFL1 / ALB-92-7
Num Peaks: 115
39 4; 41 12; 42 45; 43 5; 44 17; 
50 1; 51 4; 52 1; 53 3; 54 6; 
55 15; 56 14; 57 37; 58 36; 59 1; 
63 2; 65 21; 66 2; 67 7; 68 9; 
69 8; 70 31; 71 2; 74 1; 76 1; 
77 19; 78 7; 79 23; 80 5; 81 2; 
82 18; 83 8; 84 7; 85 5; 86 1; 
89 5; 91 328; 92 28; 93 1; 94 6; 
95 11; 96 51; 97 13; 98 38; 99 3; 
100 1; 102 1; 103 19; 104 17; 105 94; 
106 32; 107 4; 108 1; 109 1; 111 18; 
112 5; 115 3; 116 2; 117 6; 118 4; 
119 1; 120 4; 125 1; 126 1; 128 1; 
129 2; 130 7; 131 4; 132 14; 133 3; 
134 25; 135 2; 139 10; 140 3; 143 13; 
144 5; 145 2; 146 21; 147 3; 148 2; 
156 1; 158 4; 160 247; 161 31; 162 5; 
163 8; 164 2; 167 2; 172 38; 173 6; 
174 3; 175 1; 184 5; 185 3; 186 23; 
187 4; 188 12; 189 4; 201 10; 203 170; 
204 26; 205 2; 216 55; 217 8; 230 2; 
257 1; 259 999; 260 180; 261 16; 262 1; 
293 1; 321 1; 348 2; 349 1; 350 2; 
