Name: 1-phenyl-4-phenyliminopiperidine
InChIKey: SGZJUGRRJAEZKU-UHFFFAOYSA-N
Formula: C17H18N2
MW: 250
ExactMass: 250.146998
CASNO: 0
ID: 2276
Comment: DEA SFL1 / ALB-74-2
Num Peaks: 113
37 1; 38 8; 39 50; 40 7; 41 21; 
42 29; 43 1; 50 38; 51 248; 52 36; 
53 29; 54 45; 55 5; 56 8; 59 1; 
61 1; 62 5; 63 28; 64 21; 65 54; 
66 14; 67 3; 68 6; 69 1; 74 9; 
75 14; 76 42; 77 999; 78 106; 79 25; 
80 5; 88 1; 89 25; 90 29; 91 188; 
92 37; 93 19; 94 3; 101 1; 102 8; 
103 46; 104 570; 105 642; 106 129; 107 12; 
110 1; 114 2; 115 32; 116 30; 117 338; 
118 109; 119 39; 120 186; 121 16; 122 1; 
125 29; 127 8; 128 12; 129 6; 130 164; 
131 50; 132 157; 133 23; 134 2; 140 1; 
141 4; 142 10; 143 56; 144 731; 145 373; 
146 52; 147 6; 152 1; 154 3; 155 2; 
156 47; 157 36; 158 425; 159 127; 160 12; 
166 1; 167 1; 168 1; 169 1; 171 2; 
172 1; 173 21; 174 2; 180 2; 181 1; 
182 2; 193 2; 194 7; 195 1; 205 1; 
206 1; 208 1; 218 1; 219 10; 220 3; 
221 5; 222 1; 233 2; 234 1; 235 6; 
236 1; 245 1; 246 1; 247 7; 249 627; 
250 648; 251 116; 252 10; 
