Name: N-(1-phenyl-4-piperidyl)-N-phenethylamine
InChIKey: GQHRALPBDNSJHJ-UHFFFAOYSA-N
Formula: C19H24N2
MW: 280
ExactMass: 280.193949
CASNO: 0
ID: 2278
Comment: DEA SFL1 / ALB-71-4
Num Peaks: 99
38 1; 39 33; 40 4; 41 26; 42 21; 
43 6; 44 5; 50 6; 51 41; 52 10; 
53 19; 54 13; 55 192; 56 87; 57 7; 
62 2; 63 10; 64 5; 65 50; 66 7; 
67 6; 68 17; 69 4; 70 50; 71 6; 
72 1; 74 2; 75 2; 76 7; 77 242; 
78 45; 79 55; 80 8; 81 2; 82 12; 
83 5; 84 43; 85 2; 89 9; 90 7; 
91 194; 92 30; 93 18; 95 48; 96 7; 
97 1; 102 4; 103 32; 104 325; 105 394; 
106 202; 107 18; 115 9; 116 4; 117 33; 
118 46; 119 20; 120 47; 121 8; 122 2; 
127 2; 128 4; 129 6; 130 103; 131 50; 
132 999; 133 107; 134 10; 141 1; 142 2; 
143 16; 144 121; 145 24; 146 9; 147 5; 
148 2; 154 1; 155 1; 156 24; 158 449; 
159 777; 160 249; 161 50; 162 5; 165 1; 
173 1; 174 13; 175 6; 176 6; 187 4; 
189 292; 190 37; 191 2; 222 1; 251 6; 
252 1; 280 111; 281 26; 282 2; 
