Name: Nabilone
Synon: Cessamet
Synon: 3-(1,1-Dimethylheptyl)-1-hydroxy-6,6-dimethyl-6,6a,7,8,10,10a-hexahydro-9H-benzo[c]chromen-9-one
Synon: (.+/-.)-3-(1,1-Dimethylheptyl-6,6a.beta.,7,8,10,10a.alpha.-hexahydro-1-hydroxy-6,6-dimethyl-9H-dibenzo[b,d]pyran-9-one
InChIKey: GECBBEABIDMGGL-UHFFFAOYSA-N
Formula: C24H36O3
MW: 372
ExactMass: 372.266445
CASNO: 51022710
ID: 2281
Comment: Jason Nawyn / standard from Sigma (lot # 063K4619)
Num Peaks: 252
39 11; 40 3; 41 89; 42 7; 43 114; 
44 3; 51 2; 52 1; 53 13; 54 2; 
55 70; 56 5; 57 18; 58 1; 59 1; 
63 1; 65 9; 66 3; 67 31; 68 17; 
69 120; 70 8; 71 10; 72 1; 77 21; 
78 5; 79 25; 80 5; 81 22; 82 5; 
83 28; 84 2; 85 6; 87 3; 89 2; 
90 1; 91 35; 92 5; 93 16; 94 7; 
95 26; 96 2; 97 4; 99 1; 100 1; 
101 3; 102 1; 103 8; 104 3; 105 19; 
106 3; 107 21; 108 7; 109 29; 110 4; 
111 10; 112 1; 115 20; 116 7; 117 11; 
118 2; 119 12; 120 3; 121 16; 122 4; 
123 31; 124 7; 125 3; 127 7; 128 16; 
129 13; 130 4; 131 13; 132 4; 133 12; 
134 5; 135 21; 136 8; 137 24; 138 3; 
139 2; 141 8; 142 5; 143 6; 144 8; 
145 11; 146 3; 147 20; 148 7; 149 56; 
150 15; 151 17; 152 18; 153 5; 154 2; 
155 4; 156 2; 157 9; 158 5; 159 12; 
160 7; 161 23; 162 6; 163 69; 164 32; 
165 10; 166 4; 167 2; 168 1; 169 2; 
170 1; 171 8; 172 4; 173 16; 174 8; 
175 23; 176 12; 177 102; 178 260; 179 34; 
180 5; 181 2; 182 1; 183 3; 184 2; 
185 9; 186 4; 187 26; 188 11; 189 24; 
190 7; 191 12; 192 17; 193 4; 194 2; 
195 1; 197 3; 198 1; 199 9; 200 4; 
201 28; 202 13; 203 25; 204 11; 205 12; 
206 16; 207 3; 208 1; 209 1; 211 4; 
212 2; 213 10; 214 5; 215 24; 216 10; 
217 16; 218 6; 219 18; 220 16; 221 3; 
223 1; 225 2; 226 1; 227 9; 228 3; 
229 24; 230 23; 231 12; 232 5; 233 7; 
234 3; 235 1; 237 1; 239 2; 240 1; 
241 5; 242 4; 243 9; 244 6; 245 71; 
246 13; 247 16; 248 5; 249 18; 250 3; 
251 1; 253 2; 254 1; 255 8; 256 3; 
257 7; 258 2; 259 29; 260 28; 261 12; 
262 8; 263 2; 267 1; 269 9; 270 26; 
271 13; 272 6; 273 77; 274 32; 275 6; 
283 2; 284 7; 285 5; 286 14; 287 321; 
288 999; 289 304; 290 46; 291 7; 297 2; 
298 3; 299 7; 300 2; 301 18; 302 139; 
303 29; 304 6; 311 2; 312 3; 313 7; 
314 1; 315 12; 316 107; 317 24; 318 3; 
327 1; 329 16; 330 64; 331 14; 332 2; 
339 11; 340 3; 341 1; 343 3; 344 2; 
353 1; 354 5; 355 20; 356 5; 357 37; 
358 9; 359 1; 371 12; 372 361; 373 94; 
374 13; 375 1; 
