Name: Methanandamide
InChIKey: SQKRUBZPTNJQEM-FQPARAGTSA-N
Formula: C23H39NO2
MW: 361
ExactMass: 361.29808
CASNO: 157182495
ID: 2282
Comment: Jason Nawyn / standard from Biotrend (lot # 0331BN/02)
Num Peaks: 248
39 84; 40 21; 41 412; 42 70; 43 140; 
44 381; 45 15; 50 5; 51 26; 52 18; 
53 87; 54 80; 55 326; 56 70; 57 84; 
58 243; 59 82; 60 323; 61 7; 62 1; 
63 2; 65 99; 66 81; 67 429; 68 78; 
69 111; 70 30; 71 26; 72 17; 73 9; 
74 32; 75 13; 76 482; 77 261; 78 104; 
79 530; 80 245; 81 192; 82 42; 83 51; 
84 148; 85 24; 86 274; 87 18; 88 3; 
89 14; 91 422; 92 94; 93 243; 94 68; 
95 103; 96 23; 97 44; 98 61; 99 999; 
100 131; 101 6; 102 23; 103 38; 104 32; 
105 178; 106 65; 107 86; 108 33; 109 29; 
110 28; 111 18; 112 391; 113 102; 114 23; 
115 40; 116 19; 117 561; 118 63; 119 102; 
120 46; 121 61; 122 58; 123 20; 124 30; 
125 17; 126 20; 127 3; 128 25; 129 30; 
130 163; 131 92; 132 18; 133 83; 134 30; 
135 40; 136 49; 137 19; 138 140; 139 321; 
140 53; 141 8; 142 14; 143 11; 144 21; 
145 38; 146 13; 147 54; 148 15; 149 47; 
150 92; 151 26; 152 195; 153 102; 154 20; 
155 6; 156 6; 157 21; 158 17; 159 23; 
160 11; 161 26; 162 16; 163 24; 164 38; 
165 10; 166 73; 167 20; 168 5; 169 3; 
170 19; 171 10; 172 20; 173 20; 174 9; 
175 45; 176 26; 177 23; 178 68; 179 21; 
180 7; 181 2; 182 1; 183 5; 184 22; 
185 4; 186 5; 187 9; 188 8; 189 20; 
190 24; 191 11; 192 120; 193 60; 194 16; 
195 6; 196 8; 197 8; 198 9; 199 2; 
201 7; 202 6; 203 24; 204 13; 205 12; 
206 88; 207 22; 208 14; 209 10; 210 14; 
211 4; 212 20; 213 1; 215 5; 216 3; 
217 9; 218 46; 219 10; 220 10; 221 2; 
222 5; 223 9; 224 16; 225 1; 226 2; 
229 1; 230 7; 231 7; 232 132; 233 37; 
234 5; 236 28; 237 5; 238 4; 239 2; 
243 2; 244 20; 245 9; 246 19; 247 4; 
248 5; 249 4; 250 19; 251 6; 252 3; 
253 4; 255 3; 258 24; 259 8; 260 4; 
262 7; 263 8; 264 5; 265 2; 267 5; 
268 4; 269 3; 270 1; 272 39; 273 6; 
274 1; 276 16; 277 2; 278 2; 283 4; 
285 3; 286 102; 287 12; 288 9; 289 2; 
290 6; 300 35; 301 6; 302 11; 304 3; 
314 25; 315 3; 327 1; 328 17; 329 5; 
330 37; 331 10; 332 2; 341 5; 342 45; 
343 60; 344 15; 345 1; 346 3; 355 4; 
358 1; 360 3; 361 14; 
