Name: 1-(4-Ethylbenzyl)piperazine
Synon: EBZP
Synon: 4-Ethylbenzylpiperazine
Synon: 1-Ethyl-4-benzylpiperazine
InChIKey: FUHWWXRPMBXPNY-UHFFFAOYSA-N
Formula: C13H20N2
MW: 204
ExactMass: 204.162648
CASNO: 0
ID: 2331
Comment: QHFSS Lab
Num Peaks: 114
40 3; 41 31; 42 157; 43 24; 44 20; 
45 5; 50 5; 51 17; 52 5; 53 2; 
54 26; 55 29; 56 152; 57 141; 58 288; 
59 9; 62 3; 63 19; 64 6; 65 121; 
66 7; 67 1; 68 9; 69 10; 70 200; 
71 58; 72 180; 73 30; 74 8; 75 2; 
76 3; 77 17; 78 7; 79 5; 80 2; 
81 5; 82 9; 83 16; 84 109; 85 49; 
86 58; 87 4; 89 33; 90 20; 91 999; 
92 84; 93 3; 94 5; 95 2; 96 6; 
97 20; 98 89; 99 31; 100 2; 101 1; 
102 1; 103 8; 104 53; 105 24; 106 32; 
107 18; 108 1; 109 3; 110 1; 111 28; 
112 19; 113 275; 114 19; 115 4; 116 4; 
117 23; 118 147; 119 303; 120 263; 121 22; 
125 2; 127 16; 128 2; 129 1; 130 11; 
131 16; 132 121; 133 39; 134 73; 135 10; 
136 2; 144 10; 145 6; 146 228; 147 35; 
148 26; 149 3; 158 4; 159 2; 160 17; 
161 114; 162 21; 163 1; 172 1; 173 5; 
174 7; 175 57; 176 12; 177 1; 187 3; 
189 104; 190 14; 191 1; 201 3; 202 6; 
203 53; 204 867; 205 131; 206 10; 
