Name: Stanolone
Synon: 5.alpha.-Androstan-17.beta.-ol-3-one
Synon: 4-dihydrotestosterone
Synon: 17.beta.-hydroxy-androstan-3-one
InChIKey: NVKAWKQGWWIWPM-UHFFFAOYSA-N
Formula: C19H30O2
MW: 290
ExactMass: 290.22458
CASNO: 521186
ID: 2354
Comment: DEA SWL
Num Peaks: 179
40 34; 41 441; 42 56; 43 199; 44 61; 
45 18; 51 17; 52 21; 53 208; 55 666; 
56 56; 57 204; 58 31; 59 9; 65 94; 
66 54; 67 559; 68 275; 69 184; 70 17; 
71 58; 72 7; 73 5; 74 10; 77 275; 
78 66; 79 514; 80 109; 81 515; 82 95; 
83 104; 84 32; 85 26; 86 5; 87 4; 
88 5; 89 4; 91 441; 92 80; 93 452; 
94 164; 95 386; 96 75; 97 118; 98 15; 
99 10; 101 4; 102 6; 103 30; 104 24; 
105 306; 106 99; 107 360; 108 135; 109 241; 
110 104; 111 92; 112 8; 113 4; 115 44; 
116 16; 117 87; 118 64; 119 256; 120 101; 
121 285; 122 172; 123 330; 124 236; 125 46; 
126 7; 127 7; 128 28; 129 40; 130 18; 
131 114; 132 46; 133 167; 134 61; 135 152; 
136 76; 137 97; 138 17; 139 4; 141 10; 
142 8; 143 33; 144 26; 145 112; 146 54; 
147 147; 148 67; 149 161; 150 33; 151 30; 
152 10; 153 7; 155 7; 156 4; 157 42; 
158 22; 159 120; 160 42; 161 161; 162 75; 
163 323; 164 84; 165 45; 166 23; 167 37; 
168 6; 169 9; 170 5; 171 38; 172 23; 
173 76; 174 57; 175 96; 176 79; 177 34; 
178 27; 179 43; 180 10; 183 7; 185 48; 
186 12; 187 36; 188 20; 189 93; 190 40; 
191 21; 192 7; 193 4; 197 11; 199 146; 
200 65; 201 59; 202 23; 203 51; 204 71; 
205 16; 206 4; 207 6; 211 6; 213 77; 
215 140; 216 28; 217 122; 218 49; 219 17; 
220 12; 228 8; 229 23; 231 999; 232 201; 
233 122; 234 24; 235 5; 239 24; 240 4; 
243 5; 244 15; 246 108; 247 82; 248 14; 
255 3; 257 100; 258 17; 261 16; 262 4; 
272 82; 273 18; 274 4; 275 60; 276 13; 
288 3; 290 641; 291 141; 292 18; 
