Name: Ethylestrenol
Synon: 19-Nor-17.alpha.-pregn-4-en-17.beta.-ol
Synon: 17.alpha.-ethyl-17.beta.-hydroxyestr-4-ene
InChIKey: AOXRBFRFYPMWLR-UHFFFAOYSA-N
Formula: C20H32O
MW: 288
ExactMass: 288.245316
CASNO: 965902
ID: 2355
Comment: DEA SWL
Num Peaks: 187
40 19; 41 313; 42 25; 43 258; 44 11; 
45 19; 50 1; 51 22; 52 16; 53 144; 
54 36; 55 279; 57 463; 58 30; 59 12; 
63 8; 65 121; 66 59; 67 408; 68 56; 
69 103; 70 10; 71 38; 72 32; 73 26; 
74 2; 75 2; 77 381; 78 113; 79 795; 
80 114; 81 339; 82 38; 83 68; 85 320; 
86 52; 87 15; 88 3; 89 9; 91 850; 
92 175; 93 480; 94 420; 95 314; 96 38; 
97 54; 98 9; 99 25; 101 7; 102 6; 
103 58; 104 73; 105 445; 106 151; 107 327; 
108 161; 109 189; 110 23; 111 22; 112 3; 
113 6; 115 102; 116 41; 117 203; 118 76; 
119 341; 120 414; 121 476; 122 150; 123 63; 
124 9; 125 9; 126 5; 127 19; 128 62; 
129 94; 130 50; 131 285; 132 87; 133 368; 
134 166; 135 158; 136 28; 137 14; 138 6; 
139 14; 141 28; 142 20; 143 59; 144 127; 
145 302; 146 254; 147 401; 148 276; 149 75; 
150 12; 151 10; 152 12; 153 11; 154 7; 
155 14; 156 9; 157 51; 158 43; 159 315; 
160 135; 161 155; 162 55; 163 100; 164 17; 
165 14; 166 4; 167 4; 168 2; 169 6; 
170 5; 171 43; 172 23; 173 149; 174 165; 
175 95; 176 27; 177 28; 178 7; 179 12; 
180 3; 181 41; 182 4; 183 7; 185 104; 
186 32; 187 179; 188 122; 189 73; 190 11; 
191 6; 192 9; 193 8; 194 2; 195 1; 
197 3; 199 248; 200 170; 201 678; 202 175; 
203 205; 204 54; 205 5; 207 2; 209 1; 
211 1; 213 59; 214 70; 216 999; 217 200; 
218 20; 219 2; 220 1; 225 1; 227 19; 
228 16; 229 23; 230 7; 231 17; 232 2; 
233 1; 239 3; 241 664; 242 138; 243 16; 
244 1; 246 2; 255 60; 256 13; 257 2; 
259 59; 260 12; 261 1; 268 1; 270 251; 
271 50; 272 5; 273 1; 283 1; 288 405; 
289 79; 290 8; 
