Name: Formebolone
Synon: Formyldienolone
Synon: 1,4-Androstadien-2-formyl-11a,17b-diol-17a-methyl-3-one
Synon: 2-formyl-17.alpha.-methyl-11.alpha.,17.beta.-dihydroxyandrost-1,4-dien-3-one
InChIKey: AMVODTGMYSRMNP-BKFCTSFSSA-N
Formula: C21H28O4
MW: 344
ExactMass: 344.19876
CASNO: 2454117
ID: 2356
Comment: DEA SWL
Num Peaks: 192
40 17; 41 115; 43 283; 44 13; 45 16; 
51 17; 52 12; 53 52; 54 9; 55 82; 
56 8; 57 69; 58 37; 59 13; 60 5; 
63 9; 64 10; 65 50; 66 17; 67 66; 
68 15; 69 53; 70 18; 71 101; 72 6; 
73 19; 75 5; 77 122; 78 37; 79 86; 
80 14; 81 47; 82 18; 83 15; 85 13; 
89 12; 91 312; 92 54; 93 75; 94 20; 
95 53; 96 10; 97 22; 99 6; 102 12; 
103 42; 104 13; 105 122; 106 22; 107 98; 
108 25; 109 50; 110 16; 111 15; 115 98; 
116 25; 117 53; 118 18; 119 163; 120 232; 
121 202; 122 45; 123 27; 124 10; 125 7; 
126 7; 127 36; 128 83; 129 58; 130 17; 
131 51; 132 28; 133 77; 134 113; 135 103; 
136 18; 137 26; 138 26; 139 13; 141 34; 
142 15; 143 21; 144 23; 145 74; 146 39; 
147 130; 148 999; 149 168; 150 105; 151 17; 
152 14; 153 20; 154 8; 155 14; 157 48; 
158 31; 159 62; 161 437; 162 100; 163 49; 
164 32; 165 22; 166 46; 167 16; 169 14; 
170 10; 171 35; 172 29; 173 38; 174 20; 
175 42; 176 10; 177 13; 178 7; 179 14; 
180 6; 181 8; 182 5; 183 6; 184 11; 
185 20; 186 37; 187 35; 188 35; 189 30; 
190 10; 191 8; 192 8; 193 12; 194 6; 
196 6; 197 10; 198 15; 199 18; 200 15; 
201 19; 203 9; 207 34; 208 12; 209 25; 
210 12; 211 14; 212 19; 213 18; 214 12; 
215 7; 222 7; 223 17; 224 14; 225 45; 
226 17; 227 28; 228 6; 230 9; 237 14; 
239 12; 240 21; 241 10; 242 6; 243 7; 
251 7; 252 5; 253 22; 255 16; 257 10; 
265 26; 266 6; 267 11; 268 26; 269 16; 
271 7; 280 16; 281 16; 283 9; 293 12; 
297 7; 298 12; 299 5; 308 8; 309 12; 
311 25; 312 6; 316 8; 325 13; 326 37; 
327 40; 328 11; 329 121; 330 17; 331 8; 
343 9; 344 15; 
