Name: 4-Hydroxytestosterone
Synon: 4,17.beta.-dihydroxy-androst-4-en-3-one
InChIKey: BQOIJSIMMIDHMO-XRJYYLNASA-N
Formula: C19H28O3
MW: 304
ExactMass: 304.203844
CASNO: 2141175
ID: 2357
Comment: DEA SWL
Num Peaks: 244
36 1; 38 2; 39 101; 40 29; 41 412; 
42 33; 43 338; 44 46; 45 24; 46 1; 
50 5; 51 33; 52 22; 53 245; 54 52; 
55 586; 56 47; 57 240; 58 23; 59 6; 
60 1; 62 1; 63 10; 64 8; 65 145; 
66 56; 67 533; 68 93; 69 129; 70 15; 
71 51; 72 6; 73 7; 74 2; 75 4; 
76 4; 77 356; 78 78; 79 573; 80 92; 
81 418; 82 98; 83 77; 84 23; 85 23; 
86 7; 87 3; 88 2; 89 11; 90 7; 
91 635; 92 112; 93 511; 94 145; 95 389; 
96 65; 97 109; 98 35; 99 24; 100 5; 
101 5; 102 13; 103 62; 104 30; 105 437; 
106 97; 107 381; 108 119; 109 295; 110 243; 
111 110; 112 151; 113 447; 114 34; 115 102; 
116 47; 117 127; 118 39; 119 258; 120 125; 
121 277; 122 98; 123 325; 124 111; 125 225; 
126 151; 127 90; 128 73; 129 86; 130 37; 
131 200; 132 63; 133 249; 134 153; 135 208; 
136 87; 137 226; 138 454; 139 180; 140 617; 
141 93; 142 29; 143 66; 144 52; 145 186; 
146 122; 147 999; 148 280; 149 277; 150 87; 
151 213; 152 123; 153 115; 154 83; 155 35; 
156 13; 157 48; 158 40; 159 113; 160 60; 
161 100; 162 59; 163 108; 164 66; 165 93; 
166 29; 167 13; 168 6; 169 26; 170 13; 
171 42; 172 25; 173 78; 174 70; 175 99; 
176 38; 177 62; 178 29; 179 33; 180 12; 
181 12; 182 5; 183 30; 184 11; 185 37; 
186 21; 187 42; 188 20; 189 32; 190 35; 
191 33; 192 73; 193 48; 194 9; 195 8; 
196 4; 197 21; 198 12; 199 48; 200 17; 
201 54; 202 28; 203 22; 204 15; 205 17; 
206 8; 207 7; 208 3; 209 10; 210 4; 
211 28; 212 16; 213 18; 214 21; 215 27; 
216 11; 217 18; 218 7; 219 10; 220 6; 
221 3; 222 2; 223 3; 224 3; 225 57; 
226 26; 227 20; 228 4; 229 32; 230 15; 
231 8; 232 16; 233 7; 234 5; 235 15; 
236 3; 237 1; 238 1; 239 14; 240 31; 
241 10; 242 8; 243 37; 244 18; 245 10; 
246 2; 247 7; 248 3; 249 2; 250 3; 
251 3; 253 50; 254 9; 255 2; 257 12; 
258 44; 259 9; 260 5; 261 114; 262 113; 
263 19; 264 2; 267 3; 268 26; 269 7; 
270 2; 271 63; 272 12; 273 2; 275 3; 
276 20; 277 3; 285 2; 286 49; 287 10; 
288 2; 289 84; 290 18; 291 1; 302 2; 
303 1; 304 394; 305 84; 306 9; 
