Name: Norbolethone
Synon: 13.beta.,17.alpha.-diethyl-17.beta.-hydroxygon-4-en-3-one
InChIKey: FTBJKONNNSKOLX-XUDSTZEESA-N
Formula: C21H32O2
MW: 316
ExactMass: 316.24023
CASNO: 1235150
ID: 2359
Comment: DEA SWL
Num Peaks: 212
40 11; 41 545; 42 33; 43 415; 44 8; 
45 47; 50 2; 51 36; 52 31; 53 216; 
54 46; 55 590; 56 40; 57 999; 58 41; 
59 28; 60 3; 63 8; 64 7; 65 130; 
66 55; 67 436; 68 46; 69 147; 70 13; 
71 44; 72 136; 73 32; 74 8; 76 4; 
77 378; 78 106; 79 579; 80 96; 81 259; 
82 47; 83 117; 84 18; 85 933; 86 146; 
87 22; 88 3; 89 10; 90 9; 91 745; 
92 129; 93 338; 94 84; 95 268; 96 56; 
97 108; 98 9; 99 26; 100 6; 101 14; 
102 11; 103 80; 104 59; 105 413; 106 124; 
107 451; 108 253; 109 365; 110 805; 111 105; 
112 8; 113 31; 114 5; 115 124; 116 56; 
117 265; 118 70; 119 332; 120 157; 121 258; 
122 293; 123 353; 124 64; 125 18; 127 30; 
128 87; 129 152; 130 66; 131 196; 132 85; 
133 336; 134 217; 135 515; 136 102; 137 70; 
138 10; 139 7; 141 58; 142 34; 143 101; 
144 43; 145 172; 146 77; 147 240; 148 142; 
149 164; 150 53; 151 16; 152 9; 153 20; 
154 10; 155 38; 156 22; 157 88; 158 55; 
159 242; 160 117; 161 279; 162 156; 163 67; 
164 8; 165 14; 166 2; 167 9; 168 5; 
169 32; 170 22; 171 74; 172 36; 173 132; 
174 72; 175 89; 176 31; 177 35; 178 6; 
179 3; 181 12; 182 5; 183 22; 184 12; 
185 68; 186 39; 187 127; 188 61; 189 138; 
190 32; 191 33; 192 3; 193 9; 194 2; 
195 16; 196 3; 197 35; 198 21; 199 73; 
200 65; 201 76; 202 28; 203 59; 204 31; 
205 4; 206 6; 207 25; 208 5; 209 15; 
210 5; 211 35; 212 7; 213 66; 214 32; 
215 86; 216 41; 217 24; 225 5; 226 26; 
227 113; 228 55; 229 391; 230 77; 231 79; 
232 100; 233 19; 239 4; 240 1; 241 19; 
242 44; 243 15; 244 75; 245 629; 246 116; 
247 13; 251 18; 252 2; 253 5; 254 4; 
255 6; 256 13; 257 6; 258 1; 259 16; 
260 5; 269 252; 270 59; 271 7; 274 7; 
280 2; 281 4; 283 7; 287 186; 288 40; 
289 2; 298 78; 299 18; 300 1; 316 705; 
317 166; 318 18; 
