Name: Testolactone
Synon: 17a-Oxa-D-homoandrosta-1,4-diene-3,17-dione
Synon: 13-hydroxy-3-oxo-13,17-secoandrosta-1,4-dien-17-oic acid lactone
InChIKey: BPEWUONYVDABNZ-UHFFFAOYSA-N
Formula: C19H24O3
MW: 300
ExactMass: 300.172544
CASNO: 968934
ID: 2362
Comment: DEA SWL
Num Peaks: 218
40 24; 41 250; 42 111; 43 490; 44 11; 
45 13; 50 13; 51 71; 52 47; 53 135; 
54 28; 55 305; 56 17; 57 13; 58 12; 
59 4; 62 5; 63 27; 64 19; 65 171; 
66 47; 67 160; 68 32; 69 52; 70 4; 
71 31; 72 5; 73 7; 74 9; 75 8; 
77 380; 78 119; 79 311; 80 51; 81 106; 
82 19; 83 35; 84 15; 85 24; 86 8; 
87 4; 88 4; 89 29; 91 931; 92 211; 
93 253; 94 77; 95 91; 96 21; 97 59; 
98 9; 99 36; 100 5; 101 6; 102 27; 
103 102; 104 54; 105 362; 106 85; 107 309; 
108 370; 109 186; 110 33; 111 33; 112 5; 
113 7; 115 253; 116 88; 117 181; 119 999; 
120 295; 121 922; 122 935; 123 127; 124 17; 
125 25; 126 8; 127 69; 128 189; 129 191; 
130 66; 131 173; 132 81; 133 350; 134 173; 
135 201; 136 282; 137 78; 138 8; 139 14; 
141 83; 142 55; 143 116; 144 70; 145 194; 
146 121; 147 386; 148 72; 149 24; 150 8; 
151 23; 152 30; 153 39; 154 18; 155 45; 
156 27; 157 125; 158 96; 159 178; 160 177; 
161 175; 162 34; 163 33; 164 16; 165 46; 
166 54; 167 28; 168 10; 169 30; 170 29; 
171 128; 172 132; 173 152; 174 59; 175 34; 
176 10; 177 14; 178 16; 179 86; 180 26; 
181 20; 182 17; 183 39; 184 26; 185 117; 
186 61; 187 66; 188 19; 189 8; 190 3; 
191 8; 192 16; 193 11; 194 7; 195 12; 
196 11; 197 36; 198 23; 199 80; 200 29; 
201 26; 202 7; 203 3; 204 1; 205 13; 
206 6; 207 19; 208 9; 209 38; 210 10; 
211 29; 212 23; 213 46; 214 18; 215 14; 
216 6; 217 2; 219 1; 221 14; 222 12; 
223 19; 224 8; 225 34; 226 28; 227 155; 
228 32; 229 11; 230 8; 231 9; 232 8; 
235 3; 236 7; 237 8; 238 5; 239 21; 
240 19; 241 10; 242 2; 243 7; 244 3; 
246 1; 247 6; 249 23; 250 4; 251 2; 
253 4; 254 19; 255 6; 257 78; 258 19; 
259 3; 263 4; 264 12; 265 7; 266 2; 
267 22; 268 7; 271 5; 272 13; 273 3; 
282 83; 283 15; 284 4; 285 41; 286 6; 
300 57; 301 12; 302 2; 
