Name: trans-Cinnamaldehyde
Synon: 2-Propenal, 3-phenyl-
Synon: Cinnamaldehyde
Synon: Cinnamic aldehyde
Synon: Cinnamylaldehyde
Synon: 3-Phenyl-2-propenaldehyde
Synon: (E)-Cinnamaldehyde
InChIKey: KJPRLNWUNMBNBZ-QPJJXVBHSA-N
Formula: C9H8O
MW: 132
ExactMass: 132.057515
CASNO: 104552
ID: 2372
Comment: DEA SWL
Num Peaks: 54
37 9; 38 19; 39 52; 40 2; 41 1; 
49 11; 50 142; 51 333; 52 75; 53 19; 
54 11; 55 10; 60 1; 61 18; 62 40; 
63 86; 64 10; 65 14; 66 7; 73 13; 
74 80; 75 65; 76 80; 77 439; 78 364; 
79 23; 84 1; 85 4; 86 8; 87 11; 
88 2; 89 16; 90 1; 91 20; 92 1; 
97 2; 98 12; 99 3; 101 16; 102 124; 
103 583; 104 289; 105 34; 106 2; 113 1; 
114 1; 115 9; 116 1; 129 1; 130 1; 
131 999; 132 603; 133 56; 134 3; 
