Name: Helional
Synon: 1,3-Benzodioxole-5-propanal, .alpha.-methyl-
Synon: .alpha.-Methyl-3,4-methylenedioxy-hydrocinnamic aldehyde
Synon: Hydrocinnamaldehyde, .alpha.-methyl-3,4-(methylenedioxy)-
Synon: 3-(1,3-Benzodioxol-5-yl)-2-methylpropanal
InChIKey: BOPPSUHPZARXTH-UHFFFAOYSA-N
Formula: C11H12O3
MW: 192
ExactMass: 192.078644
CASNO: 1205170
ID: 2373
Comment: DEA SWL
Num Peaks: 82
37 2; 38 7; 39 37; 40 3; 41 9; 
42 2; 43 3; 49 1; 50 26; 51 118; 
52 18; 53 23; 54 1; 55 9; 57 1; 
61 3; 62 16; 63 42; 64 12; 65 33; 
66 6; 67 4; 69 1; 73 2; 74 8; 
75 9; 76 13; 77 201; 78 39; 79 56; 
80 4; 81 1; 86 1; 87 2; 88 1; 
89 22; 90 5; 91 25; 92 5; 93 3; 
94 1; 101 1; 102 8; 103 31; 104 12; 
105 82; 106 15; 107 3; 115 6; 116 3; 
117 3; 118 2; 119 10; 120 2; 121 42; 
122 93; 123 7; 131 9; 132 2; 133 16; 
134 9; 135 999; 136 92; 137 7; 144 1; 
145 2; 147 20; 148 11; 149 10; 150 1; 
159 1; 161 6; 162 5; 163 7; 164 37; 
165 4; 174 1; 177 2; 191 1; 192 156; 
193 18; 194 1; 
