Name: 2-Bromo-4-Methoxy-Propiophenone
InChIKey: JHFVSGIMLDFLIC-UHFFFAOYSA-N
Formula: C10H11BrO2
MW: 242
ExactMass: 241.994242
CASNO: 0
ID: 2379
Comment: DEA NCL (contributed by TAD)
Num Peaks: 64
37 1; 38 8; 39 7; 41 1; 50 21; 
51 15; 52 3; 53 7; 55 15; 56 2; 
61 3; 62 13; 63 53; 64 64; 65 15; 
66 5; 67 1; 73 1; 74 13; 75 10; 
76 26; 77 145; 78 16; 79 22; 80 3; 
81 2; 82 1; 87 1; 89 4; 90 2; 
91 25; 92 130; 93 10; 94 3; 102 3; 
103 24; 104 13; 105 32; 106 6; 107 89; 
108 7; 109 7; 115 1; 118 1; 119 7; 
120 15; 121 2; 131 1; 132 1; 133 2; 
135 999; 136 100; 137 8; 145 1; 147 1; 
162 3; 163 1; 164 1; 186 1; 188 1; 
242 26; 243 3; 244 26; 245 3; 
