Name: N-Acetyl-4-Fluoromethcathinone
Synon: Ac-4-FMC
Synon: N-Acetyl-Flephedrone
InChIKey: LLBVTUZJARWZOD-UHFFFAOYSA-N
Formula: C12H14FNO2
MW: 223
ExactMass: 223.100857
CASNO: 0
ID: 2380
Comment: DEA NCL (contributed by TAD) / Acetyl derivative of 4-Fluoromethcathinone
Num Peaks: 66
39 3; 40 1; 41 6; 42 61; 43 125; 
44 4; 45 1; 50 13; 51 10; 52 1; 
53 1; 54 6; 55 9; 56 72; 57 26; 
58 999; 59 36; 62 2; 63 4; 68 7; 
69 15; 70 3; 71 2; 73 1; 74 12; 
75 91; 76 8; 77 5; 81 1; 83 2; 
92 1; 93 3; 94 14; 95 178; 96 16; 
97 3; 99 2; 100 463; 101 30; 102 2; 
103 6; 107 3; 108 1; 109 7; 120 1; 
121 4; 122 2; 123 103; 124 7; 133 3; 
134 1; 135 1; 136 1; 138 1; 148 2; 
149 4; 150 2; 151 4; 152 4; 162 1; 
164 3; 165 5; 166 7; 180 8; 181 3; 
223 4; 
