Name: N-Acetyl-3-Fluoromethcathinone
Synon: Ac-3-FMC
InChIKey: YYEMDYRBQCZYDW-UHFFFAOYSA-N
Formula: C12H14FNO2
MW: 223
ExactMass: 223.100857
CASNO: 0
ID: 2382
Comment: DEA NCL (contributed by TAD) / Acetyl derivative of 3-FMC
Num Peaks: 69
38 1; 39 3; 40 1; 41 6; 42 60; 
43 131; 44 5; 45 1; 50 13; 51 9; 
52 1; 53 1; 54 7; 55 10; 56 71; 
57 25; 58 999; 59 36; 62 2; 63 3; 
68 7; 69 15; 70 3; 71 2; 73 1; 
74 12; 75 86; 76 8; 77 5; 81 1; 
83 2; 92 1; 93 2; 94 12; 95 165; 
96 15; 97 2; 99 1; 100 421; 101 27; 
102 2; 103 4; 107 3; 108 1; 109 5; 
120 1; 121 4; 122 2; 123 68; 124 5; 
133 3; 134 1; 135 1; 136 1; 138 1; 
148 2; 149 3; 150 2; 151 3; 152 3; 
162 2; 164 4; 165 6; 166 10; 167 1; 
180 11; 181 4; 206 1; 223 3; 
