Name: 2,5-Dimethoxy-4-ethyl-benzaldehyde
Synon: 4-Ethyl-2,5-dimethoxybenzaldehyde
InChIKey: IYHCILMQGOZLJN-UHFFFAOYSA-N
Formula: C11H14O3
MW: 194
ExactMass: 194.094295
CASNO: 50505618
ID: 2387
Comment: DEA NCL (contributed by TAD)
Num Peaks: 122
37 2; 38 11; 39 64; 40 7; 41 20; 
42 2; 43 19; 45 12; 49 1; 50 38; 
51 87; 52 36; 53 131; 54 21; 55 33; 
56 2; 57 5; 59 10; 60 1; 61 8; 
62 34; 63 90; 64 34; 65 140; 66 28; 
67 36; 68 7; 69 27; 70 1; 71 1; 
73 3; 74 27; 75 33; 76 34; 77 312; 
78 102; 79 184; 80 44; 81 20; 82 20; 
83 6; 85 5; 86 9; 87 9; 88 4; 
89 92; 90 59; 91 397; 92 71; 93 58; 
94 17; 95 23; 96 3; 97 11; 98 3; 
99 1; 101 7; 102 24; 103 87; 104 18; 
105 105; 106 40; 107 109; 108 152; 109 97; 
110 9; 111 1; 115 11; 116 4; 117 18; 
118 57; 119 161; 120 55; 121 112; 122 28; 
123 173; 124 16; 125 2; 129 1; 130 1; 
131 16; 132 13; 133 85; 134 99; 135 108; 
136 143; 137 70; 138 6; 139 1; 143 1; 
144 1; 145 6; 146 8; 147 27; 148 429; 
149 141; 150 57; 151 180; 152 23; 153 2; 
159 1; 160 2; 161 39; 162 35; 163 53; 
164 44; 165 110; 166 13; 167 1; 175 1; 
176 68; 177 116; 178 34; 179 490; 180 52; 
181 5; 191 1; 192 1; 193 131; 194 999; 
195 122; 196 12; 
