Name: 2,5-Dimethoxy-4-ethylbenzene
Synon: 2-Ethyl-1,4-dimethoxybenzene
InChIKey: CCZCWRYUYQRBPE-UHFFFAOYSA-N
Formula: C10H14O2
MW: 166
ExactMass: 166.09938
CASNO: 1199082
ID: 2389
Comment: DEA NCL (contributed by TAD)
Num Peaks: 84
37 1; 38 6; 39 39; 40 4; 41 11; 
42 1; 43 6; 45 7; 49 1; 50 19; 
51 49; 52 23; 53 44; 54 19; 55 16; 
56 1; 57 2; 59 5; 61 3; 62 13; 
63 38; 64 17; 65 83; 66 13; 67 12; 
68 4; 69 5; 73 1; 74 9; 75 20; 
77 146; 78 61; 79 101; 80 29; 81 7; 
82 8; 83 7; 85 1; 86 2; 87 2; 
88 1; 89 25; 90 26; 91 247; 92 42; 
93 31; 94 6; 95 10; 96 1; 101 1; 
102 6; 103 45; 104 7; 105 30; 106 12; 
107 40; 108 151; 109 18; 110 2; 115 1; 
117 1; 118 37; 119 134; 120 24; 121 131; 
122 15; 123 108; 124 11; 125 1; 132 1; 
133 23; 134 8; 135 62; 136 166; 137 16; 
138 2; 149 4; 150 35; 151 999; 152 102; 
153 8; 166 853; 167 96; 168 8; 
