Name: 5(10)-Estren-3.beta.,17.beta.-diol
InChIKey: IBHQSODTBQCZDA-UHFFFAOYSA-N
Formula: C18H28O2
MW: 276
ExactMass: 276.208931
CASNO: 4993322
ID: 2391
Comment: DEA SWL / Steraloids lot H429
Num Peaks: 193
36 2; 38 5; 39 103; 40 31; 41 387; 
42 32; 43 224; 44 103; 45 31; 46 1; 
50 5; 51 39; 52 23; 53 203; 54 28; 
55 424; 56 25; 57 301; 58 29; 59 7; 
60 1; 63 10; 64 10; 65 128; 66 43; 
67 309; 68 52; 69 83; 70 11; 71 38; 
72 6; 73 9; 74 4; 75 3; 76 5; 
77 366; 78 119; 79 598; 80 104; 81 244; 
82 43; 83 67; 84 17; 85 18; 86 19; 
87 2; 89 12; 90 8; 91 999; 92 218; 
93 373; 94 138; 95 224; 96 35; 97 89; 
98 44; 99 17; 101 3; 102 12; 103 93; 
104 150; 105 527; 106 211; 107 285; 108 113; 
109 119; 110 76; 111 33; 112 4; 115 149; 
116 70; 117 332; 118 138; 119 265; 120 138; 
121 116; 122 33; 123 91; 124 41; 125 9; 
126 3; 127 27; 128 111; 129 271; 130 118; 
131 557; 132 219; 133 519; 134 139; 135 91; 
136 38; 137 12; 138 2; 139 3; 141 68; 
142 57; 143 219; 144 576; 145 470; 146 286; 
147 225; 148 177; 149 117; 150 50; 151 245; 
152 32; 153 17; 154 11; 155 47; 156 31; 
157 166; 158 146; 159 189; 160 113; 161 57; 
162 19; 163 19; 164 22; 165 14; 166 3; 
167 6; 168 7; 169 52; 170 28; 171 121; 
172 54; 173 78; 174 25; 175 14; 176 7; 
177 5; 178 2; 179 2; 181 7; 182 5; 
183 93; 184 57; 185 293; 186 91; 187 45; 
188 16; 189 11; 190 5; 191 3; 193 1; 
195 2; 196 2; 197 84; 198 85; 199 283; 
200 59; 201 72; 202 40; 203 13; 204 5; 
207 7; 208 2; 209 2; 211 55; 212 61; 
213 33; 214 73; 215 35; 216 12; 217 22; 
218 2; 223 2; 225 156; 226 26; 227 7; 
228 4; 229 19; 230 9; 231 4; 232 3; 
238 3; 239 10; 240 168; 241 33; 242 5; 
243 68; 244 12; 245 2; 256 9; 257 4; 
258 515; 259 102; 260 12; 261 1; 274 6; 
275 3; 276 71; 277 11; 
