Name: 5(10)-Estren-3.alpha.,17.beta.-diol
InChIKey: IBHQSODTBQCZDA-UHFFFAOYSA-N
Formula: C18H28O2
MW: 276
ExactMass: 276.208931
CASNO: 13864498
ID: 2392
Comment: DEA SWL / Steraloids lot C293
Num Peaks: 208
38 2; 39 100; 40 29; 41 413; 42 28; 
43 223; 44 97; 45 31; 46 1; 50 5; 
51 34; 52 25; 53 194; 54 28; 55 378; 
56 26; 57 224; 58 27; 59 6; 60 1; 
62 2; 63 11; 64 9; 65 133; 66 43; 
67 295; 68 46; 69 77; 70 11; 71 32; 
72 7; 73 4; 74 2; 75 2; 76 5; 
77 343; 78 118; 79 481; 80 77; 81 252; 
82 40; 83 55; 84 14; 85 17; 86 8; 
87 2; 88 1; 89 13; 90 7; 91 999; 
92 224; 93 409; 94 151; 95 248; 96 36; 
97 86; 98 23; 99 9; 100 1; 101 3; 
102 13; 103 89; 104 135; 105 551; 106 164; 
107 253; 108 96; 109 102; 110 96; 111 33; 
112 4; 113 1; 114 1; 115 173; 116 80; 
117 378; 118 150; 119 334; 120 195; 121 160; 
122 48; 123 72; 124 21; 125 6; 126 2; 
127 38; 128 139; 129 248; 130 125; 131 543; 
132 159; 133 336; 134 105; 135 92; 136 54; 
137 24; 138 2; 139 5; 140 1; 141 71; 
142 60; 143 206; 144 271; 145 372; 146 357; 
147 343; 148 106; 149 123; 150 40; 151 59; 
152 20; 153 19; 154 14; 155 49; 156 27; 
157 148; 158 86; 159 289; 160 154; 161 61; 
162 62; 163 40; 164 65; 165 23; 166 5; 
167 11; 168 8; 169 44; 170 22; 171 94; 
172 50; 173 97; 174 29; 175 23; 176 11; 
177 7; 178 6; 179 3; 180 2; 181 5; 
182 4; 183 70; 184 30; 185 123; 186 71; 
187 74; 188 21; 189 13; 190 7; 191 3; 
195 4; 196 3; 197 66; 198 41; 199 358; 
200 81; 201 107; 202 55; 203 16; 204 16; 
205 6; 206 1; 207 2; 208 1; 209 1; 
210 2; 211 32; 212 37; 213 34; 214 113; 
215 58; 216 13; 217 35; 218 7; 219 2; 
221 1; 223 2; 224 1; 225 143; 226 26; 
227 8; 228 2; 229 19; 230 21; 231 4; 
232 35; 233 8; 239 11; 240 67; 241 17; 
242 3; 243 113; 244 22; 245 2; 246 1; 
254 1; 255 1; 256 13; 257 9; 258 734; 
259 140; 260 15; 261 5; 274 10; 275 4; 
276 171; 277 33; 278 3; 
