Name: WIN 55,212-3
Synon: [(3S)-2,3-Dihydro-5-methyl-3-(4-morpholinylmethyl)pyrrolo[1,2,3-de]-1,4-benzoxazin-6-yl]-1-naphthalenyl-methanone
InChIKey: HQVHOQAKMCMIIM-FQEVSTJZSA-N
Formula: C27H26N2O3
MW: 426
ExactMass: 426.194344
CASNO: 131543254
ID: 2405
Comment: Spectrum courtesy of Tom Gluodenis at Agilent Technologies
Num Peaks: 122
40 4; 41 29; 42 28; 43 9; 44 3; 
45 5; 53 4; 54 8; 55 6; 56 96; 
57 7; 58 3; 59 3; 63 6; 66 3; 
67 8; 68 5; 69 12; 70 39; 71 7; 
72 12; 75 3; 76 3; 77 10; 79 3; 
80 2; 81 3; 83 4; 88 2; 89 8; 
90 7; 93 2; 94 2; 95 4; 96 4; 
98 12; 100 999; 101 66; 102 11; 104 2; 
109 4; 114 6; 115 14; 116 7; 117 3; 
119 4; 121 3; 125 3; 126 24; 127 109; 
128 21; 129 7; 134 9; 135 2; 138 3; 
139 6; 140 4; 141 4; 142 6; 143 5; 
144 3; 146 3; 152 4; 153 2; 155 42; 
156 8; 162 3; 163 4; 164 2; 165 6; 
166 3; 170 10; 171 4; 173 2; 176 2; 
189 3; 191 4; 198 6; 200 5; 201 4; 
202 10; 203 6; 205 2; 213 2; 214 5; 
215 4; 226 10; 227 5; 228 5; 229 4; 
236 2; 237 5; 239 3; 240 8; 241 8; 
242 5; 251 2; 252 4; 253 6; 254 15; 
255 8; 256 4; 257 3; 264 2; 268 2; 
269 3; 270 6; 284 2; 296 2; 298 6; 
299 2; 309 3; 310 4; 311 2; 324 4; 
326 35; 358 2; 383 3; 415 6; 426 57; 
427 18; 428 2; 
