Name: WIN 55,212-2
Synon: (R)-(+)-[2,3-Dihydro-5-methyl-3-(4-morpholinylmethyl)pyrrolo[1,2,3-de]-1,4-benzoxazin-6-yl]-1-naphthalenylmethanone
InChIKey: HQVHOQAKMCMIIM-HXUWFJFHSA-N
Formula: C27H26N2O3
MW: 426
ExactMass: 426.194344
CASNO: 131543232
ID: 2406
Comment: Jason Nawyn
Num Peaks: 144
39 2; 41 10; 42 11; 43 3; 44 4; 
45 2; 51 1; 54 2; 55 2; 56 55; 
57 3; 63 2; 67 1; 68 4; 69 1; 
70 21; 71 2; 72 8; 74 1; 75 2; 
76 1; 77 7; 78 1; 80 1; 82 1; 
86 1; 87 1; 88 1; 89 5; 90 2; 
91 1; 98 13; 99 3; 100 999; 101 62; 
102 6; 103 2; 113 1; 114 1; 115 8; 
116 6; 117 4; 118 1; 125 1; 126 14; 
127 78; 128 12; 129 2; 134 1; 135 1; 
139 1; 140 1; 141 2; 142 4; 143 3; 
144 1; 149 1; 150 1; 152 1; 153 1; 
154 3; 155 45; 156 6; 157 1; 164 1; 
165 2; 166 1; 170 7; 171 2; 173 1; 
176 1; 184 1; 187 1; 189 2; 190 1; 
198 4; 200 3; 201 3; 202 5; 203 1; 
212 1; 213 2; 214 2; 215 3; 216 1; 
217 1; 224 1; 225 1; 226 5; 227 4; 
228 4; 229 2; 238 1; 239 3; 240 4; 
241 4; 242 2; 243 1; 251 1; 252 1; 
253 3; 254 6; 255 5; 256 2; 257 1; 
264 1; 265 1; 266 2; 267 2; 268 4; 
269 2; 270 4; 271 1; 278 1; 279 1; 
280 3; 281 1; 282 3; 283 4; 284 3; 
285 2; 294 1; 295 1; 296 3; 297 2; 
298 5; 299 2; 307 1; 308 2; 309 1; 
310 3; 311 3; 312 1; 324 3; 325 3; 
326 20; 327 5; 338 1; 340 1; 424 1; 
425 1; 426 91; 427 28; 428 5; 
