Name: Dextromoramide
InChIKey: INUNXTSAACVKJS-UHFFFAOYSA-N
Formula: C25H32N2O2
MW: 392
ExactMass: 392.246378
CASNO: 357562
ID: 2407
Comment: AAFS
Num Peaks: 118
39 3; 41 19; 42 34; 43 9; 44 8; 
45 5; 51 2; 53 1; 54 5; 55 51; 
56 90; 57 7; 58 3; 59 1; 63 1; 
65 4; 67 2; 68 9; 69 8; 70 46; 
71 8; 72 15; 76 1; 77 6; 78 1; 
79 1; 80 1; 82 4; 83 2; 84 7; 
85 4; 86 6; 87 1; 89 4; 91 33; 
92 3; 96 2; 98 68; 100 999; 101 68; 
102 6; 103 5; 104 3; 105 7; 106 1; 
112 4; 113 2; 115 30; 116 10; 117 8; 
118 9; 119 4; 120 3; 126 4; 128 533; 
129 56; 130 8; 131 7; 132 1; 139 4; 
141 1; 145 1; 146 6; 147 1; 148 1; 
151 3; 152 14; 153 3; 154 1; 158 1; 
160 1; 161 1; 163 3; 164 8; 165 55; 
166 27; 167 22; 168 5; 174 10; 175 1; 
176 2; 177 2; 178 15; 179 10; 180 2; 
186 1; 189 4; 190 2; 191 6; 192 3; 
193 16; 194 31; 195 20; 196 3; 202 1; 
203 1; 204 1; 205 1; 206 2; 207 2; 
220 1; 228 1; 234 1; 236 24; 237 6; 
248 1; 265 516; 266 111; 267 12; 268 1; 
278 3; 290 1; 292 4; 304 1; 306 11; 
307 4; 392 4; 393 1; 
