Name: MDAI di-TMS Derivative
Synon: 5,6-Methylenedioxy-2-aminoindane di-TMS derivative
InChIKey: SVMMTMQJRNIZCS-UHFFFAOYSA-N
Formula: C16H27NO2Si2
MW: 321
ExactMass: 321.158031
CASNO: 0
ID: 2411
Comment: ENFSI / Reference obtained in Thailand by Michael Bovens Forensisches Institut Zu%rich
Num Peaks: 219
42 4; 43 77; 44 5; 45 146; 46 12; 
47 15; 50 5; 51 4; 52 2; 53 3; 
55 2; 56 2; 57 1; 58 3; 59 39; 
60 1; 61 4; 63 5; 65 6; 67 1; 
69 2; 70 5; 72 5; 73 900; 74 76; 
75 68; 76 7; 77 23; 78 9; 79 2; 
81 3; 83 4; 84 2; 85 3; 86 3; 
87 1; 89 41; 90 9; 91 32; 92 7; 
93 9; 95 3; 98 1; 99 4; 100 106; 
101 14; 102 86; 103 50; 104 11; 105 15; 
106 2; 107 4; 109 4; 110 1; 112 1; 
113 4; 114 8; 115 47; 116 19; 117 18; 
118 9; 119 17; 120 5; 121 4; 122 1; 
123 1; 124 1; 127 2; 128 15; 129 10; 
130 129; 131 57; 132 36; 133 27; 134 5; 
135 16; 136 2; 139 1; 140 1; 141 1; 
142 1; 143 3; 144 5; 145 21; 146 23; 
147 166; 148 144; 149 102; 150 22; 151 9; 
152 1; 153 1; 155 1; 156 4; 157 4; 
158 13; 159 30; 160 770; 161 132; 162 13; 
163 40; 164 3; 165 5; 166 4; 170 3; 
171 8; 172 424; 173 92; 174 91; 175 45; 
176 51; 177 87; 178 25; 179 69; 180 13; 
181 3; 182 1; 184 3; 185 7; 186 9; 
187 10; 188 48; 189 66; 190 46; 191 229; 
192 100; 193 94; 194 35; 195 3; 196 1; 
197 7; 198 2; 199 4; 200 1; 201 3; 
202 50; 203 24; 204 31; 205 49; 206 298; 
207 277; 208 54; 209 21; 210 6; 212 2; 
213 1; 214 1; 215 3; 216 25; 217 22; 
218 74; 219 18; 220 8; 221 50; 222 115; 
223 24; 224 9; 225 4; 226 1; 228 1; 
229 1; 230 10; 231 21; 232 713; 233 156; 
234 43; 235 10; 236 4; 237 1; 245 3; 
246 40; 247 23; 248 145; 249 30; 250 88; 
251 18; 252 4; 254 1; 256 1; 258 2; 
260 13; 261 18; 262 11; 263 8; 264 2; 
266 1; 274 1; 275 4; 276 19; 277 9; 
278 16; 279 5; 280 1; 288 2; 289 1; 
290 27; 291 32; 292 18; 293 4; 294 3; 
295 1; 302 1; 303 1; 304 19; 305 9; 
306 429; 307 113; 308 48; 309 9; 310 2; 
311 1; 318 2; 319 5; 320 23; 321 999; 
322 332; 323 119; 324 20; 325 2; 
