Name: Dimethocaine
InChIKey: OWQIUQKMMPDHQQ-UHFFFAOYSA-N
Formula: C16H26N2O2
MW: 278
ExactMass: 278.199429
CASNO: 94155
ID: 2414
Comment: ENFSI / NFI case sample
Num Peaks: 53
38 1; 39 8; 40 1; 41 12; 42 15; 
43 4; 44 6; 51 1; 52 1; 53 2; 
54 2; 55 8; 56 18; 57 7; 58 42; 
59 1; 63 3; 64 4; 65 33; 66 4; 
68 1; 69 2; 70 4; 71 1; 72 7; 
77 1; 82 1; 84 8; 86 999; 87 58; 
88 1; 90 1; 91 5; 92 43; 93 4; 
94 1; 98 4; 106 6; 112 2; 113 1; 
120 127; 121 10; 124 1; 126 6; 127 1; 
128 4; 137 15; 138 2; 142 1; 158 1; 
249 1; 278 6; 279 1; 
