Name: BMDB
Synon: 1-(1,3-benzodioxol-5-yl)-2-(benzylamino)butan-1-one
InChIKey: ROBPFIVMZCNMJW-UHFFFAOYSA-N
Formula: C18H19NO3
MW: 297
ExactMass: 297.136494
CASNO: 0
ID: 2426
Comment: ENFSI / FSS
Num Peaks: 77
29 3; 30 2; 32 3; 38 1; 39 17; 
40 2; 41 8; 42 3; 43 1; 44 1; 
50 4; 51 11; 52 2; 53 4; 54 2; 
55 3; 56 5; 61 1; 62 10; 63 41; 
64 7; 65 121; 66 8; 68 1; 69 1; 
70 2; 74 1; 75 1; 76 2; 77 12; 
78 4; 79 5; 89 15; 91 999; 92 86; 
93 4; 102 1; 103 4; 104 5; 105 9; 
106 5; 107 1; 115 1; 117 4; 118 5; 
119 5; 120 3; 121 51; 122 6; 130 2; 
131 1; 132 19; 133 3; 134 70; 135 12; 
136 1; 140 3; 146 11; 148 843; 149 179; 
150 13; 151 1; 152 2; 153 1; 174 1; 
177 2; 178 1; 190 1; 191 1; 192 1; 
207 1; 211 1; 240 1; 265 1; 268 3; 
279 1; 281 1; 
