Name: BMDP
Synon: 1-(1,3-benzodioxol-5-yl)-2-(benzylamino)propan-1-one
InChIKey: KRNIYOJEASBDDP-UHFFFAOYSA-N
Formula: C17H17NO3
MW: 283
ExactMass: 283.120844
CASNO: 0
ID: 2427
Comment: ENFSI / FSS Huntingdon
Num Peaks: 68
37 1; 38 2; 39 19; 40 1; 41 5; 
42 6; 43 1; 44 1; 50 5; 51 14; 
52 4; 53 6; 54 1; 55 3; 56 4; 
57 1; 61 2; 62 15; 63 57; 64 10; 
65 156; 66 9; 67 1; 74 2; 75 2; 
76 3; 77 14; 78 4; 79 6; 89 19; 
91 999; 92 90; 93 5; 102 1; 103 4; 
104 6; 105 10; 106 6; 107 1; 115 1; 
116 1; 117 5; 118 6; 119 6; 120 5; 
121 65; 122 8; 130 2; 132 24; 134 939; 
135 107; 136 5; 140 2; 146 1; 147 1; 
149 96; 150 10; 151 2; 152 3; 153 1; 
177 2; 178 3; 181 1; 211 2; 268 1; 
281 1; 282 1; 284 1; 
