Name: Iso-mephedrone
Synon: 1-(4-methylphenyl)-1-methylaminopropan-2-one
InChIKey: YYAJPXVZVYGQIQ-UHFFFAOYSA-N
Formula: C11H15NO
MW: 177
ExactMass: 177.115364
CASNO: 0
ID: 2429
Comment: ENFSI / Dr Pierce Kavanagh of Trinity College, Dublin synthesised the standards for FSL, Dublin
Num Peaks: 58
40 1; 41 7; 42 278; 43 29; 44 2; 
50 5; 51 12; 52 5; 53 3; 54 1; 
56 1; 58 1; 62 4; 63 14; 64 4; 
65 33; 66 5; 74 3; 75 3; 76 4; 
77 33; 78 13; 79 7; 80 2; 86 2; 
87 1; 88 1; 89 18; 90 10; 91 94; 
92 11; 93 8; 94 1; 101 1; 102 6; 
103 17; 104 8; 105 16; 106 2; 115 5; 
116 14; 117 27; 118 54; 119 14; 120 1; 
128 1; 129 1; 130 5; 131 5; 132 80; 
133 26; 134 999; 135 99; 136 4; 145 1; 
147 3; 148 1; 160 2; 
