Name: MDP2P methyl glycidate
Synon: Methyl 3-[3',4'-(methylenedioxy)phenyl]-2-methyl glycidate
Synon: PMK methyl glycidate
InChIKey: NEWFBAYQRLTJTP-UHFFFAOYSA-N
Formula: C12H12O5
MW: 236
ExactMass: 236.068474
CASNO: 13605486
ID: 2430
Comment: ENFSI / NFI case sample; MS & NMR identified: Collins et. al., J.For.Sci., 24(4) 2007, 898-903
Num Peaks: 119
37 4; 38 21; 39 60; 40 6; 41 14; 
42 10; 43 236; 44 10; 45 6; 49 4; 
50 173; 51 87; 52 22; 53 57; 54 7; 
55 15; 56 1; 57 1; 59 36; 60 2; 
61 10; 62 43; 63 128; 64 37; 65 176; 
66 19; 67 5; 68 1; 69 3; 73 4; 
74 50; 75 52; 76 470; 77 101; 78 36; 
79 23; 80 5; 81 6; 83 4; 85 1; 
86 2; 87 4; 88 4; 89 45; 90 12; 
91 222; 92 30; 93 60; 94 6; 95 2; 
101 3; 102 16; 103 32; 104 267; 105 61; 
106 7; 107 16; 108 2; 115 1; 117 4; 
118 7; 119 135; 120 19; 121 63; 122 11; 
123 12; 124 1; 129 1; 130 2; 131 11; 
132 3; 133 17; 134 462; 135 95; 136 8; 
137 3; 145 6; 146 4; 147 210; 148 54; 
149 502; 150 147; 151 89; 152 7; 153 1; 
159 12; 160 24; 161 10; 162 92; 163 17; 
164 7; 165 999; 166 105; 167 11; 168 1; 
173 1; 175 16; 176 88; 177 144; 178 17; 
179 26; 180 3; 189 4; 193 12; 194 55; 
195 6; 203 1; 204 23; 205 6; 206 1; 
207 3; 208 1; 219 1; 220 23; 221 4; 
235 1; 236 88; 237 11; 238 2; 
