Name: N-acetyl-4-methylamphetamine
InChIKey: KBTGJRGRKGZEDR-UHFFFAOYSA-N
Formula: C12H17NO
MW: 191
ExactMass: 191.131014
CASNO: 0
ID: 2434
Comment: ENFSI / NFI inhouse synthesis JH032010
Num Peaks: 80
38 2; 39 25; 40 5; 41 15; 42 37; 
43 151; 44 999; 45 32; 50 7; 51 27; 
52 10; 53 13; 54 1; 55 3; 56 6; 
57 9; 58 2; 60 10; 61 1; 62 4; 
63 15; 64 6; 65 21; 66 3; 69 2; 
70 3; 71 1; 72 1; 74 2; 75 3; 
76 5; 77 92; 78 34; 79 57; 80 4; 
86 229; 87 13; 88 3; 89 15; 90 3; 
91 81; 92 10; 93 2; 95 3; 99 1; 
101 2; 102 10; 103 57; 104 33; 105 189; 
106 39; 107 3; 108 1; 114 1; 115 47; 
116 18; 117 191; 118 22; 119 4; 121 1; 
126 1; 127 4; 128 8; 129 8; 130 9; 
131 41; 132 899; 133 102; 134 26; 135 3; 
144 2; 146 1; 147 6; 148 9; 149 2; 
160 1; 176 1; 177 1; 191 11; 192 1; 
