Name: N-acetyl-4-methylmethamphetamine
Synon: N-acetyl-4-methylmethamfetamine
InChIKey: KHVGPNAPQHMDCK-UHFFFAOYSA-N
Formula: C13H19NO
MW: 205
ExactMass: 205.146665
CASNO: 0
ID: 2435
Comment: ENFSI / NFI in house synthesis, JH2 052010
Num Peaks: 71
38 1; 39 15; 40 2; 41 11; 42 53; 
43 100; 44 5; 50 4; 51 15; 52 6; 
53 8; 54 4; 55 4; 56 56; 57 23; 
58 999; 59 36; 62 2; 63 10; 64 2; 
65 15; 66 1; 70 1; 71 5; 72 1; 
74 15; 75 2; 76 3; 77 53; 78 19; 
79 29; 80 2; 89 8; 90 2; 91 37; 
92 4; 93 1; 99 2; 100 507; 101 31; 
102 8; 103 31; 104 16; 105 88; 106 11; 
107 1; 115 29; 116 11; 117 53; 118 7; 
119 1; 127 2; 128 5; 129 5; 130 5; 
131 13; 132 126; 133 21; 134 1; 144 2; 
145 2; 146 7; 147 4; 148 10; 149 1; 
160 1; 161 2; 162 6; 163 1; 205 6; 
206 1; 
