Name: 2-Methylamphetamine
InChIKey: ZEMQBDFHXOOXLY-UHFFFAOYSA-N
Formula: C10H15N
MW: 149
ExactMass: 149.120449
CASNO: 5580325
ID: 2436
Comment: ENFSI / NFI inhouse synthesis, JH032010
Num Peaks: 57
38 2; 39 19; 40 3; 41 7; 42 30; 
43 13; 44 999; 45 28; 50 8; 51 22; 
52 8; 53 9; 54 2; 56 2; 57 3; 
59 2; 60 1; 62 4; 63 15; 64 4; 
65 22; 66 5; 67 2; 74 2; 75 2; 
76 3; 77 52; 78 23; 79 26; 80 2; 
86 1; 89 9; 90 3; 91 55; 92 4; 
93 1; 102 5; 103 26; 104 14; 105 45; 
106 12; 107 1; 115 15; 116 6; 117 13; 
118 6; 119 3; 127 1; 128 2; 129 1; 
130 3; 131 3; 132 4; 133 1; 134 8; 
147 1; 148 2; 
