Name: 4-Methyl-N-ethylcathinone Acetyl derivative
Synon: 4-MEC AC
InChIKey: SOMZWJRDNXHBKD-UHFFFAOYSA-N
Formula: C14H19NO2
MW: 233
ExactMass: 233.141579
CASNO: 0
ID: 2453
Comment: ENFSI
Num Peaks: 75
38 1; 39 19; 40 3; 41 12; 42 39; 
43 113; 44 127; 45 4; 50 5; 51 10; 
52 3; 53 2; 54 3; 55 8; 56 48; 
57 4; 58 1; 62 3; 63 17; 64 5; 
65 78; 66 4; 68 2; 69 1; 70 17; 
71 10; 72 999; 73 47; 74 2; 75 1; 
76 1; 77 7; 78 1; 79 1; 85 1; 
86 1; 87 1; 89 22; 90 10; 91 126; 
92 11; 93 2; 102 1; 103 3; 104 1; 
105 6; 113 4; 114 577; 115 44; 116 4; 
117 4; 118 2; 119 81; 120 7; 128 1; 
130 1; 131 2; 132 1; 133 3; 134 1; 
144 1; 145 1; 146 3; 147 2; 148 12; 
149 1; 160 1; 161 1; 162 3; 174 1; 
175 1; 176 2; 190 7; 191 1; 233 1; 
