Name: 3,5-Dichloromethcathinone
InChIKey: JHEMILNWPCQARX-UHFFFAOYSA-N
Formula: C10H11Cl2NO
MW: 231
ExactMass: 231.02177
CASNO: 0
ID: 2456
Comment: QHFSS Lab
Num Peaks: 78
40 1; 41 10; 42 40; 43 25; 44 2; 
49 1; 50 12; 51 3; 52 1; 53 2; 
54 4; 55 6; 56 70; 57 16; 58 999; 
59 35; 60 1; 61 2; 62 2; 63 4; 
73 8; 74 45; 75 48; 76 3; 77 2; 
84 8; 85 7; 86 4; 87 4; 89 1; 
90 1; 97 1; 98 1; 99 1; 101 2; 
102 3; 103 2; 108 3; 109 63; 110 17; 
111 25; 112 5; 113 3; 119 1; 123 2; 
125 1; 136 1; 137 1; 138 1; 139 1; 
145 69; 146 7; 147 43; 148 4; 149 8; 
150 1; 159 2; 161 1; 165 1; 166 1; 
167 2; 173 24; 174 3; 175 15; 176 1; 
177 2; 180 2; 181 7; 182 1; 183 2; 
188 1; 195 1; 200 1; 202 1; 215 1; 
216 2; 217 1; 218 1; 
