Name: 3', 4', 5'-Trimethoxytropacocaine
InChIKey: DJIVYOZJUUNZBB-UHFFFAOYSA-N
Formula: C18H25NO5
MW: 335
ExactMass: 335.173273
CASNO: 0
ID: 2462
Comment: DEA SFL1
Num Peaks: 110
38 6; 39 15; 40 1; 41 41; 42 109; 
43 10; 44 22; 45 5; 50 5; 51 6; 
52 4; 53 28; 54 12; 55 34; 56 18; 
57 22; 58 7; 59 2; 62 3; 63 7; 
64 3; 65 17; 66 35; 67 130; 68 25; 
69 11; 70 14; 71 2; 75 3; 76 8; 
77 30; 78 10; 79 13; 80 13; 81 135; 
82 462; 83 257; 84 33; 85 2; 89 2; 
91 13; 92 14; 93 19; 94 280; 95 137; 
96 98; 97 38; 98 8; 99 2; 104 1; 
105 3; 106 6; 107 14; 108 26; 109 28; 
110 10; 111 6; 112 3; 115 3; 117 2; 
119 1; 120 4; 121 7; 122 48; 123 108; 
124 999; 125 95; 126 9; 127 2; 131 1; 
132 2; 134 5; 135 4; 136 3; 137 27; 
138 4; 139 7; 140 69; 141 12; 149 2; 
150 4; 151 7; 152 18; 153 4; 154 6; 
155 2; 163 2; 165 4; 166 3; 167 6; 
168 5; 169 5; 179 1; 181 4; 182 10; 
183 1; 195 62; 196 8; 197 13; 198 5; 
207 2; 212 56; 213 7; 238 2; 250 2; 
281 1; 283 3; 335 90; 336 17; 337 3; 
