Name: 3', 4', 5'-Trimethoxycocaethylene
InChIKey: AUSJAVSFGGMZCD-UHFFFAOYSA-N
Formula: C21H29NO7
MW: 407
ExactMass: 407.194403
CASNO: 0
ID: 2464
Comment: DEA SFL1
Num Peaks: 130
38 4; 39 17; 40 6; 41 26; 42 122; 
43 15; 44 34; 45 6; 50 9; 51 8; 
52 6; 53 42; 54 12; 55 53; 56 22; 
57 41; 58 9; 59 7; 62 2; 63 7; 
64 4; 65 23; 66 36; 67 53; 68 39; 
69 15; 70 17; 71 4; 73 6; 74 3; 
75 2; 76 13; 77 50; 78 18; 79 31; 
80 20; 81 175; 82 999; 83 406; 84 41; 
85 7; 86 3; 87 3; 89 2; 91 46; 
92 24; 93 40; 94 341; 95 63; 96 192; 
97 128; 98 11; 99 3; 103 1; 104 3; 
105 4; 106 15; 107 33; 108 58; 109 46; 
110 19; 111 15; 112 3; 113 3; 115 3; 
117 4; 118 3; 119 27; 120 18; 121 16; 
122 109; 123 23; 124 30; 125 5; 126 8; 
131 3; 132 4; 133 2; 134 10; 135 10; 
136 6; 137 50; 138 19; 139 15; 140 15; 
141 13; 147 1; 148 6; 149 5; 150 26; 
151 13; 152 47; 153 8; 154 8; 155 2; 
165 6; 166 53; 167 23; 168 32; 169 32; 
170 4; 177 1; 179 5; 180 7; 181 8; 
182 12; 183 3; 189 3; 191 1; 193 4; 
194 11; 195 280; 196 884; 197 126; 198 15; 
204 7; 208 3; 209 1; 212 242; 213 28; 
214 3; 250 7; 283 1; 326 3; 362 47; 
363 12; 392 2; 407 141; 408 32; 409 5; 
