Name: 3', 4', 5'-Trimethoxycocaine
InChIKey: QXCDXRYKFKIOPT-UHFFFAOYSA-N
Formula: C20H27NO7
MW: 393
ExactMass: 393.178753
CASNO: 0
ID: 2465
Comment: DEA SFL1
Num Peaks: 131
38 5; 39 18; 40 2; 41 30; 42 111; 
43 13; 44 24; 45 12; 50 7; 51 9; 
52 6; 53 43; 54 11; 55 45; 56 18; 
57 34; 58 7; 59 39; 62 2; 63 7; 
64 3; 65 27; 66 36; 67 38; 68 35; 
69 15; 70 16; 71 6; 72 2; 73 1; 
74 1; 75 4; 76 10; 77 44; 78 18; 
79 32; 80 23; 81 159; 82 864; 83 351; 
84 39; 85 5; 91 41; 92 22; 93 45; 
94 320; 95 57; 96 197; 97 111; 98 11; 
99 5; 100 3; 103 3; 104 4; 105 6; 
106 16; 107 25; 108 50; 109 44; 110 16; 
111 8; 113 2; 114 2; 115 1; 117 2; 
118 5; 119 30; 120 17; 121 13; 122 93; 
123 21; 124 23; 125 8; 126 7; 131 2; 
132 3; 133 4; 134 7; 135 10; 136 7; 
137 49; 138 9; 139 14; 140 7; 141 10; 
147 2; 148 4; 149 5; 150 21; 151 14; 
152 77; 153 14; 154 22; 155 32; 156 3; 
163 3; 165 5; 166 22; 167 13; 168 7; 
169 7; 177 1; 179 5; 180 13; 181 76; 
182 999; 183 113; 184 10; 191 1; 192 2; 
193 3; 195 194; 196 29; 197 30; 198 113; 
199 12; 207 2; 212 117; 213 14; 214 2; 
249 2; 250 6; 312 4; 355 2; 362 33; 
363 6; 364 2; 378 3; 393 168; 394 39; 
395 6; 
