Name: Ecgonidine
Synon: (1R)-8-Methyl-8-azabicyclo[3.2.1]oct-2-ene-2-carboxylic acid
Synon: 8-Methyl-8-azabicyclo[3.2.1]oct-2-ene-2-carboxylic acid
Synon: Anhydroecgonine
Synon: 8-Azabicyclo[3.2.1]oct-2-ene-2-carboxylic acid, 8-methyl-, (1R)-
InChIKey: HZGRVVUQEIBCMS-UHFFFAOYSA-N
Formula: C9H13NO2
MW: 167
ExactMass: 167.094628
CASNO: 484935
ID: 2468
Comment: DEA SFL1
Num Peaks: 61
36 37; 38 25; 39 86; 40 21; 41 71; 
42 275; 43 17; 44 69; 45 31; 50 27; 
51 63; 52 30; 53 55; 54 34; 55 70; 
56 43; 57 100; 58 12; 63 22; 65 50; 
66 28; 67 45; 68 71; 69 17; 70 14; 
77 90; 78 33; 79 51; 80 39; 81 48; 
82 185; 83 26; 91 62; 92 61; 93 43; 
94 100; 95 13; 96 22; 105 53; 106 67; 
107 30; 108 48; 109 12; 118 13; 120 72; 
121 13; 122 159; 123 13; 134 31; 135 11; 
136 11; 138 999; 139 142; 140 14; 147 10; 
148 20; 150 11; 152 80; 166 21; 167 241; 
168 26; 
