Name: Norcocaine
Synon: Methyl 3-(benzoyloxy)-8-azabicyclo[3.2.1]octane-2-carboxylate
Synon: 1-.alpha.-H,5-.alpha.-H-Nortropane-2-.beta.-carboxylic acid, 3-.beta.-hydroxy-, methyl ester,benzoate
InChIKey: AYDBLCSLKNTEJL-UHFFFAOYSA-N
Formula: C16H19NO4
MW: 289
ExactMass: 289.131409
CASNO: 18717721
ID: 2469
Comment: DEA SFL1
Num Peaks: 62
39 36; 40 16; 41 90; 42 35; 43 29; 
44 79; 50 20; 51 81; 52 23; 53 38; 
54 38; 55 46; 56 22; 59 31; 65 15; 
66 16; 67 85; 68 445; 69 119; 70 18; 
75 12; 76 12; 77 270; 78 41; 79 47; 
80 190; 81 81; 82 211; 83 126; 84 11; 
91 37; 93 20; 94 48; 95 19; 96 33; 
97 12; 100 33; 105 263; 106 58; 107 24; 
108 289; 109 39; 110 14; 118 11; 119 18; 
122 23; 123 22; 124 24; 136 392; 137 29; 
138 38; 141 38; 152 20; 166 16; 167 21; 
168 999; 169 86; 182 36; 207 23; 281 11; 
289 54; 290 15; 
