Name: URB447
Synon: [4-amino-1-[(4-chlorophenyl)methyl]-2-methyl-5-phenyl-1H-pyrrol-3-yl]phenyl-methanone
InChIKey: KGXYGMKEFDUWNB-UHFFFAOYSA-N
Formula: C25H21ClN2O
MW: 400
ExactMass: 400.134241
CASNO: 1132922576
ID: 2574
Comment: Provided by www.caymanchem.com/app/template/landing%2CForensic.vm / Item #13261  Lot #0435427
Num Peaks: 89
40 18; 44 3; 50 14; 51 49; 52 15; 
63 26; 65 19; 66 122; 67 236; 68 16; 
73 16; 75 24; 77 349; 78 21; 79 12; 
88 10; 89 133; 90 48; 91 26; 96 1; 
99 42; 101 29; 102 16; 103 29; 104 67; 
105 929; 106 65; 115 55; 116 16; 117 18; 
125 280; 126 37; 127 182; 128 118; 129 28; 
130 18; 131 14; 135 14; 143 21; 144 14; 
154 17; 155 14; 156 114; 157 13; 169 45; 
170 57; 171 17; 178 15; 191 5; 195 12; 
197 129; 198 39; 203 10; 204 20; 205 15; 
206 41; 207 20; 208 2; 209 5; 217 11; 
221 13; 230 47; 231 19; 232 13; 234 18; 
245 26; 256 19; 257 36; 258 95; 259 33; 
260 18; 267 14; 269 10; 272 12; 273 57; 
274 112; 275 999; 276 224; 277 16; 281 4; 
283 12; 295 12; 341 5; 365 12; 400 702; 
401 209; 402 277; 403 60; 404 16; 
