Name: RCS-8 3-methoxy isomer
Synon: 1-(1-(2-cyclohexylethyl)-1H-indol-3-yl)-2-(3-methoxyphenyl)ethanone
InChIKey: RPDBGECJZVHHKG-UHFFFAOYSA-N
Formula: C25H29NO2
MW: 375
ExactMass: 375.21983
CASNO: 0
ID: 2575
Comment: Provided by www.caymanchem.com/app/template/landing%2CForensic.vm / Item #10864  Lot #0429789
Num Peaks: 131
41 57; 42 2; 43 8; 50 1; 51 3; 
52 3; 53 8; 55 82; 56 5; 57 3; 
63 4; 65 10; 66 1; 67 10; 69 61; 
70 3; 74 1; 75 2; 76 2; 77 15; 
78 18; 79 6; 81 3; 83 4; 87 1; 
88 3; 89 14; 90 3; 91 25; 92 2; 
95 1; 101 4; 102 15; 103 7; 104 1; 
105 1; 106 2; 107 1; 108 1; 109 1; 
111 1; 114 4; 115 20; 116 31; 117 5; 
119 8; 121 34; 122 4; 123 1; 125 2; 
126 9; 127 1; 128 11; 129 39; 130 30; 
131 5; 132 2; 133 1; 136 1; 140 25; 
141 1; 143 24; 144 142; 145 14; 146 1; 
151 1; 152 2; 154 1; 155 1; 156 2; 
157 9; 158 26; 159 3; 164 1; 165 2; 
166 1; 167 3; 168 2; 170 9; 171 1; 
176 1; 178 1; 179 1; 180 1; 181 1; 
182 1; 184 1; 190 1; 191 2; 192 3; 
193 2; 194 2; 198 1; 203 1; 204 5; 
205 3; 206 1; 217 2; 218 2; 219 1; 
220 2; 221 2; 222 2; 223 1; 224 1; 
226 2; 232 1; 233 2; 234 2; 235 1; 
236 4; 240 1; 248 1; 249 2; 250 2; 
252 6; 254 999; 255 185; 256 18; 257 1; 
262 1; 264 1; 278 7; 279 2; 328 1; 
343 1; 346 1; 359 1; 375 26; 376 9; 
377 1; 
