Name: AM1241
Synon: (2-iodo-5-nitrophenyl)-(1-(1-methylpiperidin-2-ylmethyl)-1H-indol-3-yl)methanone
InChIKey: ZUHIXXCLLBMBDW-UHFFFAOYSA-N
Formula: C22H22IN3O3
MW: 503
ExactMass: 503.07059
CASNO: 444912485
ID: 2586
Comment: Provided by www.caymanchem.com/app/template/landing%2CForensic.vm / Item #10010118  Lot #204996
Num Peaks: 119
41 12; 42 43; 43 4; 44 11; 50 2; 
51 2; 52 1; 53 3; 54 3; 55 14; 
56 7; 57 3; 58 1; 62 1; 63 2; 
65 1; 66 1; 67 4; 68 12; 70 87; 
71 3; 73 1; 74 2; 75 12; 76 4; 
77 3; 78 2; 79 1; 80 2; 81 3; 
82 12; 83 5; 84 10; 87 1; 88 3; 
89 3; 91 1; 94 6; 96 33; 98 999; 
99 66; 100 3; 101 4; 102 11; 103 5; 
104 1; 108 1; 110 4; 111 3; 112 2; 
113 1; 114 3; 115 6; 116 3; 126 1; 
127 6; 128 13; 129 17; 130 5; 133 1; 
135 1; 137 1; 139 1; 140 1; 143 3; 
144 4; 149 1; 150 2; 151 4; 152 1; 
153 1; 154 3; 155 1; 156 2; 157 6; 
158 2; 162 1; 163 4; 164 2; 165 2; 
167 2; 168 1; 170 1; 174 1; 175 2; 
176 9; 177 4; 178 1; 184 1; 188 1; 
189 2; 190 4; 191 3; 192 1; 197 1; 
201 2; 202 8; 203 14; 204 10; 205 1; 
216 1; 218 1; 219 1; 220 1; 225 1; 
230 7; 231 3; 232 2; 249 1; 253 1; 
255 1; 276 7; 277 1; 342 1; 359 8; 
360 1; 392 1; 405 12; 406 3; 
