Name: 3-epi CP 47,497-C8-homolog
Synon: rel-2-[(1S,3S)-3-hydroxycyclohexyl]-5-(2-methylnonan-2-yl)phenol
InChIKey: HNMJDLVMIUDJNH-HKUYNNGSSA-N
Formula: C22H36O2
MW: 332
ExactMass: 332.27153
CASNO: 0
ID: 2591
Comment: Provided by www.caymanchem.com/app/template/landing%2CForensic.vm / Item #10918  Lot #0428461
Num Peaks: 166
41 140; 42 16; 43 147; 44 14; 45 2; 
51 5; 53 22; 55 86; 56 9; 57 97; 
58 4; 63 2; 65 13; 66 3; 67 19; 
69 39; 70 4; 71 23; 72 2; 73 2; 
76 2; 77 35; 78 9; 79 58; 81 158; 
82 11; 83 11; 84 1; 85 18; 86 4; 
89 4; 91 64; 92 7; 93 12; 94 4; 
95 13; 96 2; 97 31; 98 5; 99 5; 
100 2; 102 4; 103 17; 104 5; 105 37; 
107 100; 108 8; 109 4; 115 40; 116 14; 
117 32; 118 7; 119 22; 120 10; 121 43; 
122 4; 127 16; 128 34; 129 25; 130 8; 
131 43; 132 14; 133 85; 134 17; 135 61; 
136 12; 137 2; 139 2; 141 19; 142 8; 
143 13; 144 12; 145 46; 146 15; 147 103; 
148 32; 149 10; 150 1; 152 6; 153 9; 
154 5; 155 9; 156 3; 157 21; 158 14; 
159 37; 160 16; 161 132; 162 24; 163 6; 
164 1; 165 6; 166 2; 167 3; 168 1; 
169 6; 170 4; 171 27; 172 20; 173 43; 
174 17; 175 12; 176 4; 177 3; 178 3; 
181 3; 182 2; 183 4; 184 2; 185 17; 
187 71; 188 13; 189 8; 190 2; 191 4; 
195 1; 197 4; 199 12; 200 9; 201 44; 
202 6; 203 7; 204 1; 205 2; 208 1; 
209 11; 210 2; 211 8; 212 2; 213 27; 
215 999; 216 243; 217 36; 218 3; 219 12; 
220 1; 227 2; 228 4; 229 4; 231 85; 
233 865; 234 153; 235 16; 236 1; 243 5; 
244 5; 247 5; 257 3; 258 11; 259 3; 
260 36; 261 8; 271 6; 272 2; 281 1; 
287 4; 299 5; 312 5; 314 128; 315 34; 
316 5; 317 4; 330 16; 332 105; 333 23; 
334 4; 
