Name: 3-Methoxymethcathinone
Synon: 3-MMC
Synon: 1-(3-methoxyphenyl)-2-(methylamino)propan-1-one
InChIKey: VAVRRUJYUFACKA-UHFFFAOYSA-N
Formula: C11H15NO2
MW: 193
ExactMass: 193.110279
CASNO: 0
ID: 2594
Comment: Provided by www.caymanchem.com/app/template/landing%2CForensic.vm / Item #9001187  Lot #0435064
Num Peaks: 69
40 2; 41 8; 42 37; 43 19; 44 2; 
50 15; 51 13; 52 3; 53 6; 54 3; 
55 6; 56 74; 58 999; 59 37; 61 1; 
62 7; 63 45; 64 53; 65 14; 66 3; 
73 1; 74 6; 75 6; 76 17; 77 86; 
78 16; 79 7; 80 1; 89 3; 90 1; 
91 8; 92 83; 93 8; 94 2; 102 1; 
103 3; 104 2; 105 3; 107 42; 108 9; 
109 2; 115 1; 117 1; 118 1; 119 2; 
120 2; 121 7; 122 1; 131 1; 132 1; 
133 3; 135 42; 136 5; 146 1; 147 2; 
148 2; 149 1; 150 3; 160 1; 161 1; 
162 3; 163 3; 164 3; 176 1; 177 2; 
178 5; 191 1; 192 1; 193 1; 
