Name: 2-Methoxymethcathinone
Synon: 2-MMC
Synon: 1-(2-methoxyphenyl)-2-(methylamino)propan-1-one
InChIKey: JKVDLNRJQFVERN-UHFFFAOYSA-N
Formula: C11H15NO2
MW: 193
ExactMass: 193.110279
CASNO: 0
ID: 2595
Comment: Provided by www.caymanchem.com/app/template/landing%2CForensic.vm / Item #9001186  Lot #0435100
Num Peaks: 68
40 2; 41 9; 42 34; 43 19; 44 3; 
50 15; 51 35; 52 5; 53 6; 54 4; 
55 7; 56 77; 58 999; 59 39; 61 2; 
62 7; 63 33; 64 28; 65 14; 66 2; 
71 1; 73 1; 74 6; 75 6; 76 16; 
77 134; 78 18; 79 11; 80 1; 89 3; 
90 1; 91 11; 92 65; 93 7; 94 3; 
102 2; 103 4; 104 2; 105 8; 106 2; 
107 3; 108 5; 109 1; 115 1; 117 1; 
118 2; 119 2; 120 9; 121 12; 122 1; 
131 3; 132 2; 133 1; 135 80; 136 8; 
144 1; 146 4; 147 4; 148 2; 150 3; 
160 4; 161 1; 162 3; 163 2; 164 1; 
178 3; 193 3; 194 1; 
