Name: Dibutylone
Synon: 1-(1,3-benzodioxol-5-yl)-2-(dimethylamino)-1-butanone
Synon: bk-DMBDB
Synon: Methylbutylone
InChIKey: USEBIPUIVPERGC-UHFFFAOYSA-N
Formula: C13H17NO3
MW: 235
ExactMass: 235.120843
CASNO: 17763121
ID: 2600
Comment: Provided by www.caymanchem.com/app/template/landing%2CForensic.vm / Item #9001125  Lot #0432924 / SWGDRUG Monograph available
Num Peaks: 74
40 2; 41 16; 42 72; 43 13; 44 24; 
45 1; 50 4; 51 7; 52 1; 53 7; 
54 2; 55 7; 56 33; 57 3; 58 14; 
61 2; 62 16; 63 46; 64 6; 65 58; 
66 5; 67 1; 68 7; 69 7; 70 34; 
71 107; 72 6; 74 3; 75 1; 76 1; 
77 7; 78 1; 79 3; 82 1; 84 29; 
86 999; 87 59; 88 2; 89 2; 90 1; 
91 18; 92 3; 103 2; 104 1; 105 2; 
115 1; 117 1; 118 1; 119 4; 121 33; 
122 4; 131 1; 132 1; 135 9; 136 1; 
145 1; 146 1; 147 3; 149 40; 150 4; 
160 1; 162 1; 175 2; 176 1; 177 1; 
178 3; 188 1; 190 2; 191 1; 192 1; 
204 3; 205 1; 206 4; 233 1; 
