Name: AM251
Synon: 1-(2,4-dichlorophenyl)-5-(4-iodophenyl)-4-methyl-N-1-piperidinyl-1H-pyrazole-3-carboxamide
InChIKey: BUZAJRPLUGXRAB-UHFFFAOYSA-N
Formula: C22H21Cl2IN4O
MW: 554
ExactMass: 554.013714
CASNO: 183232668
ID: 2614
Comment: Provided by www.caymanchem.com/app/template/landing%2CForensic.vm / Item #71760  Lot #0412637
Num Peaks: 204
40 2; 41 69; 42 50; 43 11; 44 15; 
45 17; 50 12; 51 11; 52 1; 53 3; 
54 19; 55 211; 56 38; 57 32; 63 11; 
67 2; 68 5; 69 3; 70 11; 71 1; 
73 11; 74 10; 75 40; 76 39; 77 25; 
78 11; 80 6; 82 54; 83 174; 84 999; 
85 73; 86 1; 87 3; 88 5; 89 7; 
91 1; 96 5; 97 3; 98 4; 99 236; 
100 20; 101 6; 102 50; 103 30; 104 1; 
105 1; 109 41; 110 15; 111 18; 112 3; 
113 3; 114 14; 115 14; 119 5; 124 3; 
125 1; 126 10; 127 50; 128 91; 129 91; 
130 5; 132 1; 133 12; 135 8; 136 6; 
137 2; 140 51; 141 9; 145 52; 146 2; 
147 40; 148 4; 149 10; 150 8; 151 6; 
152 2; 153 3; 154 2; 155 6; 156 3; 
160 27; 161 3; 162 26; 163 16; 164 6; 
165 2; 166 1; 171 7; 172 7; 173 7; 
174 9; 175 6; 176 17; 177 71; 178 12; 
179 4; 180 11; 186 1; 188 1; 189 10; 
191 8; 193 27; 195 2; 197 5; 198 7; 
200 6; 201 9; 202 15; 203 38; 204 17; 
205 2; 207 1; 209 4; 210 1; 211 7; 
212 9; 213 6; 214 2; 223 10; 224 1; 
225 9; 227 6; 228 7; 229 83; 230 44; 
231 4; 237 6; 238 35; 239 14; 240 11; 
241 3; 247 41; 248 15; 249 46; 250 17; 
251 7; 252 2; 253 7; 254 5; 255 6; 
256 42; 257 1; 263 39; 264 41; 265 48; 
266 31; 267 19; 268 8; 269 4; 272 1; 
274 3; 282 4; 283 7; 290 6; 291 37; 
292 50; 293 10; 294 8; 299 12; 300 49; 
301 20; 302 30; 303 5; 325 1; 327 15; 
328 60; 329 16; 330 42; 331 17; 332 5; 
341 3; 342 2; 343 2; 355 1; 374 52; 
375 3; 376 35; 377 2; 378 2; 391 16; 
392 2; 393 4; 405 1; 419 13; 420 3; 
421 4; 426 7; 427 23; 428 20; 429 16; 
430 4; 453 22; 454 76; 455 146; 456 82; 
457 120; 458 7; 459 16; 470 1; 471 34; 
472 20; 473 23; 474 11; 475 1; 
