Name: AM2232
Synon: 3-(1-naphthalenylcarbonyl)-1H-indole-1-pentanenitrile
InChIKey: VWVAIBKHFCUSMD-UHFFFAOYSA-N
Formula: C24H20N2O
MW: 352
ExactMass: 352.157564
CASNO: 335161198
ID: 2618
Comment: Provided by www.caymanchem.com/app/template/landing%2CForensic.vm / Item #11503  Lot #0436711
Num Peaks: 142
40 4; 41 48; 50 6; 51 29; 52 9; 
53 14; 54 27; 55 81; 62 8; 63 11; 
73 4; 74 11; 75 34; 76 21; 77 77; 
78 5; 82 13; 87 9; 88 21; 89 78; 
90 8; 98 7; 99 9; 100 11; 101 85; 
102 64; 103 19; 106 13; 107 7; 112 6; 
113 40; 114 43; 115 73; 116 181; 117 35; 
121 26; 125 16; 126 115; 127 654; 128 189; 
129 97; 130 31; 133 21; 135 16; 139 24; 
140 10; 142 113; 143 36; 144 324; 145 29; 
150 7; 151 6; 152 14; 153 10; 155 227; 
156 43; 157 21; 158 9; 163 15; 164 9; 
165 9; 167 179; 168 39; 169 10; 170 25; 
176 9; 178 6; 181 9; 182 7; 184 12; 
185 8; 186 6; 187 16; 188 8; 189 15; 
190 6; 191 1; 193 8; 197 11; 200 7; 
201 9; 202 14; 207 1; 211 19; 212 13; 
213 75; 214 42; 215 54; 216 16; 223 7; 
225 999; 226 205; 227 33; 228 19; 229 9; 
238 21; 239 22; 240 84; 241 154; 242 56; 
243 20; 251 7; 252 14; 253 53; 254 158; 
255 77; 256 100; 257 23; 266 38; 267 47; 
268 38; 269 115; 270 309; 271 69; 272 13; 
280 18; 281 3; 282 36; 283 39; 284 512; 
285 118; 286 18; 294 19; 295 13; 296 21; 
297 8; 298 13; 308 7; 309 8; 310 7; 
312 8; 323 17; 324 23; 325 11; 333 16; 
335 458; 336 133; 337 17; 351 489; 352 765; 
353 195; 354 31; 
