Name: 4-Fluoroethcathinone
InChIKey: KBNVGQPMFGSPPT-UHFFFAOYSA-N
Synon: 4-FEC
Synon: 2-(ethylamino)-1-(4-fluorophenyl)propan-1-one
Formula: C11H14FNO
MW: 195
ExactMass: 195.105943
CASNO: 0
ID: 2624
Comment: Provided by www.caymanchem.com/app/template/landing%2CForensic.vm / Item #11231  Lot #0434486 / SWGDRUG Monograph available
Num Peaks: 63
40 3; 41 13; 42 74; 44 401; 45 12; 
49 1; 50 17; 51 13; 52 1; 53 2; 
54 3; 55 9; 56 42; 57 12; 61 1; 
62 3; 63 5; 68 10; 69 18; 70 36; 
72 999; 73 52; 74 15; 75 88; 76 8; 
77 7; 81 1; 83 3; 92 1; 93 3; 
94 14; 95 157; 96 16; 97 5; 101 3; 
102 1; 103 8; 107 3; 108 1; 109 15; 
110 1; 115 1; 120 1; 121 2; 123 86; 
124 9; 125 1; 133 4; 134 1; 135 5; 
136 1; 148 1; 149 1; 150 8; 151 7; 
152 7; 153 1; 162 1; 164 1; 178 1; 
179 1; 180 4; 194 1; 
