Name: 3,4-Dimethylethcathinone
Synon: 3,4-DMEC
Synon: 1-(3,4-dimethylphenyl)-2-(ethylamino)propan-1-one
InChIKey: AOXOTNQJKCPNGK-UHFFFAOYSA-N
Formula: C13H19NO
MW: 205
ExactMass: 205.146665
CASNO: 0
ID: 2625
Comment: Provided by www.caymanchem.com/app/template/landing%2CForensic.vm / Item #11228  Lot #0434936
Num Peaks: 67
40 3; 41 10; 42 48; 44 198; 45 5; 
50 7; 51 18; 52 6; 53 10; 54 2; 
55 7; 56 29; 57 5; 62 2; 63 13; 
64 4; 65 11; 66 2; 68 2; 70 37; 
72 999; 73 48; 74 3; 75 2; 77 66; 
78 23; 79 43; 80 3; 86 1; 87 1; 
89 7; 90 3; 91 17; 92 1; 102 6; 
103 35; 104 11; 105 45; 106 5; 107 1; 
115 7; 116 2; 117 5; 118 2; 119 9; 
127 1; 128 2; 129 1; 130 1; 131 3; 
133 45; 134 6; 144 1; 145 2; 146 1; 
147 3; 158 1; 160 4; 161 2; 162 5; 
172 2; 174 1; 187 1; 188 1; 189 1; 
190 2; 205 1; 
