Name: 4-Ethyl-N,N-dimethylcathinone
Synon: 2-(dimethylamino)-1-(4-ethylphenyl)propan-1-one
InChIKey: IJXRTMSYZBTQFS-UHFFFAOYSA-N
Formula: C13H19NO
MW: 205
ExactMass: 205.146665
CASNO: 0
ID: 2630
Comment: Provided by www.caymanchem.com/app/template/landing%2CForensic.vm / Item #11207  Lot #0434033
Num Peaks: 61
40 2; 41 7; 42 53; 43 7; 44 38; 
45 1; 50 7; 51 15; 52 3; 53 4; 
54 4; 55 12; 56 46; 57 18; 58 2; 
62 3; 63 10; 64 3; 65 7; 66 1; 
68 1; 70 39; 72 999; 73 51; 74 3; 
75 3; 76 5; 77 41; 78 11; 79 26; 
80 2; 87 1; 89 18; 90 16; 91 10; 
102 4; 103 21; 104 7; 105 15; 106 2; 
115 4; 116 1; 117 3; 118 1; 119 5; 
128 1; 131 2; 133 19; 134 2; 144 1; 
145 1; 146 1; 147 1; 160 2; 161 1; 
162 2; 174 6; 175 1; 188 2; 190 1; 
203 1; 
