Name: Mitragynine
Synon: 9-Methoxy Corynantheidine
Synon: Kratom
Synon: 3-ethyl-1,2,3,4,6,7,12,12b-octahydro-8-methoxy-.alpha.-(methoxymethylene)-methyl ester, (.alpha.E,2S,3S,12bS)-indolo[2,3-a)quinolizine-2-acetic acid
InChIKey: LELBFTMXCIIKKX-LGMDPLHJSA-N
Formula: C23H30N2O4
MW: 398
ExactMass: 398.220558
CASNO: 4098402
ID: 2637
Comment: Provided by www.caymanchem.com/app/template/landing%2CForensic.vm / Item #11151  Lot #0435384 / SWGDRUG Monograph available
Num Peaks: 237
41 40; 42 53; 43 11; 44 10; 45 14; 
47 21; 51 8; 52 6; 53 19; 54 22; 
55 39; 56 10; 59 33; 63 9; 65 12; 
66 9; 67 19; 68 31; 69 25; 71 11; 
73 17; 75 161; 76 11; 77 38; 78 18; 
79 30; 80 12; 81 15; 82 19; 83 9; 
84 10; 85 21; 89 11; 90 9; 91 32; 
92 6; 93 14; 94 9; 95 31; 96 23; 
97 11; 98 6; 99 7; 101 9; 102 14; 
103 18; 104 7; 105 16; 107 18; 108 11; 
109 32; 110 15; 111 24; 112 6; 113 9; 
114 13; 115 47; 116 26; 117 24; 118 15; 
119 16; 120 13; 121 6; 122 10; 123 20; 
124 12; 125 14; 126 15; 127 39; 128 56; 
129 60; 130 69; 131 19; 132 16; 133 11; 
135 10; 136 11; 137 10; 138 19; 139 30; 
140 30; 141 54; 142 49; 143 45; 144 35; 
145 12; 146 16; 147 15; 148 6; 149 9; 
151 11; 152 21; 153 15; 154 64; 155 69; 
156 82; 157 54; 158 84; 159 37; 160 30; 
161 11; 166 16; 167 42; 168 37; 169 39; 
170 95; 171 75; 172 62; 173 41; 174 47; 
175 14; 176 8; 177 9; 178 6; 179 12; 
180 32; 181 16; 182 32; 183 89; 184 148; 
185 97; 186 311; 187 58; 188 10; 190 6; 
191 6; 192 18; 193 14; 194 9; 195 19; 
196 15; 197 47; 198 101; 199 350; 200 341; 
201 85; 202 20; 204 10; 205 10; 206 10; 
207 1; 208 7; 209 15; 210 23; 211 45; 
212 42; 214 999; 215 144; 216 21; 220 9; 
221 17; 222 30; 223 33; 224 23; 225 23; 
226 24; 227 53; 228 30; 234 7; 235 23; 
236 18; 237 14; 238 26; 239 116; 240 38; 
241 25; 248 7; 249 19; 250 8; 251 33; 
252 17; 253 70; 254 27; 255 122; 256 27; 
262 8; 263 9; 264 8; 265 28; 266 16; 
267 33; 269 278; 270 68; 271 10; 275 7; 
279 11; 281 101; 282 41; 283 16; 291 8; 
292 6; 293 11; 294 9; 295 23; 296 9; 
305 16; 307 13; 308 7; 309 14; 311 29; 
312 7; 313 7; 315 6; 321 9; 323 17; 
324 9; 325 10; 326 7; 327 30; 328 10; 
329 6; 331 7; 332 7; 335 8; 337 13; 
339 36; 341 25; 342 32; 343 17; 349 6; 
351 35; 352 11; 353 11; 355 10; 365 9; 
367 112; 368 34; 369 80; 370 14; 381 65; 
383 524; 384 128; 395 9; 397 876; 398 720; 
399 144; 400 21; 
