Name: AM694 3-iodo isomer
Synon: (1-(5-fluoropentyl)-1H-indol-3-yl)(3-iodophenyl)methanone
InChIKey: QIKGCUFVLWGTKU-UHFFFAOYSA-N
Formula: C20H19FINO
MW: 435
ExactMass: 435.04954
CASNO: 0
ID: 2642
Comment: Provided by www.caymanchem.com/app/template/landing%2CForensic.vm / Item #10870  Lot#0429458
Num Peaks: 130
40 3; 41 66; 43 16; 44 25; 47 5; 
50 3; 51 1; 63 1; 69 5; 73 23; 
74 2; 75 31; 76 86; 77 22; 78 3; 
87 1; 88 14; 89 38; 90 1; 91 5; 
96 11; 97 1; 101 7; 102 40; 103 11; 
104 7; 105 11; 114 3; 115 27; 116 84; 
117 14; 119 6; 123 24; 126 1; 127 12; 
128 57; 129 52; 130 62; 131 2; 133 3; 
135 20; 136 15; 137 5; 140 1; 143 19; 
144 300; 145 15; 147 16; 151 2; 152 1; 
154 4; 156 12; 157 7; 158 1; 161 2; 
162 3; 163 37; 164 39; 165 32; 166 4; 
167 2; 170 18; 176 23; 177 19; 178 5; 
179 1; 180 2; 184 6; 189 6; 190 46; 
191 36; 192 14; 193 19; 194 1; 195 5; 
197 7; 202 2; 203 124; 204 151; 205 31; 
206 1; 207 14; 208 15; 209 2; 210 5; 
216 2; 217 1; 218 3; 219 15; 220 9; 
221 6; 223 4; 230 1; 231 182; 232 999; 
233 185; 234 43; 235 6; 239 1; 251 1; 
252 5; 253 19; 254 16; 255 2; 267 14; 
268 3; 281 24; 282 20; 283 1; 284 1; 
309 3; 315 5; 318 4; 325 1; 327 26; 
328 2; 341 20; 342 5; 343 4; 346 2; 
355 2; 360 257; 361 57; 400 1; 415 1; 
429 1; 431 1; 435 385; 436 84; 437 4; 
