Name: AM694 4-iodo isomer
Synon: (1-(5-fluoropentyl)-1H-indol-3-yl)(4-iodophenyl)methanone
InChIKey: JBWNGBBXXDDHBJ-UHFFFAOYSA-N
Formula: C20H19FINO
MW: 435
ExactMass: 435.04954
CASNO: 0
ID: 2643
Comment: Provided by www.caymanchem.com/app/template/landing%2CForensic.vm / Item #10869  Lot #0429225
Num Peaks: 140
40 7; 41 111; 42 6; 43 53; 44 1; 
45 5; 47 27; 50 35; 51 15; 53 11; 
55 6; 59 11; 61 7; 62 7; 63 19; 
64 4; 65 5; 69 18; 73 8; 74 15; 
75 53; 76 146; 77 36; 78 11; 81 6; 
87 7; 88 31; 89 49; 90 11; 91 3; 
96 4; 99 4; 101 27; 102 73; 103 100; 
104 75; 105 18; 113 9; 114 20; 115 57; 
116 88; 117 15; 119 6; 123 11; 127 22; 
128 59; 129 57; 130 90; 131 13; 137 11; 
139 3; 140 5; 141 4; 143 21; 144 222; 
145 27; 146 4; 147 2; 148 5; 150 4; 
151 9; 152 8; 154 9; 155 4; 156 12; 
157 4; 158 7; 161 3; 162 10; 163 58; 
164 60; 165 27; 166 71; 168 4; 170 27; 
171 4; 176 24; 177 19; 178 10; 179 3; 
180 8; 181 4; 184 11; 188 5; 190 74; 
191 53; 192 16; 193 5; 203 115; 204 167; 
205 36; 206 9; 209 2; 212 4; 216 3; 
217 8; 218 8; 219 18; 220 16; 231 241; 
232 644; 233 196; 234 38; 235 7; 244 3; 
247 3; 252 11; 253 7; 255 3; 269 2; 
283 5; 291 4; 307 24; 308 23; 309 21; 
318 89; 319 15; 325 3; 327 1; 331 3; 
332 9; 342 3; 343 3; 346 9; 347 9; 
360 529; 361 126; 362 20; 402 5; 405 7; 
407 4; 414 3; 415 14; 416 4; 417 4; 
418 5; 433 3; 435 999; 436 214; 437 29; 
