Name: Dromostanolone Enanthate
Synon: Drostanolone Enanthate
Synon: 5-.alpha.-Androstan-2.alpha.-methyl-17.beta.-ol-3-one enanthate
InChIKey: ZNYZYASFVYLKPE-CDKXXWRZSA-N
Formula: C27H44O3
MW: 416
ExactMass: 416.329044
CASNO: 0
ID: 2662
Comment: DEA SWL / Steraloids lot B0970
Num Peaks: 236
38 1; 39 31; 40 10; 41 268; 42 57; 
43 999; 44 42; 45 14; 50 1; 51 4; 
52 2; 53 55; 54 14; 55 408; 56 55; 
57 215; 58 12; 59 4; 60 23; 61 2; 
65 25; 66 11; 67 199; 68 61; 69 164; 
70 18; 71 30; 72 4; 73 21; 74 2; 
75 1; 77 67; 78 15; 79 184; 80 39; 
81 240; 82 35; 83 64; 84 22; 85 299; 
86 18; 87 8; 88 1; 89 1; 91 156; 
92 32; 93 248; 94 474; 95 331; 96 49; 
97 45; 98 8; 99 3; 100 1; 101 6; 
102 1; 103 9; 104 8; 105 149; 106 42; 
107 230; 108 83; 109 130; 110 25; 111 43; 
112 9; 113 822; 114 62; 115 16; 116 5; 
117 32; 118 19; 119 108; 120 45; 121 146; 
122 55; 123 92; 124 29; 125 31; 126 3; 
127 2; 128 5; 129 15; 130 9; 131 51; 
132 18; 133 96; 134 37; 135 105; 136 101; 
137 89; 138 288; 139 39; 140 3; 141 4; 
142 4; 143 13; 144 22; 145 55; 146 36; 
147 118; 148 181; 149 494; 150 74; 151 77; 
152 10; 153 2; 154 1; 155 4; 156 2; 
157 20; 158 20; 159 56; 160 23; 161 152; 
162 66; 163 79; 164 13; 165 8; 166 1; 
167 2; 168 1; 169 3; 170 2; 171 18; 
172 8; 173 35; 174 18; 175 46; 176 21; 
177 56; 178 12; 179 10; 180 1; 183 3; 
184 1; 185 14; 186 5; 187 26; 188 11; 
189 25; 190 14; 191 10; 192 7; 193 11; 
194 1; 195 1; 197 6; 198 2; 199 18; 
200 22; 201 66; 202 37; 203 20; 204 10; 
205 5; 206 1; 207 16; 208 2; 209 2; 
211 5; 212 2; 213 36; 214 30; 215 38; 
216 9; 217 14; 218 7; 219 3; 221 1; 
225 5; 226 1; 227 7; 228 2; 229 18; 
230 11; 231 24; 232 6; 233 3; 234 1; 
235 1; 239 2; 241 2; 242 2; 243 26; 
244 25; 245 58; 246 14; 247 9; 248 3; 
253 16; 254 4; 255 2; 257 7; 258 60; 
259 13; 260 11; 261 11; 262 2; 267 11; 
268 7; 269 23; 270 6; 271 311; 272 66; 
273 6; 274 1; 276 3; 277 1; 281 6; 
282 2; 283 1; 284 2; 285 40; 286 464; 
287 167; 288 24; 289 6; 302 2; 303 10; 
304 17; 305 6; 325 1; 327 1; 330 1; 
331 8; 332 1; 341 1; 343 1; 346 4; 
373 3; 374 1; 401 1; 405 1; 416 10; 
417 4; 
