Name: Anandamide
Synon: (5Z,8Z,11Z,14Z)-N-(2-hydroxyethyl)icosa-5,8,11,14-tetraenamide
Synon: AEA
Synon: N-arachidonoylethanolamide
Synon: Arachidonoylethanolamide
InChIKey: LGEQQWMQCRIYKG-DOFZRALJSA-N
Formula: C22H37NO2
MW: 347
ExactMass: 347.282429
CASNO: 94421688
ID: 2669
Comment: Jason Nawyn / standard from Ascent
Num Peaks: 220
39 121; 40 31; 41 545; 42 97; 43 188; 
44 224; 45 84; 50 12; 51 30; 52 20; 
53 126; 54 107; 55 437; 56 65; 57 84; 
58 12; 59 32; 60 616; 61 59; 62 621; 
63 22; 65 144; 66 121; 67 658; 68 97; 
69 149; 70 145; 71 23; 72 152; 73 28; 
74 25; 75 70; 76 13; 77 379; 78 167; 
79 824; 80 417; 81 287; 82 71; 83 66; 
84 38; 85 831; 86 143; 87 21; 88 62; 
89 12; 90 16; 91 658; 92 159; 93 431; 
94 138; 95 147; 96 55; 97 77; 98 349; 
99 85; 100 18; 103 999; 104 144; 105 324; 
106 112; 107 159; 108 70; 109 57; 110 27; 
111 36; 112 18; 113 9; 114 12; 115 69; 
116 308; 117 212; 118 53; 119 172; 120 68; 
121 121; 122 50; 123 36; 124 164; 125 281; 
126 46; 127 15; 128 58; 129 69; 130 59; 
131 131; 132 45; 133 175; 134 50; 135 96; 
136 76; 137 35; 138 193; 139 114; 140 32; 
141 18; 142 34; 143 30; 144 34; 145 77; 
146 55; 147 116; 148 57; 149 86; 150 151; 
151 53; 152 80; 153 29; 154 13; 155 11; 
156 42; 157 39; 158 52; 159 43; 160 22; 
161 62; 162 32; 163 36; 164 52; 165 21; 
166 18; 167 9; 168 8; 169 20; 170 54; 
171 19; 172 19; 173 36; 174 18; 175 115; 
176 55; 177 63; 178 108; 179 57; 180 18; 
181 8; 182 16; 183 17; 184 27; 185 10; 
187 38; 188 22; 189 49; 190 41; 191 21; 
192 72; 193 9; 194 17; 195 14; 196 29; 
197 13; 198 43; 199 12; 201 29; 202 12; 
203 58; 204 64; 205 20; 206 19; 207 25; 
208 31; 209 69; 210 46; 211 14; 212 13; 
215 25; 216 15; 217 33; 218 116; 219 32; 
220 12; 221 12; 222 79; 223 19; 224 14; 
230 15; 231 20; 232 23; 233 9; 234 18; 
236 50; 237 16; 238 9; 244 59; 245 27; 
246 13; 248 19; 249 25; 250 29; 251 11; 
253 2; 256 9; 258 51; 259 19; 262 28; 
263 11; 267 11; 268 9; 269 11; 272 74; 
273 22; 274 9; 276 23; 281 28; 282 7; 
286 29; 287 12; 288 10; 290 11; 300 20; 
301 10; 304 9; 316 20; 327 10; 328 38; 
329 45; 330 13; 346 23; 347 23; 348 8; 
