Name: 3-epi CP 47,497
Synon: 3-trans CP 47,497
Synon: rel-2[(1S,3S)-3-hydroxycyclohexyl)]-5-(2-methyloctan-2-yl)phenol
InChIKey: ZWWRREXSUJTKNN-WMZOPIPTSA-N
Formula: C21H34O2
MW: 318
ExactMass: 318.25588
CASNO: 0
ID: 2675
Comment: Provided by www.caymanchem.com/app/template/landing%2CForensic.vm / Item #10919  Lot #0428461
Num Peaks: 176
41 140; 43 184; 44 18; 45 2; 51 5; 
52 2; 53 25; 54 6; 55 77; 56 10; 
57 62; 58 3; 63 3; 64 2; 65 15; 
66 5; 67 20; 68 2; 69 39; 70 4; 
71 35; 72 5; 73 1; 75 1; 76 2; 
77 40; 78 11; 79 64; 81 167; 82 12; 
83 6; 85 19; 86 4; 87 1; 89 5; 
91 77; 92 10; 93 16; 94 5; 95 17; 
96 2; 97 31; 98 7; 99 2; 100 2; 
101 1; 102 5; 103 23; 104 7; 105 39; 
107 102; 108 10; 109 4; 115 53; 116 18; 
117 36; 118 7; 119 24; 120 12; 121 45; 
122 4; 123 1; 126 2; 127 21; 128 41; 
129 27; 130 10; 131 48; 132 17; 133 96; 
134 19; 135 63; 136 10; 137 2; 139 2; 
141 20; 142 9; 143 10; 144 17; 145 48; 
146 17; 147 112; 148 39; 149 12; 150 1; 
151 1; 152 5; 153 9; 154 5; 155 9; 
156 3; 157 26; 158 15; 159 36; 160 17; 
161 129; 162 26; 163 6; 164 1; 165 5; 
166 2; 167 3; 168 2; 169 8; 170 4; 
171 28; 172 22; 173 47; 174 19; 175 13; 
176 5; 177 3; 178 2; 179 1; 181 3; 
182 1; 183 3; 184 2; 185 15; 186 7; 
187 77; 188 15; 189 7; 190 3; 191 4; 
193 1; 195 1; 197 3; 198 1; 199 15; 
200 6; 201 41; 202 8; 203 6; 205 5; 
206 1; 209 8; 211 6; 212 1; 213 23; 
215 999; 216 235; 217 37; 218 4; 219 9; 
220 2; 221 2; 227 2; 228 2; 229 6; 
231 86; 233 864; 234 160; 235 18; 236 1; 
244 8; 246 29; 247 8; 248 1; 253 1; 
257 10; 258 5; 259 1; 273 7; 274 1; 
285 5; 286 1; 298 4; 300 117; 301 26; 
302 3; 303 3; 316 12; 318 103; 319 25; 
320 3; 
