Name: 1-(3,4-methylenedioxy)phenylpropane-2-ol
InChIKey: RVMKZYKJYMJYDG-UHFFFAOYSA-N
Formula: C10H12O3
MW: 180
ExactMass: 180.078644
CASNO: 6974614
ID: 2680
Comment: ENFSI
Num Peaks: 75
37 1; 38 7; 39 22; 40 4; 41 4; 
42 2; 43 28; 44 7; 45 85; 50 25; 
51 96; 52 20; 53 16; 54 1; 55 5; 
61 2; 62 10; 63 20; 64 4; 65 10; 
66 4; 67 13; 69 1; 73 2; 74 7; 
75 8; 76 11; 77 179; 78 90; 79 48; 
80 9; 82 7; 85 1; 89 7; 90 10; 
91 10; 92 2; 93 2; 94 2; 95 2; 
102 3; 103 7; 104 2; 105 66; 106 144; 
107 74; 108 17; 109 2; 118 2; 119 1; 
121 14; 122 6; 123 1; 131 3; 132 2; 
133 4; 134 8; 135 999; 136 593; 137 52; 
138 4; 147 3; 148 1; 149 2; 161 1; 
162 2; 163 2; 164 2; 165 14; 166 1; 
178 8; 179 6; 180 306; 181 35; 182 4; 
