Name: Cannabigerol
Synon: 1,3-Benzenediol, 2-(3,7-dimethyl-2,6-octadienyl)-5-pentyl-
Synon: CBG
InChIKey: QXACEHWTBCFNSA-SFQUDFHCSA-N
Formula: C21H32O2
MW: 316
ExactMass: 316.24023
CASNO: 2808335
ID: 2682
Comment: DEA SCL / Lot # 3 Applied Science / SWGDRUG Monograph available
Num Peaks: 161
40 20; 41 235; 42 11; 43 202; 44 10; 
47 1; 50 2; 51 8; 52 4; 53 40; 
54 5; 55 82; 56 6; 57 17; 63 3; 
64 1; 65 25; 66 7; 67 65; 68 7; 
69 201; 70 12; 71 27; 76 1; 77 58; 
78 14; 79 55; 80 23; 81 48; 82 8; 
83 19; 85 5; 89 5; 90 4; 91 69; 
92 13; 93 43; 94 11; 95 25; 96 4; 
97 3; 102 4; 103 18; 104 7; 105 30; 
106 5; 107 92; 108 29; 109 58; 110 6; 
111 3; 115 32; 116 10; 117 14; 118 4; 
119 17; 120 6; 121 103; 122 166; 123 281; 
124 50; 125 4; 126 1; 127 13; 128 32; 
129 19; 130 6; 131 37; 132 9; 133 17; 
134 6; 135 55; 136 187; 137 63; 138 28; 
139 5; 141 14; 142 5; 143 6; 144 11; 
145 18; 146 6; 147 67; 148 20; 149 79; 
150 26; 151 7; 152 11; 153 3; 154 2; 
155 3; 157 11; 158 8; 159 29; 160 15; 
161 45; 162 13; 163 26; 164 10; 165 9; 
171 5; 172 4; 173 21; 174 44; 175 46; 
176 12; 177 56; 178 24; 179 3; 180 4; 
181 3; 185 1; 187 12; 188 4; 189 11; 
190 9; 191 27; 192 20; 193 999; 194 188; 
195 20; 196 2; 201 2; 203 4; 204 15; 
205 35; 206 9; 207 31; 208 4; 215 2; 
217 13; 218 6; 219 74; 220 15; 221 3; 
229 5; 231 251; 232 42; 233 83; 234 16; 
235 3; 238 2; 245 17; 246 7; 247 83; 
248 15; 259 26; 260 22; 261 4; 273 26; 
274 6; 295 13; 296 2; 299 2; 301 9; 
302 2; 310 2; 314 2; 316 77; 317 16; 
318 2; 
