Name: .alpha.-Benzylphenethylamine
Synon: Dibenzylmethylamine
Synon: 1,3-Diphenyl-2-aminopropane
InChIKey: BWYYVSNVUCFQQN-UHFFFAOYSA-N
Formula: C15H17N
MW: 211
ExactMass: 211.1361
CASNO: 0
ID: 2686
Comment: ENFSI / aminated dibenzylketon; J.For.Sci.,Vol.37 (5) 1992,pp 1311-1318
Num Peaks: 44
38 2; 39 27; 40 3; 41 11; 42 29; 
43 10; 44 1; 50 5; 51 24; 52 6; 
53 4; 54 2; 62 2; 63 11; 64 3; 
65 50; 66 4; 67 1; 75 1; 76 2; 
77 60; 78 10; 79 4; 80 2; 89 11; 
90 5; 91 151; 92 32; 93 23; 94 3; 
102 5; 103 101; 104 14; 105 1; 106 1; 
115 4; 116 2; 117 8; 118 24; 119 19; 
120 999; 121 95; 122 4; 165 1; 
