Name: 17.alpha.-methyl-.delta.-1-dihydrotestosterone
Synon: 17.beta.-hydroxy-17.alpha.-methyl-5.alpha.-androst-1-en-3-one
Synon: 17.alpha.-methyl-Delta-1-dihydrotestosterone
Synon: 17B-hydroxy-17.alpha.-methyl-5.alpha.-androst-1-en-3-one
Synon: 17.beta.-hydroxy-17.alpha.methylandrost-1-en-3-one
InChIKey: JRNSSSJKIGAFCT-SCWDVOOWSA-N
Formula: C20H30O2
MW: 302
ExactMass: 302.22458
CASNO: 65043
ID: 2692
Comment: DEA SWL / SWGDRUG Monograph available
Num Peaks: 220
38 1; 39 62; 40 16; 41 234; 42 18; 
43 473; 44 12; 45 20; 50 3; 51 23; 
52 20; 53 151; 54 33; 55 301; 56 17; 
57 99; 58 127; 59 29; 60 1; 62 1; 
63 8; 64 5; 65 103; 66 35; 67 316; 
68 71; 69 176; 70 15; 71 392; 72 78; 
73 6; 74 2; 75 1; 76 3; 77 320; 
78 70; 79 523; 80 234; 81 308; 82 48; 
83 58; 84 13; 85 48; 86 5; 87 4; 
88 1; 89 6; 90 4; 91 500; 92 84; 
93 353; 94 104; 95 268; 96 41; 97 49; 
98 8; 99 6; 100 2; 101 4; 102 6; 
103 43; 104 25; 105 275; 106 74; 107 579; 
108 342; 109 506; 110 153; 111 97; 112 12; 
113 5; 114 3; 115 67; 116 27; 117 101; 
118 33; 119 169; 120 83; 121 455; 122 999; 
123 332; 124 43; 125 46; 126 6; 127 14; 
128 43; 129 55; 130 32; 131 106; 132 50; 
133 181; 134 292; 135 205; 136 84; 137 46; 
138 9; 139 4; 140 1; 141 20; 142 16; 
143 51; 144 26; 145 110; 146 46; 147 228; 
148 96; 149 180; 150 57; 151 16; 152 6; 
153 7; 154 4; 155 12; 156 8; 157 45; 
158 101; 159 104; 160 241; 161 254; 162 80; 
163 245; 164 36; 165 14; 166 4; 167 15; 
168 7; 169 9; 170 5; 171 36; 172 35; 
173 71; 174 44; 175 85; 176 68; 177 27; 
178 6; 179 5; 180 3; 181 41; 182 6; 
183 7; 184 4; 185 44; 186 18; 187 56; 
188 21; 189 30; 190 23; 191 8; 192 1; 
193 4; 194 3; 195 3; 196 1; 197 5; 
198 5; 199 52; 200 115; 201 47; 202 63; 
203 21; 204 3; 205 1; 209 3; 210 1; 
211 11; 212 9; 213 53; 214 24; 215 28; 
216 14; 217 31; 218 20; 219 4; 224 1; 
225 2; 226 14; 227 42; 228 17; 229 59; 
230 14; 231 23; 232 40; 233 8; 234 1; 
240 1; 241 7; 242 103; 243 24; 244 104; 
245 164; 246 29; 247 4; 251 4; 252 1; 
255 2; 256 6; 257 1; 258 1; 259 3; 
260 74; 261 14; 262 1; 266 3; 267 1; 
269 84; 270 17; 271 2; 273 1; 274 1; 
283 1; 284 41; 285 9; 286 1; 287 42; 
288 9; 289 1; 302 137; 303 30; 304 3; 
