Name: .alpha.-Pyrrolidinopropiophenone
InChIKey: KPUJAQRFIJAORQ-UHFFFAOYSA-N
Synon: PPP
Synon: .alpha.-PPP
Synon: 1-phenyl-2-(1-pyrrolidinyl)-1-propanone
Formula: C13H17NO
MW: 203
ExactMass: 203.131014
CASNO: 19134500
ID: 2700
Comment: ENFSI / Seizure, Copenhagen 2008 / SWGDRUG Monograph available
Num Peaks: 57
40 2; 41 22; 42 19; 43 4; 44 19; 
50 7; 51 28; 52 3; 53 4; 54 16; 
55 39; 56 98; 57 4; 63 1; 65 1; 
67 2; 68 9; 69 29; 70 17; 71 1; 
74 2; 75 2; 76 3; 77 68; 78 7; 
79 3; 80 1; 81 1; 82 1; 89 1; 
91 4; 94 4; 96 24; 98 999; 99 71; 
100 2; 102 1; 103 3; 104 2; 105 28; 
106 2; 115 2; 116 1; 117 1; 130 1; 
131 1; 133 2; 134 1; 160 1; 172 1; 
173 1; 186 1; 188 1; 200 2; 201 3; 
202 2; 203 1; 
