Name: .alpha.-Phenethylamine
Synon: 1-Phenethylamine
Synon: .alpha.-Methylbenzylamine
Synon: 1-Phenylethylamine
InChIKey: RQEUFEKYXDPUSK-UHFFFAOYSA-N
Formula: C8H11N
MW: 121
ExactMass: 121.0891495
CASNO: 2627863
ID: 2702
Comment: AAFS / Probability Based Matching Data Base Entry
Num Peaks: 64
29 20; 30 26; 32 190; 33 1; 37 19; 
38 51; 39 152; 40 39; 41 58; 42 353; 
43 121; 44 298; 45 9; 46 3; 48 1; 
50 148; 51 261; 52 86; 53 83; 54 27; 
55 2; 56 1; 58 7; 59 10; 61 8; 
62 21; 63 45; 64 9; 65 28; 66 10; 
67 15; 68 3; 72 1; 73 7; 74 37; 
75 25; 76 31; 77 247; 78 100; 79 484; 
80 42; 81 2; 85 1; 86 3; 87 3; 
88 1; 89 10; 90 4; 91 17; 92 5; 
93 6; 94 3; 98 1; 102 8; 103 32; 
104 52; 106 999; 107 84; 116 1; 117 3; 
118 5; 120 48; 121 13; 122 6; 
