Name: 2,4-Dinitrophenol
InChIKey: UFBJCMHMOXMLKC-UHFFFAOYSA-N
Formula: C6H4N2O5
MW: 184
ExactMass: 184.012021
CASNO: 51285
ID: 2708
Comment: DEA SWL / unverified from smaple
Num Peaks: 44
40 38; 42 11; 44 24; 46 30; 49 16; 
50 143; 51 289; 52 198; 53 593; 54 54; 
55 41; 61 123; 62 403; 63 780; 64 243; 
65 63; 66 48; 67 4; 68 45; 69 4; 
74 40; 75 35; 76 36; 77 64; 78 5; 
79 392; 80 82; 90 7; 91 576; 92 285; 
93 203; 96 7; 105 11; 107 523; 108 63; 
120 2; 122 6; 138 32; 151 5; 154 596; 
155 36; 168 63; 184 999; 185 85; 
