Name: 2,5-Dimethoxybenzaldehyde
InChIKey: AFUKNJHPZAVHGQ-UHFFFAOYSA-N
Formula: C9H10O3
MW: 166
ExactMass: 166.062994
CASNO: 93027
ID: 2718
Comment: DEA SWL
Num Peaks: 82
40 5; 41 87; 42 5; 43 10; 45 2; 
49 7; 50 79; 51 145; 52 147; 53 191; 
54 54; 55 44; 56 2; 59 4; 60 2; 
61 31; 62 90; 63 270; 64 120; 65 152; 
66 31; 67 58; 68 5; 69 46; 70 2; 
73 9; 74 49; 75 42; 76 38; 77 150; 
78 31; 79 165; 80 116; 81 12; 82 25; 
83 9; 85 1; 86 1; 89 3; 90 8; 
91 50; 92 123; 93 55; 94 37; 95 367; 
96 25; 97 2; 103 2; 104 2; 105 39; 
106 236; 107 152; 108 229; 109 126; 110 12; 
111 1; 118 1; 119 18; 120 288; 121 88; 
122 64; 123 282; 124 32; 125 2; 133 31; 
134 45; 135 63; 136 90; 137 136; 138 16; 
139 1; 148 116; 149 127; 150 46; 151 373; 
152 33; 153 3; 163 1; 165 124; 166 999; 
167 96; 168 9; 
