Name: gamma-Crotonolactone
Synon: Butenolide
Synon: 2(5H)-Furanone
Synon: 2-Furanone
Synon: .gamma.-Crotonolactone
InChIKey: VIHAEDVKXSOUAT-UHFFFAOYSA-N
Formula: C4H4O2
MW: 84
ExactMass: 84.021129
CASNO: 497234
ID: 2719
Comment: DEA SWL
Num Peaks: 20
41 14; 42 5; 43 2; 44 13; 45 4; 
49 1; 50 1; 51 1; 52 10; 53 53; 
54 240; 55 999; 56 36; 57 2; 78 1; 
82 7; 83 15; 84 522; 85 19; 86 1; 
