Name: 2C-D
Synon: PIHKAL #23
Synon: 4-Methyl-2,5-Dimethoxyphenethylamine
Synon: 2-(2,5-Dimethoxy-4-methylphenyl)ethanamine
InChIKey: UNQQFDCVEMVQHM-UHFFFAOYSA-N
Formula: C11H17NO2
MW: 195
ExactMass: 195.125929
CASNO: 24333195
ID: 2722
Comment: DEA SWL
Num Peaks: 98
38 5; 39 51; 40 10; 41 17; 42 7; 
43 10; 44 1; 45 2; 50 11; 51 37; 
52 19; 53 33; 54 5; 55 13; 56 1; 
57 3; 59 2; 61 1; 62 6; 63 24; 
64 9; 65 59; 66 15; 67 36; 68 11; 
69 10; 74 3; 75 5; 76 6; 77 126; 
78 35; 79 110; 80 18; 81 4; 82 2; 
83 1; 86 1; 87 1; 89 18; 90 9; 
91 197; 92 39; 93 23; 94 8; 95 3; 
96 1; 97 2; 101 1; 102 5; 103 59; 
104 19; 105 84; 106 16; 107 33; 108 25; 
109 6; 115 5; 116 2; 117 7; 118 11; 
119 18; 120 42; 121 28; 122 42; 123 48; 
124 4; 130 4; 131 5; 132 6; 133 8; 
134 12; 135 278; 136 40; 137 35; 138 3; 
146 6; 147 13; 148 14; 149 14; 150 16; 
151 688; 152 70; 153 6; 161 1; 162 9; 
163 19; 164 31; 165 187; 166 999; 167 107; 
168 9; 176 1; 178 4; 179 4; 180 1; 
195 142; 196 18; 197 1; 
