Name: Halobolin
Synon: 4-chloro-17.alpha.-methylandrost-1,4-diene-3.beta.,17.beta.-diol
InChIKey: ZHWBNJVZZYSUJZ-HADYEQCDSA-N
Formula: C20H29ClO2
MW: 336
ExactMass: 336.185608
CASNO: 0
ID: 2730
Comment: DEA SWL / unverified  from sample capsule
Num Peaks: 262
36 57; 37 3; 38 23; 39 115; 40 5; 
41 337; 42 17; 43 658; 45 27; 50 3; 
51 52; 52 10; 53 127; 54 18; 55 262; 
56 13; 57 49; 58 33; 59 17; 60 6; 
61 8; 62 8; 63 34; 64 7; 65 53; 
66 14; 67 132; 68 30; 69 46; 70 2; 
71 142; 72 6; 74 10; 75 7; 76 17; 
77 211; 78 48; 79 202; 80 39; 81 173; 
82 21; 83 62; 84 14; 85 28; 86 7; 
87 9; 88 8; 89 41; 90 6; 91 382; 
92 56; 93 300; 94 96; 95 221; 96 27; 
97 53; 98 18; 99 12; 101 23; 102 42; 
103 165; 104 48; 105 317; 106 59; 107 365; 
108 322; 109 234; 110 48; 111 79; 112 2; 
114 12; 115 271; 116 79; 117 108; 118 44; 
119 233; 120 66; 121 999; 122 163; 123 81; 
124 42; 125 85; 126 36; 127 111; 128 268; 
129 177; 130 108; 131 187; 132 68; 133 182; 
134 79; 135 189; 136 31; 137 35; 138 65; 
139 828; 140 120; 141 590; 142 223; 143 211; 
144 93; 145 93; 146 45; 147 490; 148 110; 
149 276; 150 75; 151 121; 152 217; 153 233; 
154 113; 155 433; 156 246; 157 224; 158 96; 
159 112; 160 59; 161 399; 162 111; 163 172; 
164 101; 165 417; 166 91; 167 128; 168 66; 
169 68; 170 33; 171 23; 172 23; 173 99; 
174 39; 175 133; 176 79; 177 178; 178 178; 
179 218; 180 65; 181 60; 182 25; 183 40; 
184 19; 185 22; 186 13; 187 55; 188 18; 
189 164; 190 170; 191 386; 192 188; 193 149; 
194 53; 195 40; 196 16; 197 44; 198 4; 
199 33; 200 1; 201 27; 202 28; 203 30; 
204 100; 205 50; 206 48; 207 36; 208 14; 
209 100; 210 18; 211 48; 212 20; 213 54; 
214 21; 215 28; 216 22; 217 38; 218 21; 
219 35; 220 12; 221 10; 222 13; 223 18; 
224 48; 225 81; 226 19; 227 49; 228 21; 
229 15; 230 30; 231 57; 232 30; 233 25; 
234 13; 235 7; 237 8; 239 14; 240 8; 
241 17; 242 51; 243 86; 244 71; 245 166; 
246 53; 247 80; 248 25; 249 23; 250 22; 
251 20; 252 12; 253 33; 254 21; 255 10; 
256 9; 257 45; 258 40; 259 57; 260 120; 
261 41; 262 52; 263 30; 264 26; 265 195; 
266 76; 267 65; 268 19; 271 48; 272 47; 
273 15; 275 11; 277 8; 278 7; 279 6; 
280 7; 281 5; 282 40; 283 231; 284 65; 
285 321; 286 72; 287 129; 288 31; 289 9; 
290 8; 298 7; 299 6; 300 658; 301 979; 
302 326; 303 71; 304 14; 305 8; 306 7; 
317 11; 318 232; 319 56; 320 94; 321 22; 
322 13; 334 13; 335 7; 336 129; 337 24; 
338 27; 339 10; 
