Name: 5-Methoxyindole-3-carboxaldehyde
Synon: 3-Formyl-5-methoxyindole
Synon: Indole-3-carboxaldehyde, 5-methoxy-
Synon: 5-Methoxy-3-indolealdehyde
Synon: 5-Methoxy-3-indole carboxaldehyde
Synon: 5-Methoxy-1H-indole-3-carbaldehyde
Synon: 1H-Indole-3-carboxaldehyde, 5-methoxy
InChIKey: TUWARWGEOHQXCO-UHFFFAOYSA-N
Formula: C10H9NO2
MW: 175
ExactMass: 175.063329
CASNO: 10601191
ID: 2733
Comment: DEA SFL1
Num Peaks: 77
29 7; 30 2; 31 1; 37 8; 38 16; 
39 25; 40 3; 41 5; 42 1; 43 2; 
44 1; 50 68; 51 88; 52 55; 53 38; 
54 6; 55 1; 58 9; 61 14; 62 41; 
63 49; 64 12; 65 24; 72 12; 73 5; 
74 31; 75 47; 76 100; 77 145; 78 44; 
79 5; 80 11; 81 14; 85 5; 86 20; 
87 45; 88 37; 89 63; 90 13; 91 15; 
92 1; 98 1; 99 2; 100 1; 102 34; 
103 85; 104 55; 105 14; 106 1; 114 20; 
115 18; 116 29; 117 16; 118 26; 119 20; 
120 2; 130 4; 131 128; 132 620; 133 56; 
134 3; 142 4; 143 9; 144 43; 145 8; 
146 78; 147 11; 158 29; 159 88; 160 263; 
161 27; 162 2; 172 2; 174 465; 175 999; 
176 111; 177 9; 
