Name: .alpha.-Methylfentanyl
Synon: N-[1-(1-Methyl-2-phenylethyl)-4-piperidinyl]-N-phenylpropanamide
Synon: N-[1-(alpha-methyl-beta-phenyl)ethyl-4-piperidyl] propionanilide
Synon: 1-(1-methyl-2-phenylethyl)-4-(N-propanilido) piperidine
InChIKey: NGTVDHYUFBKWID-UHFFFAOYSA-N
Formula: C23H30N2O
MW: 350
ExactMass: 350.235813
CASNO: 79704884
ID: 2743
Comment: DEA SWL
Num Peaks: 117
40 5; 41 62; 42 70; 43 12; 44 10; 
45 1; 50 5; 51 23; 52 8; 53 11; 
54 24; 55 85; 56 363; 57 204; 58 139; 
59 6; 62 1; 63 7; 64 5; 65 45; 
66 10; 67 41; 68 30; 69 23; 70 21; 
71 15; 72 3; 74 1; 75 2; 76 4; 
77 109; 78 21; 79 20; 80 17; 81 28; 
82 85; 83 24; 84 41; 85 4; 89 9; 
90 6; 91 360; 92 37; 93 52; 94 35; 
95 5; 96 23; 97 4; 98 4; 101 2; 
102 4; 103 21; 104 49; 105 29; 106 20; 
107 3; 108 47; 109 57; 110 298; 111 30; 
112 8; 114 5; 115 28; 116 8; 117 53; 
118 66; 119 37; 120 33; 121 3; 125 1; 
127 1; 128 4; 129 5; 130 77; 131 32; 
132 105; 133 17; 134 5; 135 2; 143 4; 
144 17; 145 6; 146 252; 147 28; 148 8; 
149 8; 150 7; 153 14; 154 2; 156 4; 
157 2; 158 15; 159 5; 160 7; 170 1; 
172 1; 173 4; 174 8; 175 2; 184 2; 
186 3; 187 5; 198 7; 199 5; 200 12; 
201 6; 202 58; 203 70; 204 11; 207 1; 
216 13; 217 2; 253 1; 257 2; 259 999; 
260 183; 261 17; 
