Name: Diacetyl-.alpha.-hydroxy-3,4-methylenedioxymethamphetamine
Synon: .alpha.-Hydroxy-MDMA, diacetyl
InChIKey: VEDLUPTWZQHAGI-UHFFFAOYSA-N
Formula: C15H19NO5
MW: 293
ExactMass: 293.126322
CASNO: 0
ID: 2746
Comment: ENFSI
Num Peaks: 104
38 2; 39 13; 40 10; 41 8; 42 42; 
43 193; 44 22; 45 14; 50 9; 51 14; 
52 6; 53 6; 54 4; 55 7; 56 87; 
57 20; 58 999; 59 37; 60 13; 61 2; 
62 5; 63 24; 64 5; 65 40; 66 5; 
68 2; 69 2; 70 2; 71 4; 73 4; 
74 4; 75 5; 76 9; 77 33; 78 12; 
79 3; 80 2; 81 2; 82 5; 83 2; 
86 10; 87 2; 89 7; 90 5; 91 22; 
92 6; 93 35; 94 4; 99 3; 100 537; 
101 46; 102 9; 103 21; 104 10; 105 10; 
106 3; 107 2; 116 3; 117 7; 118 10; 
119 9; 120 3; 121 20; 122 4; 123 10; 
130 3; 131 21; 132 16; 133 5; 134 4; 
135 28; 136 4; 137 3; 145 4; 146 6; 
147 11; 148 12; 149 76; 150 48; 151 83; 
152 11; 159 2; 160 22; 161 17; 162 38; 
163 4; 164 2; 175 6; 176 4; 177 9; 
178 15; 190 7; 191 7; 192 36; 193 4; 
194 2; 206 2; 215 2; 219 2; 220 117; 
221 16; 233 17; 234 5; 293 2; 
