Name: .alpha.-Hydroxy-3,4-methylenedioxymethamphetamine
Synon: .alpha.-Hydroxy-MDMA
InChIKey: YZDFWSMDYJOWKD-UHFFFAOYSA-N
Formula: C11H15NO3
MW: 209
ExactMass: 209.105193
CASNO: 0
ID: 2747
Comment: ENFSI
Num Peaks: 90
37 1; 38 4; 39 30; 40 6; 41 7; 
42 28; 43 15; 44 15; 45 1; 49 1; 
50 6; 51 11; 52 4; 53 8; 54 3; 
55 6; 56 44; 57 16; 58 999; 59 42; 
60 1; 61 1; 62 9; 63 21; 64 8; 
65 67; 66 10; 67 1; 68 1; 70 1; 
71 1; 74 3; 75 5; 76 4; 77 14; 
78 4; 79 2; 80 1; 81 1; 87 2; 
88 1; 89 3; 90 2; 91 12; 92 3; 
93 43; 94 5; 95 2; 102 2; 103 6; 
104 5; 105 3; 106 1; 107 1; 116 1; 
117 2; 118 4; 119 7; 120 1; 121 16; 
122 7; 123 3; 131 3; 132 3; 133 2; 
134 1; 135 10; 136 1; 137 1; 145 1; 
146 6; 147 1; 148 2; 149 28; 150 13; 
151 11; 152 2; 160 2; 161 2; 162 8; 
163 1; 164 3; 175 1; 176 2; 177 1; 
178 1; 190 12; 191 4; 192 1; 209 1; 
