Name: .alpha.-Hydroxy-3,4-methylenedioxyphenyl-2-propanone
InChIKey: DQSQHPHYJBJWOV-UHFFFAOYSA-N
Formula: C10H10O4
MW: 194
ExactMass: 194.057909
CASNO: 0
ID: 2748
Comment: ENFSI / impurity in PMK
Num Peaks: 90
37 7; 38 19; 39 139; 40 10; 41 9; 
42 12; 43 139; 44 4; 45 9; 46 1; 
49 3; 50 35; 51 37; 52 10; 53 45; 
54 3; 55 13; 56 1; 60 2; 61 13; 
62 43; 63 112; 64 33; 65 551; 66 49; 
67 10; 68 1; 69 1; 73 2; 74 17; 
75 31; 76 20; 77 42; 78 6; 79 9; 
80 2; 81 4; 82 1; 86 1; 87 1; 
88 1; 89 5; 90 3; 91 34; 92 13; 
93 988; 94 76; 95 23; 96 2; 102 1; 
103 1; 104 5; 105 6; 106 1; 107 2; 
108 1; 109 2; 117 1; 119 15; 120 5; 
121 96; 122 22; 123 147; 124 12; 125 1; 
133 1; 134 7; 135 51; 136 6; 137 2; 
138 1; 147 12; 148 3; 149 234; 150 50; 
151 999; 152 89; 153 9; 162 3; 163 1; 
165 6; 166 2; 177 2; 178 10; 179 4; 
180 1; 192 1; 193 6; 194 89; 195 10; 
