Name: .alpha.-Ethyl-phenethylamine TFA derivative
InChIKey: DNMMWEPVCYKOIT-UHFFFAOYSA-N
Formula: C12H14F3NO
MW: 245
ExactMass: 245.102749
CASNO: 0
ID: 2749
Comment: DEA SWL
Num Peaks: 109
38 4; 39 60; 40 6; 41 349; 42 24; 
43 5; 44 14; 46 1; 50 18; 51 52; 
52 14; 53 10; 54 11; 55 7; 56 31; 
57 22; 58 3; 59 27; 60 1; 61 2; 
62 8; 63 37; 64 13; 65 152; 66 12; 
67 1; 68 1; 69 145; 70 5; 71 1; 
74 5; 75 5; 76 7; 77 67; 78 45; 
79 11; 80 1; 82 1; 84 28; 85 2; 
86 2; 87 3; 88 1; 89 46; 90 23; 
91 571; 92 125; 93 8; 94 10; 96 7; 
97 10; 98 17; 99 1; 101 2; 102 21; 
103 64; 104 22; 105 6; 106 5; 107 31; 
108 2; 109 1; 110 1; 111 1; 114 20; 
115 52; 116 23; 117 276; 118 52; 119 39; 
120 6; 121 2; 124 1; 126 235; 127 18; 
128 19; 129 12; 130 6; 131 28; 132 959; 
133 135; 134 10; 135 2; 136 17; 137 1; 
138 5; 139 1; 140 1; 141 2; 143 2; 
146 6; 147 2; 148 1; 151 1; 152 3; 
153 10; 154 999; 155 59; 156 3; 158 3; 
171 2; 176 3; 178 7; 184 2; 198 7; 
199 1; 215 1; 216 9; 217 1; 
