Name: Ambroxol
InChIKey: JBDGDEWWOUBZPM-UHFFFAOYSA-N
Formula: C13H18Br2N2O
MW: 376
ExactMass: 375.978586
CASNO: 18683915
ID: 2751
Comment: DEA SWL / unverified from sample
Num Peaks: 184
40 13; 41 161; 42 42; 43 84; 44 38; 
45 5; 50 25; 51 59; 52 61; 53 51; 
54 61; 55 81; 56 133; 57 77; 58 11; 
59 30; 61 3; 62 25; 63 51; 64 19; 
65 43; 66 15; 67 32; 68 58; 69 55; 
70 16; 71 2; 73 9; 74 22; 75 64; 
76 89; 77 181; 78 54; 79 71; 80 18; 
81 108; 82 21; 83 15; 84 2; 85 2; 
86 11; 87 6; 88 12; 89 26; 90 56; 
91 42; 92 28; 93 15; 94 7; 95 2; 
96 121; 97 75; 98 13; 99 7; 100 11; 
101 5; 102 65; 103 119; 104 354; 105 41; 
106 3; 110 13; 112 5; 113 3; 114 811; 
115 74; 116 23; 117 33; 118 22; 119 34; 
120 8; 127 3; 128 117; 129 23; 130 16; 
131 16; 132 12; 133 2; 141 8; 142 4; 
143 23; 144 13; 145 16; 146 7; 153 3; 
154 2; 155 26; 156 39; 157 29; 158 38; 
159 5; 160 4; 168 14; 169 16; 170 20; 
171 52; 172 14; 173 38; 174 2; 180 4; 
181 6; 182 148; 183 160; 184 162; 185 148; 
186 34; 195 13; 196 12; 197 23; 198 46; 
199 25; 200 34; 201 10; 207 4; 208 7; 
209 7; 210 11; 211 3; 212 3; 223 8; 
224 1; 225 6; 226 1; 235 1; 236 5; 
237 6; 238 6; 239 2; 249 11; 250 8; 
251 22; 252 13; 253 13; 254 6; 260 7; 
261 14; 262 526; 263 72; 264 999; 265 96; 
266 482; 267 38; 275 7; 276 6; 277 363; 
278 40; 279 699; 280 68; 281 317; 282 30; 
286 5; 287 4; 288 32; 289 88; 290 43; 
291 160; 292 35; 293 86; 294 6; 302 8; 
303 5; 304 6; 305 10; 307 3; 315 2; 
317 61; 318 6; 319 108; 320 12; 321 48; 
322 4; 329 2; 333 1; 358 2; 359 3; 
360 7; 361 1; 362 2; 376 44; 377 7; 
378 73; 379 14; 380 34; 381 1; 
