Name: Irbesartan
Synon: Avapro
InChIKey: YOSHYTLCDANDAN-UHFFFAOYSA-N
Formula: C25H28N6O
MW: 428
ExactMass: 428.23246
CASNO: 138402116
ID: 2752
Comment: DEA SWL / unverified from sample
Num Peaks: 187
40 17; 41 92; 42 23; 43 11; 44 1; 
50 2; 51 6; 52 4; 53 18; 54 62; 
55 52; 56 14; 57 16; 58 1; 59 1; 
62 1; 63 10; 64 2; 65 29; 66 11; 
67 110; 68 25; 69 12; 74 1; 75 4; 
76 4; 77 9; 78 2; 79 5; 80 25; 
81 14; 82 65; 84 86; 85 5; 87 3; 
88 3; 89 11; 90 2; 91 4; 92 1; 
93 3; 94 15; 95 8; 96 20; 97 1; 
99 2; 100 2; 101 4; 102 7; 103 3; 
104 1; 105 1; 106 3; 107 4; 108 16; 
109 55; 110 27; 111 3; 112 7; 113 10; 
114 5; 115 17; 116 16; 120 3; 121 3; 
122 11; 123 29; 124 4; 125 5; 126 7; 
127 8; 128 7; 129 2; 130 4; 131 1; 
132 1; 133 1; 134 2; 135 6; 136 10; 
137 14; 138 3; 139 24; 140 37; 141 5; 
143 2; 144 2; 148 2; 149 6; 150 49; 
151 45; 152 38; 153 20; 154 3; 157 3; 
158 31; 161 1; 162 4; 163 41; 164 80; 
165 283; 166 61; 167 6; 172 2; 175 2; 
176 10; 177 76; 178 25; 179 20; 180 13; 
181 2; 188 6; 189 11; 190 246; 191 121; 
192 999; 193 169; 194 14; 195 1; 201 1; 
202 2; 203 6; 204 14; 205 28; 206 9; 
207 15; 208 4; 215 2; 216 3; 217 8; 
218 24; 219 7; 220 1; 229 2; 230 5; 
231 79; 232 349; 233 86; 234 11; 235 1; 
243 1; 244 3; 245 13; 246 15; 247 3; 
248 1; 255 1; 256 1; 257 2; 258 1; 
259 5; 260 5; 261 3; 271 1; 272 9; 
273 30; 274 25; 275 5; 285 2; 286 12; 
287 15; 288 3; 289 1; 300 12; 301 5; 
302 4; 314 33; 315 20; 316 4; 326 1; 
328 46; 329 11; 330 1; 341 1; 342 520; 
343 526; 344 118; 345 14; 346 1; 356 72; 
357 20; 358 3; 370 6; 371 2; 384 2; 
385 11; 386 3; 
