Name: Azidothymidine
Synon: Zidovudine
Synon: AZT
InChIKey: HBOMLICNUCNMMY-UHFFFAOYSA-N
Formula: C10H13N5O4
MW: 267
ExactMass: 267.096754
CASNO: 30516871
ID: 2754
Comment: DEA SWL / unverified from sample
Num Peaks: 108
40 201; 41 638; 42 608; 43 395; 44 196; 
45 116; 46 10; 49 3; 50 11; 51 79; 
52 305; 53 302; 54 931; 55 995; 56 402; 
57 159; 58 278; 59 34; 60 5; 61 6; 
62 1; 64 5; 65 17; 66 70; 67 151; 
68 329; 69 261; 70 396; 71 93; 72 20; 
73 3; 77 8; 78 9; 79 20; 80 445; 
81 144; 82 186; 83 412; 84 298; 85 37; 
86 33; 87 6; 92 5; 93 9; 94 38; 
95 216; 96 268; 97 62; 98 50; 99 69; 
100 6; 101 2; 105 9; 106 2; 107 5; 
108 8; 109 153; 110 153; 111 14; 112 25; 
113 93; 114 649; 115 48; 116 6; 120 1; 
121 2; 122 22; 123 8; 124 8; 125 10; 
126 999; 127 436; 128 25; 129 1; 135 42; 
136 5; 137 10; 138 1; 139 6; 140 3; 
142 565; 143 31; 144 2; 149 1; 150 5; 
151 10; 152 72; 153 16; 154 1; 156 4; 
162 2; 165 5; 166 1; 167 2; 169 1; 
178 8; 180 15; 181 1; 193 5; 194 1; 
195 12; 196 2; 206 10; 207 2; 208 12; 
209 1; 239 4; 267 8; 
