Name: Benzphetamine
Synon: N-Benzyl-N,.alpha.-dimethylphenethylamine
Synon: Benzylamphetamine
Synon: Didrex
InChIKey: YXKTVDFXDRQTKV-UHFFFAOYSA-N
Formula: C17H21N
MW: 239
ExactMass: 239.167399
CASNO: 156081
ID: 2757
Comment: DEA SWL
Num Peaks: 51
40 1; 41 12; 42 28; 43 1; 44 3; 
50 4; 51 15; 52 4; 53 1; 54 2; 
55 1; 56 34; 57 4; 58 1; 62 2; 
63 13; 64 4; 65 93; 66 5; 70 1; 
74 1; 75 1; 76 2; 77 17; 78 6; 
79 4; 89 19; 90 2; 91 999; 92 77; 
93 2; 102 1; 103 6; 104 4; 105 7; 
115 8; 116 3; 117 11; 118 6; 119 2; 
120 2; 130 2; 131 3; 132 8; 133 1; 
144 1; 146 8; 148 813; 149 90; 150 4; 
224 2; 
