Name: .beta.-Hydroxyphenethylamine
Synon: Phenylethanolamine
InChIKey: ULSIYEODSMZIPX-UHFFFAOYSA-N
Formula: C8H11NO
MW: 137
ExactMass: 137.084064
CASNO: 7568936
ID: 2760
Comment: DEA SWL / Sigma lot 96H3607
Num Peaks: 45
40 9; 41 18; 42 21; 43 14; 44 3; 
49 4; 50 125; 51 305; 52 89; 53 58; 
54 3; 55 3; 59 9; 60 4; 61 4; 
62 28; 63 68; 64 16; 65 59; 66 5; 
73 4; 74 40; 75 26; 76 30; 77 948; 
78 202; 79 999; 80 70; 89 51; 90 27; 
91 135; 92 15; 102 3; 103 25; 104 23; 
105 191; 106 60; 107 439; 108 117; 109 4; 
117 32; 118 58; 119 22; 120 6; 137 4; 
