Name: .beta.-Naphthol
InChIKey: JWAZRIHNYRIHIV-UHFFFAOYSA-N
Formula: C10H8O
MW: 144
ExactMass: 144.057515
CASNO: 135193
ID: 2761
Comment: DEA SWL / Sigma lot 74H2514
Num Peaks: 55
40 2; 41 1; 43 2; 44 1; 49 2; 
50 24; 51 26; 52 4; 53 7; 55 3; 
58 32; 59 5; 61 11; 62 35; 63 69; 
64 11; 65 26; 66 3; 71 5; 72 54; 
74 23; 75 20; 76 9; 77 8; 78 1; 
79 1; 84 1; 85 6; 86 16; 87 24; 
88 21; 89 82; 90 10; 91 1; 98 6; 
99 4; 100 1; 101 3; 102 1; 109 1; 
110 2; 111 1; 113 26; 114 29; 115 636; 
116 143; 117 11; 118 1; 126 11; 127 4; 
142 2; 143 1; 144 999; 145 110; 146 7; 
