Name: Buprenorphine
Synon: Buprenex
Synon: (2S)-2-[(5R,6R,7R,14S)-9.alpha.-Cyclopropylmethyl-4,5-epoxy-6,14-ethano-3-hydroxy-6-methoxymorphinan-7-yl]-3,3-dimethylbutan-2-ol
InChIKey: RMRJXGBAOAMLHD-UHFFFAOYSA-N
Formula: C29H41NO4
MW: 467
ExactMass: 467.303558
CASNO: 52485797
ID: 2763
Comment: DEA SWL
Num Peaks: 304
40 6; 41 93; 42 43; 43 143; 44 15; 
45 18; 51 1; 53 28; 55 551; 56 62; 
57 157; 58 11; 59 26; 65 7; 67 17; 
68 13; 69 19; 70 10; 71 51; 72 1; 
73 2; 77 19; 78 4; 79 20; 80 16; 
81 13; 82 29; 83 109; 84 108; 85 21; 
86 1; 91 35; 92 4; 93 13; 94 13; 
95 15; 96 13; 97 19; 98 24; 99 10; 
100 1; 101 112; 102 9; 103 15; 104 3; 
105 18; 106 9; 107 13; 108 15; 109 17; 
110 25; 111 7; 112 3; 115 43; 116 11; 
117 22; 118 13; 119 11; 120 11; 121 27; 
122 10; 123 38; 124 7; 126 1; 127 22; 
128 36; 129 19; 130 12; 131 27; 132 16; 
133 14; 134 21; 135 18; 136 12; 137 10; 
138 1; 139 12; 140 2; 141 27; 142 12; 
143 15; 144 19; 145 21; 146 13; 147 33; 
148 17; 149 13; 150 17; 151 10; 152 46; 
153 38; 154 19; 155 15; 156 10; 157 21; 
158 16; 159 15; 160 29; 161 42; 162 43; 
163 12; 164 10; 165 52; 166 20; 167 11; 
168 14; 169 30; 170 14; 171 30; 172 20; 
173 35; 174 28; 175 34; 176 14; 177 13; 
178 24; 179 21; 180 14; 181 53; 182 21; 
183 21; 184 36; 185 34; 186 21; 187 18; 
188 24; 189 23; 190 23; 191 26; 192 15; 
193 23; 194 20; 195 32; 196 22; 197 41; 
198 35; 199 36; 200 31; 201 22; 202 35; 
203 16; 204 26; 205 27; 206 22; 207 29; 
208 24; 209 35; 210 33; 211 58; 212 40; 
213 28; 214 33; 215 22; 216 68; 217 20; 
218 16; 219 20; 220 12; 221 29; 222 10; 
223 52; 224 30; 225 36; 226 29; 227 29; 
228 20; 229 13; 230 16; 231 10; 232 10; 
233 12; 234 11; 235 23; 236 24; 237 46; 
238 33; 239 50; 240 43; 241 38; 242 38; 
243 47; 244 15; 245 9; 246 8; 247 12; 
248 10; 249 21; 250 16; 251 28; 252 38; 
253 30; 254 30; 255 24; 256 42; 257 5; 
258 7; 259 1; 261 5; 262 8; 263 25; 
264 26; 265 19; 266 28; 267 30; 268 30; 
269 19; 270 21; 271 3; 273 2; 276 1; 
277 8; 278 14; 279 16; 280 37; 281 33; 
282 32; 283 17; 284 22; 285 4; 290 1; 
291 2; 292 10; 293 7; 294 21; 295 21; 
296 22; 297 3; 298 4; 306 18; 307 9; 
308 17; 309 5; 310 9; 311 4; 312 14; 
313 1; 318 4; 320 8; 321 2; 322 17; 
323 11; 324 20; 325 6; 326 13; 327 1; 
334 20; 335 9; 336 67; 337 19; 338 31; 
339 10; 340 16; 341 6; 350 27; 351 12; 
352 117; 353 30; 354 9; 355 10; 362 3; 
364 14; 365 2; 366 190; 367 66; 368 16; 
369 1; 376 6; 378 999; 379 266; 380 47; 
381 5; 382 3; 392 86; 393 23; 394 28; 
395 6; 396 5; 406 2; 408 15; 409 1; 
410 251; 411 67; 412 13; 418 3; 419 10; 
420 72; 421 19; 422 2; 426 26; 427 4; 
434 209; 435 192; 436 53; 437 11; 448 2; 
449 126; 450 48; 451 7; 452 35; 453 12; 
466 22; 467 63; 468 18; 469 1; 
