Name: Bupropion
Synon: Wellbutrin
Synon: Zyban
Synon: Amfebutamone
Synon: 2-(tert-Butylamino)-1-(3-chlorophenyl)propan-1-one
InChIKey: SNPPWIUOZRMYNY-UHFFFAOYSA-N
Formula: C13H18ClNO
MW: 239
ExactMass: 239.107692
CASNO: 34911552
ID: 2764
Comment: DEA SWL / SWGDRUG Monograph available
Num Peaks: 73
40 3; 41 79; 42 66; 43 12; 44 999; 
45 25; 50 19; 51 12; 52 1; 53 3; 
54 2; 55 13; 56 11; 57 102; 58 19; 
59 1; 61 1; 62 1; 63 2; 65 1; 
67 1; 68 3; 69 2; 70 13; 71 2; 
72 1; 73 1; 74 9; 75 57; 76 14; 
77 13; 78 2; 82 1; 84 24; 85 16; 
86 1; 87 2; 89 2; 98 1; 99 1; 
100 380; 101 27; 102 2; 103 9; 104 2; 
105 1; 110 1; 111 87; 112 9; 113 30; 
114 3; 115 2; 125 1; 130 3; 131 23; 
132 3; 133 2; 139 53; 140 5; 141 17; 
142 1; 147 1; 151 1; 166 6; 167 2; 
168 5; 170 1; 171 1; 206 3; 208 1; 
224 17; 225 2; 226 5; 
