Name: Caffeine
Synon: 1,3,7-trimethyl-1H-purine-2,6(3H,7H)-dione-3,7-dihydro-1,3,7-trimethyl-1H-purine-2,6-dione
InChIKey: RYYVLZVUVIJVGH-UHFFFAOYSA-N
Formula: C8H10N4O2
MW: 194
ExactMass: 194.080376
CASNO: 58082
ID: 2768
Comment: DEA SWL
Num Peaks: 66
38 13; 39 20; 40 80; 41 76; 42 171; 
43 8; 44 3; 50 2; 51 13; 52 37; 
53 55; 54 69; 55 478; 56 81; 57 11; 
58 15; 64 2; 65 10; 66 62; 67 460; 
68 54; 69 20; 70 42; 77 6; 78 5; 
79 13; 80 22; 81 76; 82 311; 83 35; 
92 1; 93 7; 94 42; 95 14; 96 7; 
97 22; 106 1; 107 6; 108 39; 109 718; 
110 91; 111 14; 120 2; 121 4; 122 10; 
123 5; 124 9; 133 1; 135 6; 136 58; 
137 55; 138 27; 139 3; 149 7; 150 13; 
151 5; 152 7; 163 2; 164 6; 165 73; 
166 12; 179 1; 193 136; 194 999; 195 100; 
196 8; 
