Name: Clopidogrel
Synon: Plavix
InChIKey: GKTWGGQPFAXNFI-UHFFFAOYSA-N
Formula: C16H16ClNO2S
MW: 321
ExactMass: 321.059027
CASNO: 113665842
ID: 2776
Comment: DEA SWL / unverified from sample
Num Peaks: 144
40 1; 41 3; 42 3; 45 22; 47 1; 
50 4; 51 12; 52 4; 53 4; 54 1; 
58 6; 59 6; 61 1; 62 4; 63 17; 
64 3; 65 17; 66 19; 67 4; 69 8; 
70 4; 71 7; 72 1; 73 3; 74 2; 
75 10; 76 5; 77 40; 78 10; 79 12; 
80 1; 81 1; 82 3; 83 3; 84 19; 
85 5; 86 3; 87 3; 89 64; 90 21; 
91 28; 92 5; 93 2; 94 1; 95 5; 
96 5; 97 20; 98 2; 99 10; 100 2; 
101 4; 102 6; 103 2; 104 4; 105 15; 
106 2; 108 4; 109 34; 110 211; 111 42; 
112 16; 114 14; 115 3; 116 6; 117 16; 
118 2; 121 18; 122 12; 123 40; 125 236; 
126 22; 127 74; 128 6; 131 12; 132 5; 
133 5; 134 3; 135 3; 136 20; 138 248; 
139 34; 140 15; 141 6; 142 1; 148 3; 
149 4; 150 5; 152 174; 153 19; 154 57; 
155 48; 156 4; 157 14; 158 1; 164 1; 
165 3; 166 2; 167 1; 169 1; 171 3; 
172 1; 180 1; 182 1; 183 4; 184 9; 
185 3; 186 2; 190 1; 191 1; 192 1; 
193 1; 194 1; 197 2; 198 2; 199 3; 
200 1; 201 1; 208 1; 209 1; 210 4; 
211 1; 212 1; 222 1; 223 3; 224 3; 
225 2; 226 9; 227 3; 228 2; 233 1; 
234 1; 236 2; 238 1; 260 3; 262 999; 
263 161; 264 361; 265 55; 266 17; 267 2; 
320 7; 321 3; 322 3; 323 1; 
