Name: Diphylline
Synon: Dyphylline
InChIKey: KSCFJBIXMNOVSH-UHFFFAOYSA-N
Formula: C10H14N4O4
MW: 254
ExactMass: 254.101505
CASNO: 479185
ID: 2788
Comment: DEA SWL / unverified from smaple
Num Peaks: 157
40 100; 41 190; 42 261; 43 126; 44 34; 
45 34; 46 2; 47 3; 50 6; 51 18; 
52 47; 53 128; 54 141; 55 167; 56 93; 
57 102; 58 66; 59 4; 60 6; 61 50; 
62 3; 63 4; 64 5; 65 18; 66 84; 
67 253; 68 288; 69 89; 70 94; 71 8; 
72 6; 73 5; 74 3; 75 5; 76 2; 
77 23; 78 14; 79 37; 80 71; 81 328; 
82 171; 83 54; 84 12; 85 5; 86 1; 
87 1; 89 3; 90 2; 91 10; 92 10; 
93 35; 94 163; 95 615; 96 130; 97 35; 
98 8; 99 2; 100 5; 101 1; 102 2; 
103 6; 104 4; 105 23; 106 19; 107 36; 
108 140; 109 769; 110 89; 111 105; 112 15; 
113 2; 115 8; 116 2; 117 10; 118 9; 
119 4; 120 22; 121 22; 122 120; 123 306; 
124 143; 125 22; 126 4; 127 2; 128 1; 
132 5; 133 10; 134 52; 135 49; 136 144; 
137 184; 138 124; 139 15; 140 8; 141 8; 
142 2; 143 2; 144 1; 146 7; 147 5; 
148 12; 149 20; 150 25; 151 121; 152 62; 
153 10; 154 2; 160 2; 161 9; 162 27; 
163 21; 164 9; 165 63; 166 413; 167 37; 
168 9; 169 3; 174 1; 175 1; 176 1; 
177 3; 178 5; 180 999; 181 131; 182 12; 
183 1; 189 1; 190 1; 191 8; 193 556; 
194 851; 195 89; 196 12; 197 4; 203 15; 
204 21; 205 5; 206 3; 207 16; 208 8; 
209 4; 219 21; 220 115; 221 19; 223 736; 
224 129; 225 17; 226 1; 232 1; 235 4; 
236 84; 237 13; 238 1; 252 2; 254 292; 
255 37; 256 3; 
