Name: Dromostanolone Propionate
Synon: 5-.alpha.-Androstan-2.alpha.-methyl-17.beta.-ol-3-one Propionate
Synon: Drostanolone Propionate
Formula: C23H36O3
MW: 360
ExactMass: 360.266445
CASNO: 521120
ID: 2790
Comment: DEA SWL
Num Peaks: 221
41 150; 42 19; 43 74; 44 4; 45 4; 
51 3; 53 58; 54 18; 55 233; 57 999; 
58 34; 59 3; 63 1; 65 29; 66 17; 
67 201; 68 68; 69 142; 70 13; 71 25; 
72 4; 73 4; 74 2; 75 3; 77 107; 
78 25; 79 253; 80 51; 81 271; 82 38; 
83 47; 84 10; 85 13; 86 3; 87 2; 
89 1; 91 235; 92 44; 93 292; 94 377; 
95 313; 96 50; 97 49; 98 9; 99 5; 
100 2; 101 3; 102 1; 103 15; 105 195; 
106 59; 107 270; 108 102; 109 164; 110 30; 
111 45; 112 5; 113 6; 115 21; 116 10; 
117 46; 118 30; 119 160; 120 66; 121 199; 
122 73; 123 145; 124 54; 125 42; 126 4; 
127 5; 128 14; 129 22; 130 11; 131 70; 
132 29; 133 145; 134 59; 135 145; 136 128; 
137 102; 138 368; 139 46; 140 3; 141 5; 
142 7; 143 27; 144 30; 145 90; 146 55; 
147 179; 148 238; 149 659; 150 104; 151 93; 
152 17; 153 4; 154 2; 155 7; 156 3; 
157 34; 158 27; 159 96; 160 44; 161 223; 
162 96; 163 100; 164 18; 165 13; 166 3; 
167 3; 168 1; 169 7; 171 35; 172 20; 
173 77; 174 39; 175 93; 176 48; 177 138; 
178 33; 179 24; 180 2; 181 1; 183 8; 
184 4; 185 34; 186 13; 187 62; 188 29; 
189 61; 190 26; 191 21; 192 14; 193 19; 
194 4; 195 1; 196 1; 197 13; 198 8; 
199 45; 200 61; 201 143; 202 72; 203 44; 
204 22; 205 13; 206 4; 207 5; 211 11; 
213 54; 214 55; 215 74; 216 23; 217 45; 
218 30; 219 11; 220 2; 222 1; 223 2; 
225 12; 226 4; 227 20; 228 6; 229 48; 
230 28; 231 71; 232 20; 233 6; 234 2; 
235 1; 239 3; 240 2; 241 6; 243 74; 
244 61; 245 185; 246 39; 247 34; 248 9; 
249 2; 253 35; 254 7; 255 2; 257 19; 
258 113; 259 25; 260 26; 261 32; 262 7; 
267 13; 268 13; 269 19; 271 623; 272 129; 
273 19; 274 13; 275 9; 276 9; 277 2; 
286 645; 287 171; 288 27; 289 18; 290 3; 
291 1; 302 2; 303 11; 304 9; 305 4; 
316 1; 317 5; 318 1; 331 6; 332 2; 
342 1; 345 8; 346 1; 360 77; 361 21; 
362 2; 
