Name: Escitalopram
Synon: S-Citalopram
Synon: Lexapro
InChIKey: WSEQXVZVJXJVFP-UHFFFAOYSA-N
Formula: C20H21FN2O
MW: 324
ExactMass: 324.163792
CASNO: 128196010
ID: 2795
Comment: DEA SWL / unverified from sample
Num Peaks: 147
41 7; 42 47; 43 12; 44 13; 45 21; 
46 1; 50 1; 51 2; 54 1; 55 2; 
56 13; 58 999; 59 33; 62 2; 63 3; 
64 1; 65 1; 68 2; 69 2; 70 8; 
71 22; 72 2; 73 11; 74 2; 75 9; 
76 2; 77 2; 81 1; 82 1; 83 4; 
84 14; 85 2; 86 5; 87 2; 88 4; 
89 3; 90 1; 91 1; 94 1; 95 21; 
96 3; 99 1; 100 1; 101 4; 102 2; 
103 1; 105 1; 107 2; 109 14; 110 1; 
113 1; 114 7; 115 13; 116 7; 120 1; 
123 12; 124 1; 125 1; 126 1; 127 3; 
128 3; 129 2; 131 1; 133 6; 134 1; 
135 1; 140 6; 141 1; 142 1; 143 2; 
144 2; 145 1; 146 2; 150 1; 151 1; 
152 2; 153 1; 154 1; 155 1; 156 4; 
157 5; 158 3; 159 1; 162 1; 163 4; 
164 3; 165 1; 166 1; 168 1; 169 2; 
170 7; 171 3; 175 2; 176 1; 177 3; 
180 1; 181 8; 182 10; 183 31; 184 7; 
187 1; 188 4; 190 41; 191 6; 192 1; 
193 2; 194 3; 195 7; 196 2; 200 4; 
201 2; 202 1; 203 1; 206 3; 208 68; 
209 18; 210 3; 211 1; 212 1; 214 1; 
218 22; 219 8; 220 27; 221 27; 222 6; 
227 1; 232 2; 233 1; 234 4; 235 2; 
236 3; 237 23; 238 87; 239 14; 240 2; 
245 2; 246 1; 247 1; 248 1; 250 1; 
258 1; 260 1; 262 1; 295 3; 324 41; 
325 9; 326 1; 
