Name: Famiciclovir
Synon: Famvir
InChIKey: GGXKWVWZWMLJEH-UHFFFAOYSA-N
Formula: C14H19N5O4
MW: 321
ExactMass: 321.143703
CASNO: 104227874
ID: 2796
Comment: DEA SWL / unverified from sample
Num Peaks: 127
40 8; 41 30; 42 23; 43 506; 44 16; 
45 3; 51 3; 52 18; 53 30; 54 26; 
55 55; 56 7; 57 6; 61 7; 65 15; 
66 15; 67 61; 68 15; 69 7; 70 3; 
71 13; 73 9; 77 3; 78 5; 79 18; 
80 21; 81 46; 82 16; 83 173; 84 12; 
85 13; 91 2; 92 30; 93 18; 94 96; 
95 21; 96 3; 101 4; 104 4; 105 4; 
106 22; 107 42; 108 94; 109 39; 110 5; 
113 12; 117 1; 118 3; 119 56; 120 19; 
121 55; 122 7; 123 1; 124 1; 127 7; 
131 10; 132 5; 133 9; 134 75; 135 538; 
136 572; 137 41; 138 2; 144 3; 145 6; 
146 20; 147 21; 148 398; 149 155; 150 18; 
151 1; 152 12; 158 5; 159 6; 160 18; 
161 31; 162 167; 163 131; 164 19; 165 2; 
171 5; 172 3; 173 25; 174 31; 175 20; 
176 10; 177 2; 178 3; 185 8; 186 32; 
187 22; 188 229; 189 56; 190 93; 191 15; 
192 2; 194 2; 200 23; 201 17; 202 480; 
203 61; 204 6; 206 76; 207 8; 208 1; 
218 171; 219 27; 220 49; 221 6; 232 5; 
236 20; 237 3; 248 138; 249 20; 250 6; 
251 1; 260 2; 262 999; 263 150; 264 14; 
278 212; 279 37; 280 4; 281 1; 321 273; 
322 53; 323 7; 
