Name: Fenofibrate
Synon: Tricor
InChIKey: YMTINGFKWWXKFG-UHFFFAOYSA-N
Formula: C20H21ClO4
MW: 360
ExactMass: 360.112837
CASNO: 49562289
ID: 2797
Comment: DEA SWL / unverified from sample
Num Peaks: 133
40 7; 41 84; 42 28; 43 119; 44 5; 
45 15; 50 19; 51 7; 53 2; 55 4; 
57 1; 59 138; 60 5; 61 1; 62 3; 
63 16; 64 14; 65 35; 66 4; 67 3; 
69 28; 70 30; 71 8; 73 4; 74 9; 
75 57; 76 70; 77 11; 78 2; 79 2; 
80 1; 81 1; 85 4; 87 285; 88 15; 
89 5; 90 1; 91 26; 92 29; 93 57; 
94 9; 99 2; 101 10; 102 2; 103 3; 
104 45; 105 12; 106 2; 111 220; 112 18; 
113 77; 114 10; 115 10; 116 1; 119 10; 
121 999; 122 76; 123 8; 125 5; 126 4; 
127 2; 128 2; 129 36; 130 3; 133 3; 
134 26; 135 3; 137 14; 139 666; 140 66; 
141 215; 142 17; 143 1; 147 1; 149 24; 
150 13; 151 29; 152 72; 153 10; 161 9; 
162 2; 163 1; 165 2; 167 2; 168 10; 
169 6; 173 2; 175 57; 176 7; 177 19; 
178 3; 179 2; 180 49; 181 8; 182 1; 
186 3; 187 1; 188 1; 191 1; 192 2; 
195 1; 197 188; 198 27; 199 2; 202 1; 
203 29; 204 12; 205 11; 206 3; 213 1; 
214 1; 215 5; 216 2; 217 2; 230 2; 
232 498; 233 77; 234 166; 235 24; 236 2; 
238 3; 245 2; 273 675; 274 121; 275 228; 
276 39; 277 4; 301 2; 360 156; 361 39; 
362 58; 363 13; 364 2; 
