Name: Felopidine
Synon: Plendil
Synon: 3-ethyl 5-methyl 4-(2,3-dichlorophenyl)-2,6-dimethyl-1,4-dihydropyridine-3,5-dicarboxylate
InChIKey: RZTAMFZIAATZDJ-UHFFFAOYSA-N
Formula: C18H19Cl2NO4
MW: 383
ExactMass: 383.069113
CASNO: 72509763
ID: 2798
Comment: AAFS
Num Peaks: 250
39 3; 42 12; 51 2; 52 1; 53 3; 
59 4; 62 1; 63 4; 64 2; 65 3; 
66 2; 67 11; 74 4; 75 6; 76 4; 
77 8; 78 2; 79 2; 80 1; 84 1; 
86 1; 87 2; 88 1; 89 4; 90 3; 
91 5; 92 1; 93 1; 94 2; 99 2; 
101 1; 102 1; 104 6; 105 6; 106 12; 
107 4; 108 1; 109 8; 110 1; 111 3; 
112 1; 113 2; 114 1; 115 2; 116 1; 
118 1; 120 1; 121 4; 122 8; 123 1; 
124 1; 125 2; 126 4; 127 4; 128 2; 
130 1; 132 7; 133 3; 134 10; 135 3; 
136 3; 137 4; 138 5; 139 12; 140 5; 
141 2; 142 1; 145 6; 146 2; 147 5; 
148 3; 149 10; 150 39; 151 15; 152 10; 
153 4; 154 2; 155 1; 159 1; 160 7; 
161 3; 162 4; 163 2; 164 8; 165 13; 
166 5; 167 3; 168 3; 170 2; 172 1; 
173 9; 174 3; 175 6; 176 2; 177 4; 
178 39; 179 11; 180 13; 181 8; 182 2; 
183 1; 185 1; 186 1; 187 1; 188 1; 
189 1; 190 1; 191 1; 192 8; 193 2; 
194 2; 195 1; 196 1; 197 2; 198 1; 
199 2; 200 3; 201 4; 202 4; 203 2; 
204 2; 205 2; 206 3; 207 2; 208 2; 
209 4; 210 259; 211 30; 212 5; 213 1; 
214 8; 215 10; 216 11; 217 5; 218 3; 
219 1; 223 1; 224 1; 225 4; 226 1; 
227 1; 228 1; 229 1; 230 3; 231 2; 
232 2; 233 1; 234 1; 235 2; 236 3; 
238 999; 239 136; 240 19; 241 5; 242 5; 
243 12; 244 8; 245 6; 246 3; 248 1; 
250 3; 251 3; 253 1; 254 1; 255 1; 
258 1; 259 4; 260 11; 261 4; 262 3; 
263 1; 265 2; 266 1; 267 3; 268 2; 
269 8; 270 3; 271 3; 272 1; 274 5; 
275 2; 276 2; 277 1; 278 12; 279 3; 
280 16; 281 3; 282 7; 283 1; 284 1; 
286 1; 287 8; 288 6; 289 4; 290 2; 
294 4; 295 6; 296 12; 297 3; 298 5; 
299 1; 300 1; 301 1; 302 3; 303 1; 
304 5; 305 1; 306 3; 308 2; 310 29; 
311 4; 312 18; 313 2; 314 3; 318 3; 
320 1; 322 2; 323 1; 324 17; 325 4; 
326 10; 327 2; 328 1; 336 1; 338 24; 
339 4; 340 19; 341 3; 342 5; 343 1; 
346 2; 348 3; 350 1; 352 15; 353 2; 
354 41; 355 7; 356 23; 357 4; 358 3; 
368 7; 369 1; 370 5; 371 1; 382 1; 
383 22; 384 5; 385 14; 386 3; 387 2; 
