Name: Fluconazole
Synon: Diflucan
Synon: Trican
Synon: 2-(2,4-difluorophenyl)-1,3-bis(1H-1,2,4-triazol-1-yl)propan-2-ol
InChIKey: RFHAOTPXVQNOHP-UHFFFAOYSA-N
Formula: C13H12F2N6O
MW: 306
ExactMass: 306.104065
CASNO: 86386734
ID: 2801
Comment: AAFS
Num Peaks: 106
42 12; 43 11; 50 3; 51 4; 52 1; 
53 5; 54 10; 55 118; 56 35; 57 10; 
61 1; 62 4; 63 38; 64 2; 68 4; 
69 6; 70 24; 71 1; 74 4; 75 13; 
76 2; 77 12; 80 1; 81 9; 82 411; 
83 135; 84 5; 87 3; 88 4; 89 1; 
92 1; 93 8; 94 10; 95 13; 96 5; 
97 1; 99 9; 100 3; 101 53; 102 3; 
105 1; 106 1; 107 38; 108 7; 109 3; 
110 3; 111 1; 112 7; 113 118; 114 33; 
115 7; 118 1; 119 21; 120 6; 121 6; 
122 2; 123 3; 124 2; 125 144; 126 20; 
127 656; 128 53; 129 2; 133 2; 134 1; 
135 1; 138 9; 139 16; 140 13; 141 249; 
142 26; 143 2; 149 2; 150 1; 151 8; 
152 7; 153 3; 154 12; 155 50; 156 16; 
157 1; 164 1; 165 1; 166 1; 167 3; 
168 2; 169 6; 170 3; 179 1; 181 4; 
182 61; 183 6; 193 2; 194 1; 195 1; 
197 1; 204 1; 206 1; 219 1; 220 4; 
221 1; 222 1; 224 999; 225 123; 226 9; 
307 1; 
