Name: Glutethamide
Synon: 3-ethyl-3-phenyl-piperidine-2,6-dione
Synon: Doriden
InChIKey: JMBQKKAJIKAWKF-UHFFFAOYSA-N
Formula: C13H15NO2
MW: 217
ExactMass: 217.110279
CASNO: 77214
ID: 2803
Comment: DEA SWL
Num Peaks: 115
40 7; 41 26; 42 29; 43 7; 44 18; 
45 1; 50 26; 51 84; 52 23; 53 27; 
54 29; 55 42; 56 5; 58 15; 59 23; 
60 1; 61 1; 62 13; 63 52; 64 20; 
65 59; 66 7; 67 11; 68 3; 69 4; 
70 9; 71 5; 72 3; 73 7; 74 12; 
75 16; 76 24; 77 145; 78 82; 79 20; 
80 5; 82 29; 83 2; 84 1; 85 1; 
86 4; 87 10; 88 5; 89 74; 90 15; 
91 285; 92 25; 93 2; 94 1; 95 1; 
96 1; 98 2; 99 1; 100 1; 101 6; 
102 56; 103 175; 104 56; 105 45; 106 7; 
107 1; 111 1; 112 4; 113 6; 114 4; 
115 426; 116 115; 117 920; 118 128; 119 14; 
120 5; 121 1; 126 5; 127 21; 128 60; 
129 81; 130 42; 131 116; 132 582; 133 66; 
134 5; 135 2; 139 1; 140 5; 141 5; 
142 4; 143 17; 144 21; 145 32; 146 66; 
147 24; 148 3; 156 2; 157 73; 158 12; 
159 29; 160 407; 161 98; 162 10; 171 3; 
172 19; 173 5; 174 18; 175 4; 185 5; 
186 1; 187 2; 188 33; 189 999; 190 113; 
191 10; 202 43; 203 5; 217 58; 218 8; 
