Name: Griseofulvin
Synon: Gris-peg
Synon: Grifulvin V
InChIKey: DDUHZTYCFQRHIY-UHFFFAOYSA-N
Formula: C17H17ClO6
MW: 352
ExactMass: 352.071365
CASNO: 126078
ID: 2804
Comment: AAFS / Probability Based Matching Data Base Entry
Num Peaks: 180
42 43; 43 62; 44 23; 45 18; 51 44; 
52 20; 53 87; 55 88; 56 21; 57 43; 
59 65; 60 30; 61 17; 62 21; 63 38; 
65 61; 66 45; 67 84; 68 26; 69 334; 
70 28; 71 42; 72 18; 73 66; 74 24; 
75 48; 77 89; 78 30; 79 64; 80 27; 
81 27; 82 25; 83 74; 84 42; 85 49; 
86 18; 87 39; 89 31; 90 19; 91 34; 
93 38; 94 24; 95 97; 96 64; 97 105; 
98 67; 99 49; 100 39; 101 28; 102 26; 
103 47; 105 27; 106 20; 107 24; 108 22; 
109 80; 110 79; 111 44; 112 36; 113 33; 
115 47; 116 21; 117 18; 119 19; 121 27; 
122 20; 123 99; 124 31; 125 37; 126 70; 
127 63; 129 51; 131 18; 133 33; 134 32; 
135 37; 136 37; 137 62; 138 762; 139 105; 
140 152; 141 64; 142 62; 143 49; 145 20; 
149 25; 150 22; 151 21; 152 39; 153 32; 
155 39; 156 24; 157 26; 159 18; 165 32; 
168 49; 169 34; 170 24; 171 108; 172 24; 
173 37; 176 25; 179 23; 180 18; 181 18; 
183 26; 185 29; 193 19; 197 66; 199 32; 
200 33; 201 87; 202 24; 203 30; 207 23; 
209 24; 211 18; 213 28; 214 327; 215 320; 
216 122; 217 125; 218 20; 221 20; 222 20; 
223 20; 225 37; 234 35; 235 23; 236 35; 
237 53; 238 26; 239 64; 240 22; 241 32; 
250 20; 251 29; 252 37; 253 66; 254 97; 
255 55; 256 38; 257 23; 265 21; 266 26; 
267 79; 268 34; 269 92; 270 36; 271 25; 
279 20; 281 37; 282 87; 283 56; 284 176; 
285 43; 286 64; 287 29; 293 32; 295 62; 
297 19; 306 22; 309 45; 310 556; 311 133; 
312 145; 313 49; 318 27; 321 556; 322 122; 
323 216; 324 46; 335 29; 337 125; 338 26; 
339 45; 352 999; 353 202; 354 313; 355 67; 
