Name: Ketoprofen
Synon: (RS)-2-(3-benzoylphenyl)propanoic acid
Synon: Orudis
InChIKey: DKYWVDODHFEZIM-UHFFFAOYSA-N
Formula: C16H14O3
MW: 254
ExactMass: 254.094295
CASNO: 22071154
ID: 2808
Comment: DEA SWL
Num Peaks: 55
39 27; 41 6; 43 27; 44 9; 45 26; 
50 48; 51 173; 52 27; 53 16; 55 7; 
62 8; 63 35; 65 17; 73 2; 74 14; 
75 22; 76 40; 77 678; 78 110; 79 18; 
82 9; 89 10; 91 31; 93 6; 102 28; 
103 174; 104 85; 105 999; 106 74; 115 6; 
131 49; 132 11; 133 10; 135 44; 147 4; 
149 23; 151 6; 152 21; 165 37; 166 18; 
177 406; 178 63; 179 8; 180 21; 181 129; 
182 26; 191 9; 194 34; 207 7; 208 15; 
209 271; 210 81; 211 13; 254 150; 255 27; 
