Name: Terbenafine
Synon: Lamisil
InChIKey: DOMXUEMWDBAQBQ-WEVVVXLNSA-N
Formula: C21H25N
MW: 291
ExactMass: 291.1987
CASNO: 91161716
ID: 2813
Comment: DEA SWL / unverified from sample
Num Peaks: 154
40 1; 41 21; 42 61; 43 6; 44 8; 
50 2; 51 7; 52 3; 53 9; 54 1; 
55 9; 56 3; 57 10; 58 1; 62 1; 
63 8; 64 2; 65 17; 66 3; 67 11; 
68 2; 69 8; 70 10; 74 2; 75 4; 
76 3; 77 45; 78 10; 79 30; 80 9; 
81 9; 82 9; 83 2; 87 2; 88 1; 
89 10; 90 1; 91 66; 92 9; 93 31; 
94 24; 95 4; 96 1; 98 1; 101 3; 
102 5; 103 8; 104 4; 105 25; 106 12; 
107 16; 108 11; 109 10; 110 1; 113 4; 
114 2; 115 192; 116 19; 117 5; 118 7; 
119 10; 120 19; 121 8; 122 3; 123 1; 
125 1; 126 10; 127 22; 128 20; 129 4; 
130 1; 131 1; 132 4; 133 2; 134 21; 
135 15; 136 1; 137 1; 138 2; 139 46; 
141 999; 142 175; 143 13; 146 1; 148 14; 
149 2; 150 68; 151 8; 152 4; 153 13; 
154 13; 155 9; 156 1; 162 9; 163 2; 
164 17; 165 11; 166 7; 167 12; 168 46; 
169 17; 170 13; 171 2; 178 5; 179 5; 
180 2; 181 8; 182 37; 183 7; 184 2; 
189 2; 190 1; 191 7; 192 4; 193 4; 
194 26; 195 8; 196 58; 197 8; 202 2; 
203 5; 204 5; 205 3; 206 2; 207 3; 
208 3; 210 1; 215 1; 216 1; 217 2; 
218 3; 219 22; 220 9; 221 2; 230 1; 
231 1; 232 2; 233 5; 234 83; 235 19; 
236 2; 245 1; 246 1; 248 33; 249 7; 
260 1; 274 1; 276 183; 277 40; 278 4; 
290 32; 291 55; 292 12; 293 1; 
