Name: Loxapine
Synon: Loxitane
Synon: Loxapac
Synon: 2-Chloro-11-(4-methylpiperazin-1-yl)dibenzo[b,f][1,4]oxazepine
InChIKey: XJGVXQDUIWGIRW-UHFFFAOYSA-N
Formula: C18H18ClN3O
MW: 327
ExactMass: 327.11384
CASNO: 1977102
ID: 2815
Comment: DEA SWL
Num Peaks: 226
40 4; 41 22; 42 346; 43 207; 44 55; 
45 1; 49 1; 50 23; 51 27; 52 12; 
53 9; 54 25; 55 28; 56 172; 57 36; 
58 34; 59 1; 61 3; 62 12; 63 59; 
64 40; 65 15; 66 2; 67 4; 68 7; 
69 7; 70 999; 71 127; 72 12; 73 12; 
74 18; 75 42; 76 23; 77 26; 78 9; 
79 2; 80 5; 81 5; 82 106; 83 938; 
84 61; 85 9; 86 6; 87 13; 88 15; 
89 13; 90 8; 91 5; 92 28; 93 5; 
94 1; 95 4; 96 2; 97 25; 98 44; 
99 55; 100 18; 101 7; 102 14; 103 6; 
104 5; 105 5; 106 2; 108 3; 109 2; 
110 8; 111 13; 112 6; 113 14; 114 19; 
115 10; 116 5; 117 4; 118 2; 119 2; 
120 3; 122 2; 123 6; 124 15; 125 12; 
126 26; 127 9; 128 9; 129 3; 130 5; 
131 2; 132 1; 133 1; 135 1; 136 6; 
137 24; 138 57; 139 70; 140 39; 141 5; 
142 3; 143 2; 145 2; 146 9; 147 5; 
148 2; 149 10; 150 11; 151 12; 152 15; 
153 11; 154 4; 155 1; 156 1; 160 1; 
161 2; 162 3; 163 9; 164 215; 165 60; 
166 30; 167 11; 168 4; 169 1; 171 1; 
172 1; 173 25; 174 35; 175 14; 176 13; 
177 7; 178 6; 179 13; 180 10; 181 5; 
182 1; 186 1; 187 1; 188 2; 189 2; 
190 2; 191 7; 192 26; 193 393; 194 81; 
195 13; 196 1; 198 3; 200 23; 201 10; 
202 27; 203 9; 204 8; 205 9; 206 10; 
207 10; 208 9; 209 2; 210 1; 212 1; 
213 1; 214 10; 215 8; 216 11; 217 5; 
218 4; 219 6; 220 7; 221 26; 222 35; 
223 6; 226 1; 227 20; 228 187; 229 56; 
230 72; 231 17; 232 4; 233 1; 234 5; 
235 18; 236 4; 237 1; 239 2; 240 3; 
241 7; 242 6; 243 7; 244 46; 245 58; 
246 22; 247 23; 248 4; 249 12; 250 2; 
252 1; 253 2; 254 4; 255 15; 256 5; 
257 421; 258 72; 259 137; 260 21; 261 2; 
267 1; 268 3; 269 84; 270 34; 271 48; 
272 15; 273 8; 274 1; 281 1; 282 2; 
283 25; 284 6; 285 10; 286 2; 295 1; 
297 3; 298 1; 310 1; 312 3; 324 1; 
325 2; 326 4; 327 44; 328 10; 329 16; 
330 3; 
