Name: Lysergic acid amide
Synon: Lysergamide
Synon: Ergine
Synon: 9,10-Didehydro-6-methyl-ergoline-8-.beta.-carboxamide
Synon: LSA
Synon: LA-111
InChIKey: GENAHGKEFJLNJB-UHFFFAOYSA-N
Formula: C16H17N3O
MW: 267
ExactMass: 267.137161
CASNO: 478944
ID: 2816
Comment: DEA SFL1
Num Peaks: 169
29 1; 30 6; 36 3; 38 3; 39 12; 
40 3; 41 12; 42 81; 43 17; 44 92; 
45 6; 50 8; 51 16; 52 8; 53 5; 
54 4; 55 9; 56 6; 57 7; 58 3; 
59 2; 62 8; 63 23; 64 2; 65 6; 
66 1; 67 5; 68 8; 69 6; 70 15; 
71 7; 72 34; 73 9; 74 11; 75 29; 
76 31; 77 32; 78 5; 79 3; 81 10; 
82 15; 83 10; 84 29; 85 2; 86 5; 
87 13; 88 9; 89 36; 90 5; 91 4; 
93 6; 94 7; 96 28; 97 21; 98 10; 
99 10; 100 7; 101 15; 102 23; 103 45; 
104 23; 105 1; 110 108; 111 114; 112 49; 
113 16; 114 10; 115 26; 116 8; 117 12; 
119 1; 123 1; 124 8; 125 26; 126 45; 
127 116; 128 28; 129 9; 130 11; 131 2; 
133 2; 134 2; 135 2; 137 12; 138 11; 
139 48; 140 38; 141 17; 142 9; 143 5; 
144 3; 147 2; 149 10; 150 57; 151 129; 
152 168; 153 125; 154 301; 155 60; 156 8; 
161 5; 162 5; 163 25; 164 43; 165 66; 
166 61; 167 173; 168 57; 169 13; 170 1; 
175 5; 176 15; 177 33; 178 193; 179 211; 
180 408; 181 232; 182 72; 183 15; 184 3; 
188 2; 189 7; 190 21; 191 86; 192 194; 
193 88; 194 63; 195 96; 196 279; 197 46; 
198 2; 203 9; 204 15; 205 183; 206 152; 
207 522; 208 135; 209 139; 210 23; 211 4; 
216 4; 217 4; 218 5; 219 33; 220 134; 
221 571; 222 157; 223 229; 224 154; 225 25; 
226 1; 231 1; 232 5; 233 10; 234 6; 
235 20; 236 6; 237 2; 248 11; 249 51; 
250 87; 251 20; 252 15; 253 3; 265 4; 
266 62; 267 999; 268 195; 269 20; 
