Name: MBDB
InChIKey: USWVWJSAJAEEHQ-UHFFFAOYSA-N
Synon: METHYL-J
Synon: PIHKAL #128
Synon: EDEN
Synon: N-Methyl-1-(1,3-benzodioxol-5-yl)-2-butanamine
Formula: C12H17NO2
MW: 207
ExactMass: 207.125929
CASNO: 103818468
ID: 2817
Comment: DEA SWL
Num Peaks: 78
40 2; 41 24; 42 50; 43 5; 44 32; 
50 8; 51 45; 52 8; 53 7; 54 4; 
55 4; 56 30; 57 68; 58 3; 60 1; 
62 4; 63 13; 64 3; 65 10; 66 2; 
67 3; 68 3; 70 24; 71 7; 72 999; 
73 49; 74 3; 75 3; 76 7; 77 69; 
78 17; 79 15; 80 2; 81 2; 84 1; 
88 1; 89 52; 90 3; 91 10; 92 2; 
93 1; 94 1; 102 2; 103 7; 104 5; 
105 16; 106 5; 107 6; 115 3; 116 2; 
117 4; 118 6; 119 3; 120 12; 121 5; 
122 1; 130 1; 131 4; 132 2; 133 2; 
134 2; 135 88; 136 20; 137 2; 145 1; 
146 2; 147 5; 148 9; 149 1; 160 1; 
162 1; 163 3; 176 3; 177 4; 178 27; 
179 3; 206 1; 207 1; 
