Name: Medazepam
Synon: 9-chloro-2-methyl-6-phenyl-2,5-diazabicyclo[5.4.0]undeca-5,8,10,12-tetraene
InChIKey: YLCXGBZIZBEVPZ-UHFFFAOYSA-N
Formula: C16H15ClN2
MW: 270
ExactMass: 270.092377
CASNO: 2898126
ID: 2818
Comment: DEA SWL
Num Peaks: 174
40 3; 41 6; 42 30; 43 2; 44 1; 
49 2; 50 19; 51 44; 52 9; 53 2; 
54 3; 55 2; 56 2; 61 3; 62 11; 
63 32; 64 9; 65 19; 66 4; 68 2; 
70 4; 73 10; 74 17; 75 43; 76 32; 
77 72; 78 12; 79 2; 82 16; 83 1; 
84 3; 85 4; 86 9; 87 14; 88 18; 
89 62; 90 22; 91 64; 92 5; 93 1; 
95 1; 96 19; 97 4; 98 8; 99 14; 
100 13; 101 14; 102 37; 103 38; 104 33; 
105 4; 109 15; 110 4; 111 28; 112 9; 
113 19; 114 12; 115 17; 116 27; 117 33; 
118 4; 120 1; 121 2; 122 2; 123 11; 
124 11; 125 19; 126 18; 127 15; 128 18; 
129 7; 130 26; 131 14; 132 2; 134 11; 
135 7; 136 12; 137 23; 138 25; 139 27; 
140 14; 141 4; 142 3; 143 4; 144 4; 
149 6; 150 22; 151 30; 152 23; 153 9; 
154 4; 155 2; 156 1; 161 5; 162 17; 
163 95; 164 104; 165 226; 166 65; 167 16; 
168 3; 173 3; 174 2; 175 5; 176 15; 
177 25; 178 36; 179 71; 180 14; 181 18; 
182 2; 186 2; 187 1; 188 7; 189 8; 
190 48; 191 45; 192 61; 193 18; 194 3; 
198 3; 199 25; 200 7; 201 16; 202 6; 
203 9; 204 35; 205 31; 206 186; 207 999; 
208 167; 209 12; 211 1; 212 3; 213 2; 
214 4; 215 2; 216 2; 217 6; 218 13; 
219 10; 220 1; 224 2; 225 2; 226 11; 
227 74; 228 17; 229 26; 230 4; 231 1; 
232 2; 233 9; 234 5; 235 3; 238 5; 
239 6; 240 16; 242 846; 243 149; 244 271; 
245 44; 246 3; 252 4; 253 11; 254 4; 
255 6; 256 1; 257 1; 267 2; 269 122; 
270 144; 271 62; 272 47; 273 8; 
