Name: Meperidine
Synon: Demerol
Synon: Pethidine
Synon: Ethyl 1-methyl-4-phenylpiperidine-4-carboxylate
InChIKey: XADCESSVHJOZHK-UHFFFAOYSA-N
Formula: C15H21NO2
MW: 247
ExactMass: 247.157228
CASNO: 57421
ID: 2819
Comment: DEA SWL
Num Peaks: 118
40 3; 41 24; 42 361; 43 178; 44 206; 
45 8; 50 8; 51 38; 52 11; 53 37; 
54 8; 55 13; 56 34; 57 346; 58 34; 
59 3; 62 2; 63 17; 64 3; 65 27; 
66 3; 67 3; 68 6; 70 488; 71 999; 
72 49; 73 2; 74 3; 75 6; 76 11; 
77 102; 78 24; 80 17; 81 9; 82 15; 
83 9; 84 7; 86 6; 87 19; 88 3; 
89 14; 90 4; 91 204; 92 17; 93 2; 
94 20; 95 3; 96 165; 97 13; 98 1; 
99 10; 101 3; 102 32; 103 235; 104 28; 
105 14; 106 1; 107 2; 110 3; 114 1; 
115 128; 116 66; 117 38; 118 8; 119 1; 
120 11; 121 1; 126 7; 127 26; 128 64; 
129 68; 130 24; 131 110; 132 20; 133 4; 
134 5; 138 1; 140 87; 141 13; 142 5; 
143 11; 144 32; 145 10; 146 9; 147 2; 
149 8; 154 3; 155 16; 156 14; 157 10; 
158 42; 159 12; 160 2; 161 1; 162 7; 
163 1; 168 2; 169 16; 170 13; 172 270; 
173 60; 174 160; 175 23; 176 3; 177 9; 
190 34; 191 3; 202 15; 203 2; 218 163; 
219 28; 220 3; 232 52; 233 7; 246 193; 
247 291; 248 46; 249 5; 
