Name: Mercuric chloride
Synon: Mercury (II) chloride
InChIKey: LWJROJCJINYWOX-UHFFFAOYSA-L
Formula: Cl2Hg
MW: 272
ExactMass: 271.908348
CASNO: 7487947
ID: 2820
Comment: DEA WRL
Num Peaks: 40
45 1; 64 18; 65 1; 66 1; 70 1; 
100 43; 101 48; 102 11; 117 1; 118 3; 
135 15; 136 22; 137 12; 138 3; 162 1; 
196 3; 198 197; 199 336; 200 464; 201 278; 
202 606; 204 142; 233 15; 234 25; 235 41; 
236 27; 237 51; 238 7; 239 23; 241 3; 
268 221; 269 368; 270 645; 271 534; 272 999; 
273 239; 274 640; 275 32; 276 165; 278 15; 
