Name: JWH-018 N-(5-bromopentyl) analog
Synon: (1-(5-bromopentyl)-1H-indol-3-yl)(naphthalen-1-yl)methanone
InChIKey: QDWNXDILPHVKLY-UHFFFAOYSA-N
Formula: C24H22BrNO
MW: 419
ExactMass: 419.088476
CASNO: 0
ID: 2824
Comment: Provided by www.caymanchem.com/app/template/landing%2CForensic.vm / Item #11047  Lot #0434100
Num Peaks: 85
41 350; 43 62; 51 33; 69 176; 73 51; 
75 69; 76 50; 77 119; 89 64; 101 106; 
102 131; 103 44; 107 44; 113 43; 114 43; 
115 124; 116 151; 117 33; 121 35; 126 180; 
127 931; 128 319; 129 129; 130 106; 139 31; 
142 450; 143 43; 144 380; 145 46; 154 42; 
155 601; 156 111; 157 45; 167 203; 168 56; 
170 62; 184 37; 189 30; 207 17; 209 37; 
212 147; 213 96; 214 69; 215 87; 226 54; 
227 35; 228 43; 239 34; 240 128; 241 246; 
242 93; 253 81; 254 269; 255 145; 256 116; 
265 32; 266 76; 267 79; 268 56; 269 143; 
270 374; 271 102; 281 64; 282 67; 284 999; 
285 297; 286 31; 292 412; 293 83; 294 403; 
295 96; 296 40; 322 60; 338 52; 339 131; 
340 98; 341 58; 402 317; 404 306; 405 118; 
418 286; 419 652; 420 416; 421 686; 422 150; 
