Name: JWH-018 N-(1-methylbutyl) isomer
Synon: Naphthalen-1-yl(1-(pentan-2-yl)-1H-indol-3-yl)methanone
Synon: JWH-073 1-methylbutyl homolog
InChIKey: KTHPRMCSIRQVGE-UHFFFAOYSA-N
Formula: C24H23NO
MW: 341
ExactMass: 341.177965
CASNO: 0
ID: 2827
Comment: Provided by www.caymanchem.com/app/template/landing%2CForensic.vm / Item #9001002  Lot 0429776
Num Peaks: 135
41 33; 43 87; 44 11; 51 6; 55 10; 
62 6; 63 8; 65 7; 71 10; 74 12; 
75 18; 77 32; 87 10; 88 9; 89 45; 
90 11; 93 7; 96 19; 101 35; 102 12; 
103 6; 106 8; 113 10; 114 16; 115 48; 
116 83; 117 19; 118 8; 119 9; 120 16; 
126 74; 127 413; 128 90; 129 18; 130 11; 
131 11; 134 7; 135 13; 136 16; 139 15; 
140 6; 141 8; 142 20; 143 38; 144 368; 
145 51; 146 5; 149 26; 150 11; 152 10; 
153 7; 154 7; 155 338; 156 35; 157 6; 
163 8; 165 22; 167 10; 170 49; 171 8; 
172 6; 176 7; 177 13; 179 4; 184 13; 
186 17; 187 9; 188 10; 189 13; 190 6; 
194 11; 200 8; 202 7; 207 13; 208 11; 
209 2; 211 4; 212 9; 213 72; 214 252; 
215 95; 216 13; 221 5; 223 7; 224 7; 
225 6; 226 20; 227 17; 228 9; 237 6; 
238 17; 239 14; 240 67; 241 173; 242 98; 
243 29; 244 9; 249 9; 251 12; 252 10; 
253 23; 254 135; 255 52; 256 19; 265 8; 
267 9; 268 19; 269 63; 270 377; 271 77; 
272 9; 280 7; 281 6; 282 8; 283 34; 
284 24; 294 12; 296 7; 298 999; 299 233; 
300 36; 312 13; 313 7; 315 7; 323 7; 
324 32; 325 22; 326 64; 327 17; 328 7; 
329 7; 332 7; 341 582; 342 140; 343 19; 
