Name: JWH-018 N-(1,2-dimethylpropyl) isomer
Synon: (1-(3-methylbutan-2-yl)-1H-indol-3-yl)(naphthalen-1-yl)methanone
InChIKey: WMDLKBSZYZXZFI-UHFFFAOYSA-N
Formula: C24H23NO
MW: 341
ExactMass: 341.177965
CASNO: 0
ID: 2829
Comment: Provided by www.caymanchem.com/app/template/landing%2CForensic.vm / Item #9001003  Lot #0429805
Num Peaks: 152
40 2; 41 36; 42 5; 43 83; 44 2; 
50 1; 51 7; 52 1; 53 5; 54 1; 
55 16; 56 1; 62 2; 63 7; 64 1; 
65 1; 69 1; 70 1; 71 9; 74 3; 
75 14; 76 6; 77 25; 78 3; 86 1; 
87 3; 88 6; 89 23; 90 3; 91 1; 
94 2; 98 1; 99 2; 100 3; 101 30; 
102 9; 103 1; 106 4; 113 8; 114 9; 
115 35; 116 38; 117 5; 118 1; 121 6; 
122 1; 126 38; 127 292; 128 60; 129 7; 
130 3; 131 3; 133 2; 134 4; 135 6; 
139 6; 140 6; 142 12; 143 18; 144 91; 
145 9; 146 1; 147 1; 149 25; 151 2; 
152 3; 153 3; 155 184; 156 27; 157 2; 
163 4; 164 1; 165 2; 167 3; 168 1; 
170 37; 171 5; 174 1; 175 1; 176 2; 
181 1; 184 1; 186 2; 187 6; 188 4; 
189 5; 190 1; 198 2; 199 1; 200 2; 
201 2; 202 4; 211 3; 212 5; 213 29; 
214 32; 215 27; 216 5; 217 1; 224 3; 
225 5; 226 12; 227 7; 228 5; 229 2; 
237 1; 238 6; 239 6; 240 28; 241 66; 
242 32; 243 10; 244 2; 251 5; 252 7; 
253 10; 254 52; 255 24; 256 3; 264 1; 
265 1; 266 3; 267 5; 268 11; 269 25; 
270 112; 271 25; 272 2; 278 2; 280 6; 
281 5; 282 6; 283 16; 284 6; 285 1; 
294 1; 296 5; 298 999; 299 229; 300 25; 
301 2; 308 1; 310 1; 324 3; 325 1; 
326 3; 327 1; 339 2; 341 336; 342 91; 
343 13; 344 1; 
