Name: JWH-011
Synon: JWH-004 1-methylhexyl analog
Synon: [2-methyl-1-(1-methylhexyl)-1H-indol-3-yl]-1-naphthalenyl-methanone
InChIKey: HVIWIQFCDXFBDK-UHFFFAOYSA-N
Formula: C27H29NO
MW: 383
ExactMass: 383.224915
CASNO: 155471139
ID: 2831
Comment: Provided by www.caymanchem.com/app/template/landing%2CForensic.vm / Item #9001058  Lot #0431461
Num Peaks: 204
41 123; 42 10; 43 106; 44 13; 50 2; 
51 5; 53 5; 55 38; 56 7; 57 186; 
58 8; 62 5; 63 3; 65 7; 69 3; 
74 6; 75 10; 76 10; 77 59; 78 9; 
79 2; 87 6; 88 13; 89 16; 90 2; 
91 3; 94 3; 98 2; 99 2; 100 6; 
101 39; 102 42; 103 53; 104 10; 105 2; 
107 2; 108 3; 111 2; 112 4; 113 8; 
114 8; 115 52; 116 22; 117 8; 118 4; 
120 12; 121 16; 125 7; 126 80; 127 663; 
128 214; 129 96; 130 105; 131 9; 132 5; 
134 17; 135 10; 137 3; 139 12; 140 17; 
141 16; 142 18; 143 15; 144 6; 145 3; 
147 8; 148 25; 150 5; 151 5; 152 9; 
153 28; 155 828; 156 138; 157 86; 158 451; 
159 51; 160 2; 163 11; 165 14; 166 5; 
167 17; 168 11; 169 4; 170 10; 171 4; 
175 2; 176 5; 177 2; 178 3; 179 2; 
181 7; 182 4; 183 3; 184 51; 185 10; 
186 30; 187 18; 188 12; 189 28; 190 4; 
191 6; 193 6; 194 4; 195 2; 196 2; 
197 2; 198 28; 199 9; 200 9; 201 4; 
202 8; 203 5; 204 2; 208 3; 210 2; 
211 9; 212 16; 213 125; 214 74; 215 187; 
216 34; 217 9; 224 11; 225 16; 226 38; 
227 19; 228 35; 229 12; 230 6; 231 2; 
237 9; 238 9; 239 37; 240 75; 241 190; 
242 148; 243 36; 244 12; 249 3; 250 1; 
251 11; 252 24; 253 40; 254 188; 255 85; 
256 128; 257 41; 258 6; 264 5; 265 26; 
266 61; 267 92; 268 186; 269 259; 270 999; 
271 215; 272 19; 278 5; 279 6; 280 6; 
281 10; 282 41; 283 43; 284 383; 285 305; 
286 58; 287 9; 291 4; 292 8; 293 3; 
294 12; 296 79; 297 20; 298 34; 299 13; 
304 3; 308 5; 309 3; 310 20; 312 321; 
313 141; 314 24; 315 7; 324 10; 325 3; 
326 176; 327 54; 328 7; 338 3; 340 43; 
341 17; 354 13; 355 6; 356 2; 362 2; 
366 155; 368 373; 369 113; 370 24; 382 318; 
383 731; 384 220; 385 31; 386 3; 
