Name: JWH-007
Synon: 1-pentyl-2-methyl-3-(1-naphthoyl)indole
InChIKey: IBBNKINXTRKICJ-UHFFFAOYSA-N
Formula: C25H25NO
MW: 355
ExactMass: 355.193615
CASNO: 155471106
ID: 2832
Comment: Jason Nawyn / standard from Cayman Chemicals (lot # 0426185-4)
Num Peaks: 196
39 8; 40 1; 41 32; 42 4; 43 72; 
44 1; 50 1; 51 5; 52 1; 53 2; 
55 8; 56 1; 62 1; 63 5; 64 1; 
65 3; 69 1; 71 1; 74 2; 75 7; 
76 6; 77 31; 78 4; 79 1; 87 2; 
88 4; 89 10; 90 3; 91 3; 94 1; 
95 2; 99 1; 100 3; 101 19; 102 19; 
103 22; 104 4; 107 5; 109 1; 112 1; 
113 8; 114 6; 115 44; 116 10; 117 8; 
118 3; 120 5; 121 10; 122 1; 125 4; 
126 41; 127 334; 128 81; 129 38; 130 45; 
131 6; 133 5; 134 16; 135 14; 139 9; 
140 12; 141 18; 142 22; 143 18; 144 24; 
145 3; 147 1; 148 1; 149 19; 151 2; 
152 7; 153 17; 154 10; 155 296; 156 41; 
157 21; 158 131; 159 15; 160 1; 162 1; 
164 14; 165 3; 166 1; 167 4; 168 5; 
169 1; 170 7; 171 7; 172 28; 173 4; 
174 1; 175 1; 176 2; 178 15; 179 1; 
181 7; 182 2; 184 10; 185 3; 186 12; 
187 7; 188 4; 189 9; 190 2; 198 10; 
199 2; 200 9; 201 3; 202 4; 203 1; 
207 1; 211 3; 212 12; 213 35; 214 20; 
215 37; 216 7; 217 1; 224 4; 225 5; 
226 19; 227 8; 228 143; 229 28; 230 4; 
237 3; 238 4; 239 14; 240 17; 241 66; 
242 31; 243 8; 244 1; 249 1; 250 1; 
251 6; 252 11; 253 22; 254 80; 255 36; 
256 36; 257 10; 258 1; 264 4; 265 8; 
266 19; 267 32; 268 51; 269 65; 270 232; 
271 49; 272 6; 278 4; 279 5; 280 19; 
281 13; 282 103; 283 45; 284 108; 285 43; 
286 7; 292 1; 293 1; 294 3; 295 2; 
296 34; 297 11; 298 336; 299 200; 300 41; 
301 5; 310 5; 311 3; 312 99; 313 26; 
314 3; 324 4; 325 1; 326 66; 327 19; 
328 3; 336 3; 337 5; 338 276; 339 76; 
340 448; 341 115; 342 16; 343 2; 352 1; 
353 3; 354 636; 355 999; 356 250; 357 34; 
358 3; 
