Name: JWH-015
Synon: (2-Methyl-1-propyl-1H-indol-3-yl)-1-naphthalenylmethanone
InChIKey: LJSBBBWQTLXQEN-UHFFFAOYSA-N
Formula: C23H21NO
MW: 327
ExactMass: 327.162313
CASNO: 155471082
ID: 2833
Comment: Jason Nawyn
Num Peaks: 178
39 8; 40 1; 41 32; 42 4; 43 33; 
50 3; 51 9; 52 2; 53 1; 62 3; 
63 9; 64 1; 65 4; 74 5; 75 14; 
76 10; 77 48; 78 7; 79 1; 86 1; 
87 5; 88 6; 89 17; 90 4; 91 4; 
94 1; 95 4; 98 1; 99 2; 100 4; 
101 27; 102 26; 103 34; 104 7; 105 1; 
107 6; 112 1; 113 10; 114 7; 115 53; 
116 12; 117 7; 118 3; 119 5; 120 3; 
121 11; 125 6; 126 52; 127 313; 128 86; 
129 37; 130 62; 131 8; 132 1; 133 1; 
134 14; 135 11; 139 9; 140 9; 141 14; 
142 22; 143 15; 144 12; 145 1; 149 10; 
150 16; 151 3; 152 7; 153 15; 154 9; 
155 179; 156 26; 157 29; 158 151; 159 18; 
160 1; 161 1; 162 1; 164 15; 165 5; 
166 1; 167 3; 168 5; 169 1; 170 6; 
171 4; 172 14; 173 2; 174 2; 175 1; 
176 3; 178 1; 181 7; 182 1; 184 14; 
185 2; 186 2; 187 9; 188 5; 189 11; 
190 2; 198 5; 199 3; 200 231; 201 36; 
202 8; 203 1; 210 1; 211 6; 212 5; 
213 46; 214 22; 215 40; 216 8; 217 1; 
223 1; 224 6; 225 6; 226 21; 227 10; 
228 9; 229 4; 230 1; 237 3; 238 5; 
239 15; 240 20; 241 70; 242 30; 243 8; 
244 1; 250 2; 251 8; 252 12; 253 21; 
254 82; 255 38; 256 40; 257 10; 258 1; 
264 4; 265 7; 266 19; 267 33; 268 51; 
269 61; 270 281; 271 59; 272 6; 278 4; 
279 5; 280 18; 282 32; 283 31; 284 88; 
285 43; 286 7; 294 2; 295 1; 296 9; 
297 4; 298 123; 299 35; 300 5; 308 8; 
309 9; 310 349; 311 90; 312 162; 313 38; 
314 4; 324 2; 325 4; 326 892; 327 999; 
328 225; 329 28; 330 2; 
