Name: JWH-016
Synon: (1-butyl-2-methyl-1H-indol-3-yl)-1-naphthalenyl-methanone
InChIKey: QKXRHYJSCZFHEK-UHFFFAOYSA-N
Formula: C24H23NO
MW: 341
ExactMass: 341.177965
CASNO: 155471093
ID: 2834
Comment: Provided by www.caymanchem.com/app/template/landing%2CForensic.vm / Item #10849  Lot #0430294
Num Peaks: 194
40 6; 41 113; 42 7; 43 4; 50 5; 
51 19; 52 3; 53 4; 55 9; 56 3; 
57 37; 58 2; 62 6; 63 17; 64 3; 
65 9; 74 6; 75 25; 76 23; 77 84; 
78 15; 79 2; 86 2; 87 11; 88 9; 
89 30; 90 6; 91 8; 95 8; 96 3; 
98 2; 99 2; 100 7; 101 44; 102 50; 
103 56; 104 11; 106 11; 107 6; 108 3; 
112 3; 113 20; 114 16; 115 92; 116 20; 
117 15; 118 6; 120 13; 121 16; 125 10; 
126 89; 127 563; 128 160; 129 70; 130 94; 
131 11; 133 8; 134 25; 135 23; 136 4; 
137 2; 139 18; 140 19; 141 28; 142 41; 
143 35; 144 41; 145 5; 147 3; 149 24; 
150 6; 151 6; 152 13; 153 28; 155 381; 
156 66; 157 49; 158 228; 159 27; 160 2; 
162 2; 163 12; 164 4; 165 7; 166 2; 
167 6; 168 11; 169 2; 171 27; 172 46; 
173 6; 174 3; 175 3; 176 3; 177 3; 
178 2; 180 2; 181 11; 182 6; 184 14; 
185 3; 186 10; 187 18; 188 9; 189 18; 
190 4; 191 2; 197 2; 198 19; 199 5; 
200 10; 201 6; 202 6; 203 2; 204 1; 
209 2; 211 8; 212 10; 213 64; 214 262; 
215 110; 216 12; 217 4; 223 2; 224 8; 
225 10; 226 34; 227 16; 228 15; 229 8; 
230 2; 237 6; 238 9; 239 26; 240 33; 
241 117; 242 52; 243 16; 244 2; 249 2; 
250 2; 251 12; 252 18; 253 42; 254 144; 
255 63; 256 68; 257 16; 258 2; 264 9; 
265 11; 266 28; 267 52; 268 70; 269 104; 
270 335; 271 69; 272 9; 277 2; 278 5; 
279 6; 280 28; 281 17; 282 140; 283 73; 
284 160; 285 59; 286 11; 287 2; 294 3; 
295 3; 296 15; 298 375; 299 221; 300 36; 
301 7; 310 7; 312 37; 313 13; 314 3; 
315 2; 322 5; 324 305; 325 91; 326 356; 
327 95; 328 12; 329 1; 338 1; 340 744; 
341 999; 342 237; 343 30; 344 3; 
