Name: JWH-018 2'-naphthyl isomer
Synon: 2-naphthalenyl(1-pentyl-1H-indol-3-yl)-methanone
InChIKey: ZAOKDVBETBFRSN-UHFFFAOYSA-N
Formula: C24H23NO
MW: 341
ExactMass: 341.177965
CASNO: 1131605258
ID: 2836
Comment: Provided by www.caymanchem.com/app/template/landing%2CForensic.vm / Item #9001004  Lot #429777
Num Peaks: 179
41 34; 43 82; 44 1; 45 41; 51 9; 
55 9; 61 3; 63 4; 65 4; 74 6; 
75 26; 76 22; 77 45; 78 38; 79 1; 
81 3; 85 1; 87 19; 88 9; 89 78; 
90 2; 91 3; 92 1; 96 160; 97 15; 
101 42; 102 54; 103 6; 104 10; 105 34; 
107 2; 112 2; 113 11; 114 8; 115 55; 
116 105; 117 9; 120 6; 121 13; 125 6; 
126 82; 127 575; 128 95; 129 68; 130 61; 
131 15; 132 14; 134 39; 135 10; 136 8; 
137 19; 139 1; 140 1; 141 15; 142 16; 
143 29; 144 333; 145 25; 146 1; 149 28; 
150 8; 151 2; 152 2; 153 3; 154 13; 
155 463; 156 101; 157 9; 158 25; 159 1; 
161 4; 162 2; 164 7; 165 103; 166 10; 
167 9; 170 10; 171 2; 173 1; 174 1; 
175 1; 176 9; 178 14; 179 3; 180 7; 
181 4; 182 1; 184 6; 186 115; 187 28; 
188 6; 189 30; 190 1; 194 1; 196 7; 
197 26; 198 4; 201 1; 202 2; 203 13; 
205 15; 206 1; 210 8; 211 44; 212 3; 
213 35; 214 999; 215 193; 216 26; 217 1; 
219 1; 221 6; 222 1; 223 8; 224 11; 
225 13; 226 11; 227 6; 228 8; 229 2; 
237 13; 238 8; 239 10; 240 41; 241 61; 
242 82; 243 14; 249 8; 250 3; 251 15; 
252 9; 253 51; 254 71; 255 66; 256 45; 
257 16; 263 1; 265 33; 266 6; 267 17; 
268 15; 269 72; 270 83; 271 55; 272 1; 
284 566; 285 150; 286 19; 295 6; 296 2; 
297 3; 298 9; 299 2; 311 9; 312 4; 
313 19; 314 2; 315 20; 316 2; 317 1; 
324 25; 325 32; 326 13; 327 4; 328 9; 
329 3; 330 4; 331 8; 332 15; 333 1; 
339 7; 340 15; 341 885; 342 216; 343 19; 
344 6; 345 1; 346 6; 347 2; 
