Name: JWH-018 2'-naphthyl-N-(1-ethylpropyl) isomer
Synon: Naphthalen-2-yl(1-(pentan-3-yl)-1H-indol-3-yl)methanone
InChIKey: WGDPTKDHJBWBHI-UHFFFAOYSA-N
Formula: C24H23NO
MW: 341
ExactMass: 341.177965
CASNO: 0
ID: 2839
Comment: Provided by www.caymanchem.com/app/template/landing%2CForensic.vm / Item #11586  Lot #0437007
Num Peaks: 166
41 52; 43 124; 44 4; 50 2; 51 10; 
52 2; 53 5; 55 21; 56 1; 62 3; 
63 9; 64 2; 65 3; 69 2; 70 2; 
71 9; 74 4; 75 18; 76 9; 77 38; 
78 4; 86 1; 87 5; 88 10; 89 42; 
90 6; 91 1; 94 4; 96 1; 98 1; 
99 2; 100 4; 101 38; 102 12; 103 3; 
105 1; 107 6; 111 1; 113 7; 114 13; 
115 65; 116 79; 117 12; 118 1; 121 8; 
126 62; 127 375; 128 127; 129 23; 130 8; 
131 1; 133 4; 134 3; 135 10; 137 1; 
139 5; 140 5; 141 9; 142 17; 143 26; 
144 272; 145 29; 146 2; 147 2; 148 1; 
149 3; 150 2; 151 3; 152 4; 153 2; 
155 346; 156 77; 157 9; 158 3; 161 1; 
162 1; 163 3; 164 2; 165 2; 166 1; 
167 2; 168 1; 170 59; 171 8; 174 1; 
175 1; 176 2; 178 1; 182 1; 184 38; 
185 5; 186 4; 187 7; 188 5; 189 10; 
190 3; 198 3; 200 3; 201 1; 202 3; 
203 1; 207 1; 211 4; 212 7; 213 37; 
214 86; 215 71; 216 16; 217 2; 223 1; 
224 3; 225 4; 226 10; 227 8; 228 3; 
229 1; 237 1; 238 6; 239 6; 240 41; 
241 80; 242 113; 243 29; 244 5; 245 1; 
249 1; 251 2; 252 2; 253 8; 254 32; 
255 8; 256 3; 265 2; 266 3; 267 10; 
268 10; 269 12; 270 79; 271 37; 272 7; 
273 1; 278 1; 280 2; 282 4; 283 7; 
284 10; 285 2; 294 1; 295 1; 296 7; 
297 4; 298 8; 299 2; 310 3; 312 999; 
313 239; 314 33; 315 3; 324 2; 325 1; 
326 1; 327 2; 341 627; 342 165; 343 20; 
344 2; 
