Name: JWH-018 2'-naphthyl-N-(1-methylbutyl) isomer
Synon: Naphthalen-2-yl(1-(pentan-2-yl)-1H-indol-3-yl)methanone
InChIKey: KTHPRMCSIRQVGE-UHFFFAOYSA-N
Formula: C24H23NO
MW: 341
ExactMass: 341.177965
CASNO: 0
ID: 2840
Comment: Provided by www.caymanchem.com/app/template/landing%2CForensic.vm / Item #9001009  Lot #0429781
Num Peaks: 105
40 36; 41 41; 43 54; 51 8; 55 12; 
71 8; 73 13; 75 31; 77 43; 78 9; 
87 11; 88 13; 89 30; 94 11; 101 33; 
102 15; 103 3; 107 9; 113 14; 114 11; 
115 74; 116 94; 117 15; 118 7; 119 15; 
121 9; 125 8; 126 53; 127 399; 128 134; 
129 21; 133 12; 135 22; 139 10; 141 8; 
142 15; 143 53; 144 472; 145 53; 148 8; 
149 38; 154 11; 155 327; 156 28; 163 3; 
165 11; 170 98; 171 16; 177 9; 179 9; 
181 9; 184 14; 186 26; 187 13; 190 9; 
191 14; 195 11; 207 37; 208 6; 210 3; 
212 13; 213 36; 214 212; 215 92; 216 21; 
221 10; 226 15; 227 16; 228 12; 238 8; 
239 10; 240 31; 241 99; 242 104; 243 31; 
244 8; 249 7; 251 13; 253 1; 254 69; 
255 38; 256 10; 266 8; 267 1; 268 10; 
269 16; 270 132; 271 53; 272 10; 280 11; 
282 19; 283 21; 284 40; 296 9; 298 999; 
299 256; 300 42; 326 51; 327 21; 339 8; 
341 665; 342 161; 343 17; 344 11; 346 12; 
