Name: JWH-018 2'-naphthyl-N-(2-methylbutyl) isomer
Synon: (1-(2-methylbutyl)-1H-indol-3-yl)(naphthalen-2-yl)-methanone
InChIKey: DAZJHNOTFUBQMK-UHFFFAOYSA-N
Formula: C24H23NO
MW: 341
ExactMass: 341.177965
CASNO: 0
ID: 2842
Comment: Provided by www.caymanchem.com/app/template/landing%2CForensic.vm / Item #9001010  Lot #0429782
Num Peaks: 99
41 28; 43 26; 44 5; 51 9; 63 11; 
73 3; 75 10; 76 10; 77 26; 87 10; 
88 7; 89 19; 91 9; 101 31; 102 45; 
103 15; 113 7; 114 9; 115 33; 116 39; 
119 16; 120 7; 126 44; 127 369; 128 151; 
129 52; 130 51; 131 12; 135 10; 139 7; 
141 13; 142 33; 143 17; 144 134; 145 14; 
147 1; 148 8; 149 8; 151 10; 152 7; 
154 18; 155 326; 156 61; 157 7; 158 9; 
161 14; 163 3; 165 9; 170 14; 177 13; 
179 10; 186 31; 187 18; 190 7; 192 6; 
200 10; 207 2; 209 7; 210 11; 213 21; 
214 237; 215 70; 216 8; 221 10; 226 18; 
227 8; 228 24; 229 9; 239 20; 240 19; 
241 40; 242 46; 243 15; 250 8; 251 8; 
253 10; 254 46; 255 28; 256 47; 257 9; 
265 1; 266 21; 267 15; 268 18; 270 49; 
271 17; 282 13; 284 999; 285 231; 286 37; 
324 10; 327 9; 328 8; 331 13; 333 7; 
341 560; 342 154; 343 34; 346 1; 
