Name: JWH-018 2'-naphthyl-N-(3-methylbutyl) isomer
Synon: (1-isopentyl-1H-indol-3-yl)(naphthalen-2-yl)methanone
InChIKey: ZWFPDRGTGCRWBF-UHFFFAOYSA-N
Formula: C24H23NO
MW: 341
ExactMass: 341.177965
CASNO: 0
ID: 2843
Comment: Provided by www.caymanchem.com/app/template/landing%2CForensic.vm / Item #9001005  Lot #0429779
Num Peaks: 80
41 83; 43 99; 75 30; 77 58; 78 45; 
89 90; 91 71; 96 136; 101 60; 102 52; 
103 89; 115 31; 116 162; 117 41; 119 41; 
126 118; 127 655; 128 311; 129 264; 130 392; 
131 50; 133 73; 136 3; 142 180; 144 345; 
145 32; 148 30; 155 849; 156 151; 157 32; 
158 43; 163 20; 165 51; 176 59; 177 59; 
179 85; 186 86; 187 31; 192 3; 195 3; 
203 32; 209 100; 211 32; 214 698; 215 285; 
216 63; 221 72; 227 47; 228 50; 237 37; 
240 58; 241 108; 242 36; 243 41; 249 37; 
252 37; 253 33; 254 91; 255 26; 256 137; 
257 49; 266 31; 267 54; 268 85; 269 28; 
270 143; 271 37; 282 13; 283 17; 284 573; 
285 615; 286 133; 295 41; 324 31; 325 7; 
329 36; 331 11; 341 999; 342 278; 343 30; 
