Name: JWH-018 6-methoxyindole analog
Synon: (6-methoxy-1-pentyl-1H-indol-3-yl)(naphthalen-1-yl)-methanone
InChIKey: LQWPINYSBSBWIN-UHFFFAOYSA-N
Formula: C25H25NO2
MW: 371
ExactMass: 371.18853
CASNO: 0
ID: 2844
Comment: Provided by www.caymanchem.com/app/template/landing%2CForensic.vm / Item #10697  Lot #0425868
Num Peaks: 123
41 91; 43 172; 44 1; 51 10; 55 18; 
63 11; 73 4; 75 16; 76 16; 77 36; 
78 10; 88 10; 89 25; 101 32; 102 22; 
103 12; 106 11; 107 11; 113 9; 114 14; 
115 19; 116 25; 117 26; 119 23; 121 25; 
126 33; 127 350; 128 52; 129 19; 130 28; 
131 32; 132 14; 133 8; 135 14; 136 10; 
141 25; 142 10; 144 51; 145 18; 146 48; 
147 80; 148 9; 149 8; 150 7; 152 10; 
155 263; 156 40; 158 70; 159 42; 160 85; 
161 12; 167 19; 172 12; 173 14; 174 98; 
175 16; 176 12; 186 24; 187 8; 188 9; 
189 13; 191 7; 200 27; 201 32; 202 44; 
203 18; 213 21; 214 17; 215 20; 216 51; 
217 9; 226 7; 227 35; 228 61; 229 35; 
230 13; 240 28; 241 65; 242 43; 244 285; 
245 41; 246 10; 253 15; 254 29; 255 16; 
256 58; 257 76; 258 32; 259 9; 269 42; 
270 44; 271 16; 272 24; 281 6; 282 12; 
283 13; 284 47; 285 69; 286 55; 287 14; 
296 8; 297 16; 298 26; 299 21; 300 122; 
301 37; 302 8; 312 12; 314 240; 315 48; 
316 12; 328 11; 340 20; 341 13; 342 12; 
343 8; 354 191; 355 51; 356 45; 357 13; 
371 999; 372 271; 373 48; 
