Name: JWH-018 N-(1,1-dimethylpropyl) isomer
Synon: Naphthalen-1-yl(1-(tert-pentyl)-1H-indol-3-yl)methanone
InChIKey: GUKXLKKRCJYVFK-UHFFFAOYSA-N
Formula: C24H23NO
MW: 341
ExactMass: 341.177965
CASNO: 0
ID: 2846
Comment: Provided by www.caymanchem.com/app/template/landing%2CForensic.vm / Item #9001000  Lot #0432909
Num Peaks: 150
40 4; 41 55; 43 211; 44 7; 50 2; 
51 12; 52 3; 53 8; 55 36; 56 2; 
62 5; 63 9; 64 1; 65 3; 67 1; 
69 2; 71 64; 72 4; 73 1; 74 3; 
75 19; 76 8; 77 35; 78 3; 86 1; 
87 5; 88 13; 89 45; 90 7; 91 1; 
93 1; 95 4; 98 1; 99 3; 100 4; 
101 35; 102 7; 103 2; 107 4; 108 2; 
113 6; 114 15; 115 40; 116 80; 117 11; 
118 1; 119 1; 121 10; 126 58; 127 251; 
128 60; 129 8; 130 2; 133 2; 135 4; 
137 1; 139 4; 140 4; 142 11; 144 320; 
145 32; 146 3; 149 2; 150 3; 151 2; 
152 3; 153 1; 155 82; 156 13; 157 1; 
161 1; 162 1; 163 6; 164 3; 165 2; 
166 1; 167 3; 168 1; 169 1; 170 2; 
174 2; 175 2; 176 4; 177 1; 184 11; 
185 2; 186 2; 187 9; 188 7; 189 10; 
190 2; 198 2; 199 1; 200 3; 201 1; 
202 4; 211 5; 212 5; 213 48; 214 35; 
215 52; 216 11; 217 2; 223 1; 224 4; 
225 4; 226 10; 227 6; 228 3; 229 1; 
238 8; 239 6; 240 56; 241 152; 242 112; 
243 46; 244 7; 251 6; 252 6; 254 520; 
255 113; 256 13; 257 1; 266 2; 267 4; 
268 8; 270 999; 271 334; 272 48; 273 4; 
280 1; 282 1; 283 1; 284 2; 294 1; 
296 1; 297 2; 298 2; 310 1; 312 130; 
313 30; 314 4; 324 1; 326 10; 327 2; 
339 1; 341 440; 342 120; 343 18; 344 1; 
