Name: JWH-122 8-methylnaphthyl isomer
Synon: (8-methylnaphthalen-1-yl)(1-pentyl-1H-indol-3-yl)methanone
InChIKey: NMSMHEOGZBXQDF-UHFFFAOYSA-N
Formula: C25H25NO
MW: 355
ExactMass: 355.193615
CASNO: 0
ID: 2848
Comment: Provided by www.caymanchem.com/app/template/landing%2CForensic.vm / Item #9001037  Lot #0431266
Num Peaks: 186
41 97; 43 218; 44 9; 50 4; 51 10; 
52 3; 53 10; 55 23; 62 6; 63 20; 
64 3; 65 5; 67 3; 69 5; 71 3; 
73 1; 74 5; 75 16; 76 13; 77 31; 
78 8; 87 8; 88 12; 89 67; 90 19; 
91 19; 94 4; 100 5; 101 31; 102 43; 
103 35; 104 7; 106 17; 107 3; 108 4; 
113 36; 114 32; 115 238; 116 133; 117 50; 
118 81; 119 27; 120 26; 121 18; 125 6; 
126 35; 127 68; 128 51; 129 48; 130 444; 
131 153; 132 32; 134 46; 135 37; 137 3; 
139 186; 140 161; 141 190; 142 35; 143 31; 
144 258; 145 33; 146 17; 147 10; 149 29; 
150 35; 151 20; 152 37; 153 54; 154 17; 
155 17; 156 17; 157 10; 158 27; 159 4; 
162 12; 163 11; 164 12; 165 33; 166 7; 
167 90; 168 118; 169 80; 170 19; 171 3; 
172 17; 174 10; 175 4; 176 7; 178 24; 
179 6; 181 40; 182 6; 184 3; 185 4; 
186 66; 187 446; 188 64; 189 19; 190 6; 
191 1; 193 20; 194 6; 199 3; 200 16; 
201 8; 202 17; 203 4; 204 3; 205 4; 
207 1; 209 4; 211 4; 212 5; 213 21; 
214 182; 215 37; 216 6; 224 15; 225 12; 
226 61; 227 32; 228 30; 229 13; 230 3; 
235 2; 237 13; 238 16; 239 68; 240 47; 
241 72; 242 20; 243 4; 249 10; 250 5; 
251 19; 252 29; 253 66; 254 204; 255 90; 
256 56; 257 10; 262 3; 264 13; 265 24; 
266 125; 267 226; 268 193; 269 119; 270 137; 
271 30; 272 4; 277 4; 278 18; 279 10; 
280 35; 281 24; 282 57; 283 45; 284 118; 
285 27; 293 3; 294 10; 295 5; 296 11; 
298 999; 299 242; 300 22; 301 3; 308 4; 
312 4; 322 3; 325 4; 326 27; 327 9; 
331 3; 336 8; 338 805; 339 241; 340 75; 
341 17; 342 4; 353 4; 355 814; 356 228; 
357 25; 
