Name: JWH-122 7-methylnaphthyl isomer
Synon: (7-methylnaphthalen-1-yl)(1-pentyl-1H-indol-3-yl)methanone
InChIKey: NULKGPOKWWKWBU-UHFFFAOYSA-N
Formula: C25H25NO
MW: 355
ExactMass: 355.193615
CASNO: 0
ID: 2849
Comment: Provided by www.caymanchem.com/app/template/landing%2CForensic.vm / Item #9001036  Lot #0431265
Num Peaks: 181
40 7; 41 99; 43 203; 44 4; 50 4; 
51 11; 52 3; 53 7; 55 23; 62 5; 
63 16; 64 3; 65 11; 69 3; 71 4; 
74 6; 75 12; 76 14; 77 18; 78 5; 
86 5; 87 9; 88 19; 89 62; 90 10; 
91 14; 95 5; 96 3; 100 5; 101 25; 
102 62; 103 21; 104 4; 107 7; 108 4; 
112 4; 113 27; 115 292; 116 149; 117 20; 
118 8; 119 15; 121 24; 122 8; 125 5; 
126 22; 127 72; 128 81; 129 57; 130 56; 
131 13; 132 13; 134 22; 135 44; 139 122; 
140 55; 141 382; 144 384; 145 44; 146 3; 
147 1; 149 22; 151 6; 152 15; 153 28; 
154 8; 155 13; 156 16; 157 6; 158 8; 
163 7; 164 8; 165 7; 167 9; 169 240; 
170 53; 171 6; 174 7; 175 3; 176 4; 
178 23; 179 3; 181 430; 182 67; 183 7; 
184 7; 185 5; 186 29; 187 12; 188 5; 
189 10; 190 5; 191 5; 193 3; 195 4; 
199 3; 200 14; 201 10; 202 13; 203 2; 
207 3; 208 1; 211 4; 212 7; 214 716; 
215 125; 216 14; 217 3; 224 12; 225 14; 
226 59; 227 34; 228 41; 229 16; 230 7; 
237 6; 238 11; 239 37; 240 57; 241 134; 
242 46; 243 9; 244 4; 249 3; 250 4; 
251 13; 252 16; 253 43; 254 151; 255 84; 
256 56; 257 16; 258 5; 264 8; 265 17; 
266 21; 267 40; 268 120; 269 159; 270 151; 
271 35; 272 3; 278 10; 279 8; 280 30; 
281 42; 282 85; 283 83; 284 170; 285 41; 
286 14; 294 17; 295 10; 296 14; 298 645; 
299 149; 300 21; 301 4; 308 10; 310 4; 
311 4; 312 17; 313 4; 322 59; 323 18; 
324 3; 325 3; 326 10; 327 19; 328 6; 
336 22; 338 381; 339 108; 340 149; 341 40; 
342 6; 352 3; 355 999; 356 271; 357 45; 
358 2; 
