Name: JWH-122 6-methylnaphthyl isomer
Synon: (6-methylnaphthalen-1-yl)(1-pentyl-1H-indol-3-yl)methanone
InChIKey: QGZBPEQODUAQNS-UHFFFAOYSA-N
Formula: C25H25NO
MW: 355
ExactMass: 355.193615
CASNO: 0
ID: 2850
Comment: Provided by www.caymanchem.com/app/template/landing%2CForensic.vm / Item #9001035  Lot #0431264
Num Peaks: 118
41 91; 43 193; 44 12; 53 10; 55 23; 
63 17; 65 12; 73 12; 76 14; 77 12; 
78 12; 88 15; 89 68; 91 21; 101 27; 
102 62; 103 27; 106 17; 107 12; 113 34; 
114 43; 115 310; 116 174; 117 33; 119 18; 
120 23; 121 21; 126 31; 127 86; 128 113; 
129 86; 130 78; 132 13; 133 26; 134 46; 
135 35; 139 153; 140 57; 141 469; 143 32; 
144 484; 145 59; 147 13; 149 34; 152 14; 
153 25; 154 12; 155 41; 156 33; 158 19; 
169 345; 170 86; 171 15; 178 38; 181 300; 
182 56; 186 47; 187 12; 188 14; 191 19; 
200 14; 201 16; 202 14; 207 11; 209 19; 
214 999; 215 145; 216 18; 224 12; 225 13; 
226 72; 227 37; 228 49; 229 22; 237 14; 
238 22; 239 31; 240 75; 241 167; 242 54; 
251 14; 252 24; 253 56; 254 193; 255 113; 
256 56; 257 14; 265 14; 266 30; 267 39; 
268 148; 269 190; 270 160; 271 32; 280 32; 
281 48; 282 73; 283 90; 284 371; 285 83; 
286 20; 294 21; 296 47; 298 652; 299 182; 
300 21; 312 17; 326 22; 327 21; 336 31; 
338 545; 339 164; 340 158; 341 39; 354 425; 
355 929; 356 281; 357 41; 
