Name: JWH-122 5-methylnaphthyl isomer
Synon: (5-methylnaphthalen-1-yl)(1-pentyl-1H-indol-3-yl)methanone
InChIKey: MZYMFNUISGWLPY-UHFFFAOYSA-N
Formula: C25H25NO
MW: 355
ExactMass: 355.193615
CASNO: 0
ID: 2851
Comment: Provided by www.caymanchem.com/app/template/landing%2CForensic.vm / Item #9001034  Lot #0431263
Num Peaks: 179
40 5; 41 93; 43 211; 44 8; 50 3; 
51 9; 52 4; 53 9; 55 28; 62 5; 
63 19; 65 8; 69 4; 71 4; 74 3; 
75 13; 76 16; 77 18; 78 5; 87 8; 
88 15; 89 55; 90 9; 91 12; 95 4; 
100 3; 101 27; 102 55; 103 17; 104 4; 
107 6; 112 3; 113 36; 114 31; 115 294; 
116 128; 117 18; 118 5; 120 11; 121 23; 
126 24; 127 78; 128 75; 129 48; 130 50; 
131 9; 134 23; 135 27; 137 5; 138 4; 
139 99; 140 38; 141 320; 144 372; 145 36; 
146 3; 147 2; 149 21; 151 6; 152 16; 
153 21; 154 11; 155 13; 156 20; 157 7; 
158 8; 162 2; 163 6; 164 5; 165 5; 
167 4; 169 211; 170 44; 171 6; 174 6; 
176 7; 178 30; 179 3; 181 276; 182 34; 
183 4; 184 8; 186 34; 187 10; 188 3; 
189 7; 190 2; 191 1; 193 4; 195 4; 
198 3; 199 4; 200 13; 201 9; 202 22; 
203 5; 207 11; 208 1; 211 6; 212 11; 
214 630; 215 109; 216 13; 217 2; 223 2; 
224 13; 225 11; 226 52; 227 24; 228 30; 
229 16; 230 5; 237 7; 238 10; 239 25; 
240 56; 241 128; 242 45; 243 10; 244 2; 
250 3; 251 13; 252 21; 253 41; 254 152; 
255 90; 256 48; 257 11; 258 3; 264 10; 
265 13; 266 30; 267 33; 268 95; 269 163; 
270 167; 271 39; 272 4; 278 5; 279 3; 
280 25; 281 46; 282 79; 283 79; 284 311; 
285 74; 286 15; 287 3; 294 14; 295 7; 
296 22; 298 502; 299 123; 300 16; 308 5; 
309 3; 310 5; 311 4; 312 18; 313 3; 
322 28; 323 8; 324 4; 325 3; 326 22; 
327 17; 328 4; 336 19; 338 539; 339 150; 
340 264; 341 65; 342 11; 343 3; 354 355; 
355 999; 356 246; 357 36; 358 6; 
