Name: JWH-122 2-methylnaphthyl isomer
Synon: (2-methylnaphthalen-1-yl)(1-pentyl-1H-indol-3-yl)methanone
InChIKey: JFJAWRDBCAFLQA-UHFFFAOYSA-N
Formula: C25H25NO
MW: 355
ExactMass: 355.193615
CASNO: 0
ID: 2853
Comment: Provided by www.caymanchem.com/app/template/landing%2CForensic.vm / Item #9001032  Lot #0431225
Num Peaks: 188
41 101; 42 15; 43 208; 44 8; 50 3; 
51 8; 52 3; 53 7; 55 27; 62 3; 
63 20; 64 4; 65 9; 69 4; 71 2; 
73 4; 74 3; 75 15; 76 18; 77 23; 
78 7; 87 10; 88 18; 89 61; 90 12; 
91 9; 92 2; 94 6; 99 2; 100 5; 
101 31; 102 56; 103 27; 104 10; 106 12; 
107 9; 108 2; 112 4; 113 25; 115 272; 
116 143; 117 31; 118 30; 120 20; 126 23; 
127 66; 128 58; 129 57; 130 183; 131 49; 
132 17; 134 49; 136 76; 137 4; 139 160; 
140 260; 141 277; 142 55; 143 31; 144 292; 
145 32; 146 5; 147 2; 149 29; 150 10; 
151 10; 152 19; 153 26; 154 14; 155 14; 
156 14; 157 6; 158 14; 162 2; 164 27; 
165 15; 166 5; 168 769; 169 185; 170 35; 
171 5; 172 4; 173 5; 174 10; 175 6; 
176 6; 178 13; 179 3; 180 2; 181 43; 
182 23; 183 4; 184 5; 185 6; 186 45; 
187 106; 188 20; 189 9; 190 5; 191 3; 
192 2; 194 2; 195 2; 198 2; 199 3; 
200 12; 201 6; 202 19; 203 3; 205 3; 
211 2; 212 6; 213 28; 214 252; 215 50; 
216 8; 217 2; 224 12; 225 13; 226 59; 
227 37; 228 43; 229 21; 230 7; 237 11; 
238 12; 239 43; 240 42; 241 133; 242 42; 
243 5; 250 3; 251 13; 252 46; 253 62; 
254 197; 255 90; 256 73; 257 18; 258 6; 
263 2; 264 12; 265 30; 266 51; 267 88; 
268 127; 269 95; 270 98; 271 22; 272 2; 
277 5; 278 17; 279 25; 280 120; 281 109; 
282 60; 283 55; 284 163; 285 48; 286 10; 
292 2; 293 2; 294 7; 295 5; 296 27; 
298 870; 299 216; 300 29; 301 3; 308 3; 
311 2; 312 6; 313 2; 324 3; 325 3; 
326 21; 327 15; 328 5; 336 3; 338 390; 
339 110; 340 25; 341 6; 354 246; 355 999; 
356 272; 357 37; 358 4; 
