Name: JWH-098
Synon: (4-methoxy-1-naphthalenyl)(2-methyl-1-pentyl-1H-indol-3-yl)-methanone
InChIKey: CNTCHEBQQFICNR-UHFFFAOYSA-N
Formula: C26H27NO2
MW: 385
ExactMass: 385.20418
CASNO: 316189749
ID: 2855
Comment: Provided by www.caymanchem.com/app/template/landing%2CForensic.vm / Item #10680  Lot #0427192
Num Peaks: 214
41 62; 42 11; 43 189; 44 10; 51 3; 
53 5; 55 26; 63 8; 64 3; 65 8; 
69 3; 71 5; 73 1; 74 4; 75 5; 
76 8; 77 19; 78 4; 86 4; 87 7; 
88 29; 89 25; 90 7; 91 11; 93 3; 
94 6; 96 2; 99 4; 100 14; 101 34; 
102 40; 103 47; 104 7; 106 6; 108 9; 
113 47; 114 267; 115 155; 116 29; 117 19; 
118 12; 119 7; 120 22; 121 19; 125 9; 
126 51; 127 157; 128 164; 129 74; 130 86; 
131 17; 133 37; 135 38; 137 5; 139 14; 
140 11; 141 23; 142 195; 143 119; 144 57; 
145 9; 147 9; 148 26; 150 16; 151 17; 
152 14; 153 11; 154 18; 155 27; 156 64; 
157 261; 158 378; 159 32; 160 4; 162 7; 
163 46; 165 1; 167 9; 168 11; 169 18; 
170 51; 171 116; 172 59; 173 14; 175 6; 
176 15; 177 13; 178 14; 180 5; 181 4; 
182 3; 183 54; 185 999; 186 144; 187 23; 
188 8; 189 10; 190 6; 191 4; 193 47; 
194 6; 195 6; 196 7; 197 8; 198 73; 
199 14; 200 48; 201 54; 202 88; 203 21; 
204 11; 205 3; 209 8; 210 4; 211 22; 
212 136; 213 76; 214 54; 215 34; 216 14; 
217 17; 218 5; 224 3; 225 4; 226 61; 
227 40; 228 282; 229 74; 230 35; 231 8; 
232 3; 235 3; 237 4; 238 8; 239 11; 
240 64; 241 90; 242 74; 243 48; 244 25; 
245 14; 246 4; 249 5; 252 14; 253 31; 
254 184; 255 160; 256 119; 257 56; 258 16; 
265 13; 266 17; 267 32; 268 43; 269 40; 
270 120; 271 104; 272 26; 273 7; 278 5; 
279 5; 280 13; 281 7; 282 43; 283 37; 
284 59; 285 83; 286 54; 287 15; 294 4; 
295 7; 296 47; 297 30; 298 88; 299 117; 
300 281; 301 52; 302 8; 307 3; 308 4; 
310 9; 312 124; 313 54; 314 249; 315 86; 
316 20; 324 7; 325 6; 326 47; 328 254; 
329 159; 330 38; 332 5; 337 10; 338 8; 
340 4; 342 95; 343 27; 352 14; 353 27; 
354 60; 356 51; 357 21; 358 4; 366 4; 
368 278; 370 760; 371 197; 372 29; 373 5; 
384 408; 385 772; 386 271; 387 29; 
