Name: JWH-081 5-methoxynaphthyl isomer
Synon: (5-methoxynaphthalen-1-yl)(1-pentyl-1H-indol-3-yl)methanone
InChIKey: HWBCWKTVWWHQRW-UHFFFAOYSA-N
Formula: C25H25NO2
MW: 371
ExactMass: 371.18853
CASNO: 0
ID: 2859
Comment: Provided by www.caymanchem.com/app/template/landing%2CForensic.vm / Item #9001046  Lot #0431273
Num Peaks: 176
40 6; 41 101; 43 255; 51 7; 53 5; 
55 28; 63 13; 64 6; 71 12; 73 9; 
74 8; 75 13; 76 17; 77 36; 78 9; 
87 9; 88 33; 89 58; 90 11; 95 13; 
96 8; 99 6; 100 6; 101 32; 102 47; 
103 16; 106 17; 107 18; 108 26; 109 23; 
113 57; 114 153; 115 81; 116 135; 117 55; 
118 10; 119 7; 121 95; 122 50; 125 10; 
126 79; 127 322; 128 203; 129 90; 130 47; 
131 13; 132 8; 133 6; 135 65; 137 7; 
139 9; 140 7; 142 49; 144 485; 145 48; 
146 6; 147 7; 149 20; 150 31; 151 16; 
152 5; 154 17; 155 18; 156 52; 157 90; 
158 33; 163 8; 164 6; 165 6; 167 6; 
169 12; 170 43; 171 25; 174 10; 175 7; 
176 18; 177 10; 182 18; 183 19; 184 21; 
185 307; 186 118; 187 29; 188 7; 189 19; 
190 10; 191 3; 193 7; 197 396; 198 70; 
199 17; 200 65; 201 55; 202 77; 203 26; 
204 10; 207 20; 208 1; 211 16; 212 12; 
213 72; 214 936; 215 196; 216 35; 217 14; 
224 6; 226 21; 227 60; 228 142; 229 69; 
230 54; 231 20; 238 7; 239 13; 240 87; 
241 163; 242 68; 243 31; 244 11; 251 7; 
252 10; 253 29; 254 83; 255 44; 256 109; 
257 94; 258 42; 259 12; 266 6; 267 14; 
268 35; 269 123; 270 153; 271 66; 272 38; 
281 12; 282 58; 283 37; 284 76; 285 185; 
286 202; 287 45; 288 7; 296 9; 297 17; 
298 53; 299 52; 300 235; 301 60; 302 10; 
310 6; 311 14; 312 18; 314 357; 315 96; 
316 8; 322 14; 324 5; 326 6; 328 25; 
329 7; 338 5; 340 105; 341 32; 342 17; 
343 14; 352 18; 354 394; 355 116; 356 227; 
357 50; 358 9; 370 298; 371 999; 372 258; 
373 44; 
