Name: JWH-081 3-methoxynaphthyl isomer
Synon: (3-methoxynaphthalen-1-yl)(1-pentyl-1H-indol-3-yl)methanone
InChIKey: MGSSAESHPAJYSC-UHFFFAOYSA-N
Formula: C25H25NO2
MW: 371
ExactMass: 371.18853
CASNO: 0
ID: 2860
Comment: Provided by www.caymanchem.com/app/template/landing%2CForensic.vm / Item #9001045  Lot #0431272
Num Peaks: 149
41 92; 42 13; 43 178; 44 7; 55 22; 
62 5; 63 15; 75 9; 76 13; 77 19; 
87 6; 88 27; 89 45; 90 10; 95 7; 
100 10; 101 22; 102 54; 103 23; 107 28; 
108 17; 109 23; 113 63; 114 192; 115 83; 
116 153; 117 21; 121 95; 125 6; 126 43; 
127 222; 128 238; 129 180; 130 82; 131 14; 
133 11; 135 32; 136 36; 137 6; 139 11; 
140 7; 141 41; 142 49; 143 58; 144 516; 
145 52; 149 7; 150 17; 151 7; 152 7; 
154 13; 155 8; 157 72; 158 37; 159 6; 
163 7; 164 6; 168 6; 169 18; 170 27; 
171 22; 174 6; 175 7; 176 7; 183 7; 
184 21; 185 248; 186 90; 187 20; 189 12; 
191 1; 197 257; 198 50; 199 10; 200 37; 
201 45; 202 51; 203 15; 207 12; 208 7; 
211 8; 212 18; 214 999; 215 198; 216 23; 
217 8; 226 19; 227 37; 228 111; 229 67; 
230 32; 231 6; 238 6; 239 11; 240 54; 
241 95; 242 104; 243 56; 244 14; 252 7; 
253 31; 254 71; 255 35; 256 44; 257 166; 
258 43; 259 8; 267 7; 268 13; 269 25; 
270 62; 271 36; 272 20; 273 6; 282 14; 
283 13; 284 70; 285 46; 286 63; 287 17; 
296 14; 297 26; 298 35; 300 280; 301 67; 
302 13; 310 11; 312 19; 314 444; 315 116; 
316 16; 322 8; 326 7; 327 6; 328 16; 
338 7; 340 52; 341 16; 342 25; 343 16; 
352 19; 354 412; 355 133; 356 29; 357 12; 
370 365; 371 907; 372 249; 373 37; 
