Name: JWH-073 N-(1-methylpropyl) isomer
Synon: (1-(sec-butyl)-1H-indol-3-yl)(naphthalen-1-yl)methanone
InChIKey: OBSPBKZYVSXTKV-UHFFFAOYSA-N
Formula: C23H21NO
MW: 327
ExactMass: 327.162313
CASNO: 0
ID: 2863
Comment: Provided by www.caymanchem.com/app/template/landing%2CForensic.vm / Item #9001012  Lot #0429784
Num Peaks: 145
41 79; 51 4; 55 1; 57 35; 63 9; 
73 35; 74 8; 75 17; 76 11; 77 55; 
78 12; 87 3; 88 11; 89 63; 90 3; 
91 1; 94 1; 96 27; 99 3; 100 1; 
101 54; 102 11; 103 4; 106 3; 107 9; 
108 1; 113 9; 114 17; 115 81; 116 131; 
117 15; 118 1; 119 9; 120 14; 121 4; 
125 1; 126 79; 127 492; 128 108; 129 1; 
130 6; 131 15; 133 33; 134 1; 135 44; 
136 3; 139 9; 140 3; 141 6; 142 4; 
143 20; 144 474; 145 47; 146 3; 147 22; 
148 14; 149 6; 150 1; 154 11; 155 305; 
156 62; 157 3; 158 1; 163 11; 164 1; 
165 6; 167 17; 170 52; 171 1; 177 11; 
179 4; 184 3; 187 9; 188 1; 189 17; 
190 1; 191 15; 193 38; 194 1; 195 4; 
197 8; 198 1; 200 328; 201 47; 202 3; 
205 4; 207 44; 209 41; 210 6; 211 14; 
212 4; 213 79; 214 49; 215 69; 216 8; 
221 6; 223 1; 224 4; 225 4; 226 25; 
227 6; 228 8; 238 12; 239 12; 240 79; 
241 201; 242 111; 243 31; 249 1; 251 12; 
252 9; 253 35; 254 184; 255 62; 256 9; 
257 3; 265 9; 267 25; 268 23; 269 74; 
270 403; 271 58; 272 6; 280 6; 281 27; 
282 22; 283 62; 284 15; 294 4; 296 6; 
298 999; 299 225; 300 27; 308 3; 310 38; 
311 9; 312 74; 313 20; 315 4; 325 4; 
326 11; 327 714; 328 171; 329 20; 331 9; 
