Name: JWH-073 4-methylnaphthyl analog
Synon: JWH-122 N-butyl analog
Synon: (1-butyl-1H-indol-3-yl)(4-methylnaphthalen-1-yl)methanone
Synon: 1-butyl-3-(1-(4-methyl)naphthoyl)indole
InChIKey: YAWSDRHPUHKXCR-UHFFFAOYSA-N
Formula: C24H23NO
MW: 341
ExactMass: 341.177965
CASNO: 0
ID: 2866
Comment: Provided by www.caymanchem.com/app/template/landing%2CForensic.vm / Item #9001076  Lot #0430975
Num Peaks: 170
40 3; 41 107; 42 3; 43 5; 51 11; 
52 5; 53 4; 55 13; 57 37; 62 6; 
63 22; 64 6; 65 13; 74 8; 75 19; 
76 17; 77 22; 78 10; 87 10; 88 21; 
89 80; 90 10; 91 17; 94 4; 99 5; 
101 43; 102 64; 103 22; 107 7; 108 4; 
113 34; 114 42; 115 408; 116 213; 117 28; 
118 8; 119 15; 121 24; 126 32; 127 67; 
128 93; 129 62; 130 57; 131 8; 134 31; 
135 22; 136 31; 137 4; 138 6; 139 164; 
140 60; 141 395; 143 38; 144 484; 145 67; 
146 7; 147 5; 149 33; 151 8; 152 15; 
153 28; 154 14; 155 27; 156 17; 158 13; 
159 6; 160 5; 163 10; 164 7; 165 11; 
166 4; 167 4; 169 318; 170 67; 172 23; 
173 5; 174 3; 175 3; 176 7; 177 5; 
178 3; 179 4; 181 337; 182 55; 183 5; 
185 3; 187 9; 188 6; 189 14; 190 4; 
195 8; 198 10; 200 940; 201 149; 202 30; 
203 6; 207 4; 208 1; 209 4; 211 5; 
212 4; 213 38; 214 31; 215 20; 216 11; 
217 5; 224 14; 225 18; 226 87; 227 48; 
228 43; 229 21; 230 6; 237 7; 238 14; 
239 36; 240 71; 241 207; 242 58; 243 8; 
244 3; 250 4; 251 23; 252 30; 253 60; 
254 228; 255 121; 256 74; 257 18; 264 7; 
265 13; 266 29; 267 51; 268 139; 269 132; 
270 154; 271 41; 272 6; 278 6; 279 5; 
280 32; 281 56; 282 70; 283 106; 284 362; 
285 76; 286 14; 294 13; 295 6; 296 21; 
298 620; 299 147; 300 19; 308 29; 309 11; 
310 6; 311 5; 312 35; 313 32; 314 7; 
322 26; 324 572; 325 155; 326 187; 327 41; 
340 455; 341 999; 342 268; 343 34; 344 6; 
