Name: JWH-073 2'-naphthyl isomer
Synon: (1-butyl-1H-indol-3-yl)(naphthalen-2-yl)-methanone
InChIKey: LCZKNUDVFMMPPZ-UHFFFAOYSA-N
Formula: C23H21NO
MW: 327
ExactMass: 327.162313
CASNO: 0
ID: 2870
Comment: Provided by www.caymanchem.com/app/template/landing%2CForensic.vm / Item #9001014  Lot #0429763
Num Peaks: 169
41 52; 42 1; 43 2; 44 1; 50 3; 
51 9; 52 2; 53 3; 55 6; 57 14; 
62 3; 63 13; 64 2; 65 3; 73 4; 
74 8; 75 25; 76 20; 77 53; 78 7; 
86 2; 87 11; 88 12; 89 44; 90 4; 
93 2; 94 3; 98 1; 99 2; 100 5; 
101 59; 102 53; 103 15; 104 5; 106 4; 
107 9; 108 1; 112 4; 113 15; 114 24; 
115 58; 116 102; 117 13; 118 1; 119 2; 
120 7; 121 5; 125 11; 126 100; 127 556; 
128 153; 129 86; 130 79; 131 9; 132 1; 
133 2; 134 3; 135 7; 138 1; 139 7; 
140 3; 141 14; 142 32; 143 30; 144 307; 
145 36; 146 4; 147 2; 149 3; 150 3; 
151 5; 152 8; 153 4; 155 335; 156 53; 
157 12; 158 10; 161 1; 162 3; 164 18; 
165 1; 167 6; 170 21; 171 5; 172 63; 
173 8; 174 3; 175 1; 176 5; 177 4; 
178 2; 183 2; 184 2; 186 2; 187 10; 
188 9; 189 9; 190 2; 191 2; 193 1; 
196 1; 197 3; 198 7; 200 999; 201 154; 
202 17; 203 2; 204 1; 207 10; 209 1; 
211 7; 212 8; 213 58; 214 38; 215 83; 
216 16; 217 4; 222 1; 224 10; 225 11; 
226 39; 227 18; 228 30; 229 8; 230 2; 
236 1; 238 8; 239 15; 240 48; 241 110; 
242 105; 243 25; 244 3; 248 1; 251 3; 
252 5; 253 13; 254 75; 255 29; 256 56; 
257 16; 258 1; 264 3; 265 5; 266 13; 
267 20; 268 16; 269 14; 270 75; 271 15; 
279 1; 281 3; 282 7; 284 473; 285 148; 
286 19; 296 2; 298 8; 299 11; 300 2; 
310 27; 311 10; 312 3; 315 1; 324 1; 
327 909; 328 226; 329 28; 330 4; 
