Name: JWH-234
Synon: JWH-210 7-ethylnaphthyl isomer
Synon: (7-ethylnaphthalen-1-yl)(1-pentyl-1H-indol-3-yl)methanone
InChIKey: NLUGKAUYCBHVKU-UHFFFAOYSA-N
Formula: C26H27NO
MW: 369
ExactMass: 369.209265
CASNO: 824960647
ID: 2883
Comment: Provided by www.caymanchem.com/app/template/landing%2CForensic.vm / Item #9001042  Lot #0431270
Num Peaks: 185
41 83; 42 6; 43 139; 44 4; 51 10; 
52 3; 53 5; 55 25; 62 4; 63 10; 
65 4; 71 6; 73 3; 75 8; 76 9; 
77 27; 78 9; 87 3; 88 12; 89 50; 
90 8; 91 8; 95 3; 101 24; 102 52; 
103 19; 104 3; 107 6; 108 3; 113 22; 
114 26; 115 76; 116 134; 117 24; 118 9; 
119 20; 121 23; 125 5; 126 35; 127 116; 
128 98; 129 97; 130 82; 131 18; 132 18; 
134 62; 135 16; 139 160; 140 161; 142 101; 
143 33; 144 514; 145 53; 146 14; 149 37; 
150 12; 151 36; 152 122; 153 181; 154 113; 
155 259; 156 66; 157 9; 158 44; 159 4; 
163 8; 165 21; 166 11; 167 40; 168 13; 
169 10; 170 32; 171 7; 172 4; 173 3; 
174 11; 175 4; 176 7; 177 5; 178 7; 
179 3; 181 134; 182 38; 183 247; 184 58; 
186 48; 187 14; 188 5; 189 13; 190 6; 
191 2; 193 1; 195 511; 196 89; 197 8; 
198 5; 200 17; 201 11; 202 14; 203 5; 
204 5; 207 10; 209 8; 211 6; 212 16; 
214 999; 215 187; 216 19; 217 5; 224 8; 
225 17; 226 77; 227 34; 228 29; 229 7; 
230 4; 237 11; 238 18; 239 42; 240 79; 
241 119; 242 45; 243 13; 250 6; 251 19; 
252 31; 253 60; 254 200; 255 91; 256 38; 
257 6; 263 3; 264 9; 265 29; 266 46; 
267 57; 268 60; 269 132; 270 288; 271 52; 
272 5; 277 5; 278 20; 279 14; 280 35; 
281 25; 282 135; 283 107; 284 81; 285 23; 
286 4; 292 8; 293 6; 294 32; 295 31; 
296 77; 297 35; 298 56; 299 21; 300 13; 
308 15; 309 7; 310 8; 312 422; 313 107; 
314 24; 322 69; 323 23; 324 6; 325 3; 
326 12; 327 4; 338 7; 340 271; 341 86; 
342 17; 350 21; 352 331; 353 89; 354 38; 
355 9; 369 831; 370 217; 371 29; 372 5; 
