Name: JWH-210 5-ethylnaphthyl isomer
Synon: (5-ethylnaphthalen-1-yl)(1-pentyl-1H-indol-3-yl)methanone
InChIKey: GZTHGJZKDOBJTK-UHFFFAOYSA-N
Formula: C26H27NO
MW: 369
ExactMass: 369.209265
CASNO: 0
ID: 2885
Comment: Provided by www.caymanchem.com/app/template/landing%2CForensic.vm / Item #9001040  Lot #0431268
Num Peaks: 176
40 6; 41 101; 42 9; 43 167; 44 9; 
51 5; 53 9; 55 33; 63 10; 73 4; 
75 11; 76 11; 77 35; 78 11; 87 5; 
88 9; 89 53; 90 10; 91 4; 100 5; 
101 28; 102 57; 103 24; 104 5; 106 8; 
107 5; 108 5; 113 24; 114 31; 115 113; 
116 150; 117 34; 118 10; 119 20; 121 20; 
122 5; 125 7; 126 34; 127 130; 128 149; 
129 126; 130 79; 131 14; 132 10; 134 41; 
135 20; 139 148; 140 98; 142 80; 144 537; 
145 52; 146 6; 147 13; 149 88; 150 15; 
151 42; 152 140; 153 199; 154 130; 155 101; 
156 40; 157 14; 158 16; 163 7; 164 6; 
165 17; 166 6; 167 39; 168 11; 169 20; 
170 34; 171 6; 174 8; 176 6; 177 8; 
178 6; 179 5; 180 8; 181 15; 183 292; 
184 57; 186 49; 187 14; 188 5; 189 13; 
190 7; 193 7; 195 405; 196 63; 197 7; 
198 5; 200 17; 201 9; 202 15; 203 5; 
211 8; 212 13; 214 999; 215 183; 216 17; 
224 14; 225 12; 226 86; 227 33; 228 32; 
229 9; 230 4; 237 15; 238 18; 239 41; 
240 71; 241 140; 242 54; 243 18; 244 5; 
250 9; 251 26; 252 30; 253 73; 254 264; 
255 135; 256 55; 257 12; 264 14; 265 27; 
266 52; 267 89; 268 88; 269 191; 270 359; 
271 89; 272 7; 278 21; 279 13; 280 38; 
281 17; 282 200; 283 164; 284 120; 285 26; 
286 5; 292 6; 293 8; 294 22; 295 33; 
296 56; 297 38; 298 151; 299 38; 300 10; 
308 14; 309 9; 310 15; 312 536; 313 128; 
314 20; 315 5; 322 30; 323 8; 324 6; 
326 21; 327 8; 338 7; 340 417; 341 122; 
342 22; 350 29; 352 573; 353 163; 354 51; 
355 13; 368 355; 369 961; 370 275; 371 44; 
372 4; 
