Name: JWH-210 2-ethylnaphthyl isomer
Synon: (2-ethylnaphthalen-1-yl)(1-pentyl-1H-indol-3-yl)methanone
InChIKey: ODRBKYARHZKAPB-UHFFFAOYSA-N
Formula: C26H27NO
MW: 369
ExactMass: 369.209265
CASNO: 0
ID: 2887
Comment: Provided by www.caymanchem.com/app/template/landing%2CForensic.vm / Item #9001038  Lot #0431267
Num Peaks: 196
41 36; 42 5; 43 69; 44 2; 51 3; 
53 2; 55 11; 62 1; 63 5; 64 1; 
65 3; 69 2; 73 1; 74 1; 75 5; 
76 4; 77 18; 78 4; 79 1; 87 3; 
88 4; 89 23; 90 5; 91 5; 100 1; 
101 10; 102 22; 103 15; 104 4; 105 1; 
106 8; 107 4; 108 1; 113 8; 114 9; 
115 56; 116 61; 117 26; 118 35; 119 11; 
120 8; 121 3; 125 2; 126 17; 127 58; 
128 67; 129 41; 130 116; 131 22; 133 12; 
134 37; 139 42; 140 21; 141 31; 142 13; 
143 16; 144 144; 145 15; 146 7; 147 7; 
148 16; 150 5; 151 20; 152 86; 153 248; 
154 317; 155 67; 156 20; 157 5; 158 6; 
159 1; 162 1; 163 6; 164 2; 165 28; 
166 9; 167 17; 168 8; 169 3; 170 7; 
171 4; 172 3; 173 1; 174 7; 175 4; 
176 6; 177 3; 178 6; 179 5; 182 999; 
183 178; 184 20; 186 13; 187 32; 188 8; 
189 6; 190 3; 191 4; 193 2; 194 2; 
195 23; 196 11; 197 2; 199 1; 200 19; 
201 6; 202 8; 203 2; 204 1; 207 1; 
208 1; 209 2; 211 2; 212 5; 213 13; 
214 76; 215 23; 216 4; 217 1; 219 1; 
224 9; 225 7; 226 40; 227 18; 228 18; 
229 6; 230 1; 237 7; 238 7; 239 26; 
240 26; 241 45; 242 17; 243 5; 244 2; 
249 2; 250 4; 251 11; 252 25; 253 37; 
254 104; 255 41; 256 17; 257 3; 263 2; 
264 7; 265 18; 266 33; 267 71; 268 53; 
269 49; 270 92; 271 18; 272 2; 276 2; 
277 5; 278 17; 279 10; 280 42; 281 22; 
282 57; 283 48; 284 31; 285 6; 291 3; 
292 3; 294 22; 295 22; 296 54; 297 33; 
298 30; 299 6; 300 1; 307 1; 308 2; 
309 2; 310 4; 312 389; 313 93; 314 11; 
323 1; 326 7; 327 2; 337 9; 338 2; 
340 40; 341 13; 342 1; 352 163; 353 53; 
354 23; 355 7; 369 363; 370 98; 371 13; 
372 1; 
