Name: JWH-237
Synon: JWH-203 3-chlorophenyl isomer
Synon: JWH-203 3-chloro isomer
Synon: 2-(3-chlorophenyl)-1-(1-pentyl-1H-indol-3-yl)-ethanone
InChIKey: KURUPMPUIIQATM-UHFFFAOYSA-N
Formula: C21H22ClNO
MW: 339
ExactMass: 339.138992
CASNO: 864445567
ID: 2890
Comment: Provided by www.caymanchem.com/app/template/landing%2CForensic.vm / Item #10868  Lot #0428941
Num Peaks: 71
41 17; 43 18; 55 2; 63 5; 65 1; 
73 11; 75 6; 76 1; 77 4; 78 2; 
88 1; 89 26; 90 4; 91 3; 96 1; 
99 3; 101 6; 102 17; 103 4; 114 3; 
115 19; 116 45; 117 4; 125 28; 126 3; 
127 4; 128 13; 129 26; 130 16; 133 4; 
135 12; 143 18; 144 165; 145 16; 147 5; 
149 2; 154 1; 156 3; 157 7; 158 3; 
165 1; 170 6; 176 2; 177 7; 191 1; 
193 23; 195 2; 197 2; 204 3; 205 2; 
207 9; 208 2; 209 1; 212 7; 214 999; 
215 153; 216 13; 217 2; 249 1; 253 5; 
254 2; 255 1; 267 3; 281 10; 282 7; 
283 8; 327 2; 331 1; 339 5; 341 9; 
343 1; 
