Name: JWH-201
Synon: 1-pentyl-3-(4-methoxyphenylacetyl)indole
InChIKey: KQRKUKYSZPHOKC-UHFFFAOYSA-N
Formula: C22H25NO2
MW: 335
ExactMass: 335.18853
CASNO: 864445476
ID: 2892
Comment: Jason Nawyn / standard from Cayman Chemicals (lot # 0426202-5)
Num Peaks: 70
39 3; 41 12; 43 25; 51 3; 52 2; 
53 1; 55 4; 62 1; 63 2; 65 2; 
69 1; 75 2; 76 2; 77 12; 78 13; 
79 1; 88 2; 89 15; 90 3; 91 5; 
101 4; 102 14; 103 5; 104 1; 105 1; 
106 1; 114 3; 115 14; 116 42; 117 5; 
121 38; 122 3; 127 1; 128 10; 129 22; 
130 15; 131 2; 135 1; 142 1; 143 17; 
144 160; 145 16; 146 1; 154 1; 156 2; 
157 5; 158 4; 165 1; 170 5; 171 1; 
184 2; 191 1; 192 2; 204 2; 205 1; 
212 4; 213 4; 214 999; 215 155; 216 13; 
217 1; 220 1; 234 1; 250 1; 278 3; 
306 1; 334 1; 335 43; 336 10; 337 1; 
