Name: JWH-182
Synon: 4-propylnaphthalen-1-yl-(1-pentylindol-3-yl)methanone
InChIKey: AKGUMDFQXWZHHS-UHFFFAOYSA-N
Formula: C27H29NO
MW: 383
ExactMass: 383.224915
CASNO: 824960023
ID: 2894
Comment: ENFSI / University Copenhagen, Denmark
Num Peaks: 253
40 2; 41 66; 42 7; 43 148; 44 18; 
50 1; 51 3; 52 1; 53 3; 55 16; 
56 1; 62 1; 63 4; 64 1; 65 3; 
67 1; 69 3; 70 1; 71 2; 73 5; 
74 1; 75 5; 76 6; 77 12; 78 6; 
79 1; 86 1; 87 2; 88 5; 89 29; 
90 4; 91 6; 94 1; 95 1; 96 3; 
97 1; 98 3; 99 1; 100 2; 101 13; 
102 27; 103 12; 104 2; 105 1; 106 3; 
107 3; 108 2; 109 2; 112 1; 113 12; 
114 15; 115 52; 116 87; 117 18; 118 5; 
119 10; 120 10; 121 13; 125 3; 126 17; 
127 53; 128 77; 129 63; 130 41; 131 10; 
132 12; 134 33; 135 17; 137 1; 138 3; 
139 114; 140 109; 141 130; 142 27; 143 16; 
144 302; 145 30; 146 4; 147 5; 149 92; 
150 6; 151 16; 152 62; 153 53; 154 33; 
155 13; 156 16; 157 8; 158 8; 159 1; 
160 1; 161 1; 162 2; 163 7; 164 7; 
165 34; 166 13; 167 26; 168 18; 169 9; 
170 17; 171 2; 172 1; 173 1; 174 4; 
175 1; 176 3; 177 4; 178 3; 179 3; 
180 8; 181 23; 182 4; 183 11; 184 9; 
185 3; 186 26; 187 6; 188 1; 189 5; 
190 2; 191 6; 192 3; 193 4; 194 2; 
195 21; 196 7; 197 185; 198 28; 199 3; 
200 5; 201 5; 202 11; 203 3; 204 1; 
205 1; 207 35; 208 7; 209 184; 210 32; 
211 6; 212 8; 213 14; 214 507; 215 91; 
216 14; 217 5; 218 1; 222 1; 223 3; 
224 6; 225 7; 226 45; 227 23; 228 29; 
229 12; 230 5; 231 1; 236 1; 237 6; 
238 6; 239 26; 240 31; 241 76; 242 29; 
243 7; 244 1; 249 2; 250 3; 251 9; 
252 19; 253 44; 254 212; 255 94; 256 63; 
257 14; 258 1; 263 1; 264 6; 265 13; 
266 35; 267 69; 268 75; 269 74; 270 161; 
271 35; 272 3; 277 2; 278 10; 279 10; 
280 25; 281 27; 282 54; 283 95; 284 48; 
285 10; 286 1; 290 1; 291 3; 292 4; 
293 3; 294 9; 295 8; 296 49; 297 36; 
298 34; 299 10; 300 2; 306 1; 307 1; 
308 8; 309 15; 310 24; 311 15; 312 112; 
313 27; 314 10; 315 2; 322 32; 323 12; 
324 14; 326 714; 327 190; 328 27; 329 3; 
331 1; 336 6; 337 10; 338 7; 340 291; 
341 78; 342 11; 343 2; 346 1; 350 1; 
352 7; 353 10; 354 28; 355 18; 356 5; 
357 1; 364 24; 366 592; 367 189; 368 39; 
369 13; 370 3; 380 2; 382 431; 383 999; 
384 274; 385 38; 386 4; 
