Name: JWH-424
Synon: (8-bromonaphthalen-1-yl)(1-pentyl-1H-indol-3-yl)methanone
InChIKey: QXZYVJRMQVOOEQ-UHFFFAOYSA-N
Formula: C24H22BrNO
MW: 419
ExactMass: 419.088476
CASNO: 0
ID: 2898
Comment: Provided by www.caymanchem.com/app/template/landing%2CForensic.vm / Item #9001203  Lot #0436012
Num Peaks: 193
41 40; 43 87; 44 5; 50 2; 51 4; 
52 2; 53 3; 55 12; 56 1; 62 2; 
63 6; 65 1; 69 1; 71 3; 74 5; 
75 12; 76 10; 77 8; 78 2; 79 1; 
80 2; 81 1; 82 2; 86 1; 87 5; 
88 8; 89 21; 90 3; 91 1; 94 1; 
95 1; 98 2; 99 7; 100 8; 101 20; 
102 21; 103 7; 104 1; 107 8; 113 35; 
114 15; 115 23; 116 54; 117 6; 118 1; 
120 3; 121 11; 122 1; 123 1; 126 140; 
127 86; 128 34; 129 19; 130 12; 131 2; 
133 3; 134 2; 135 5; 137 1; 138 2; 
139 7; 142 92; 144 120; 145 12; 146 1; 
147 1; 149 13; 150 5; 151 4; 152 3; 
153 2; 154 6; 155 8; 156 7; 157 2; 
158 2; 161 1; 162 2; 163 7; 164 4; 
165 1; 167 5; 168 3; 170 21; 173 1; 
174 3; 175 3; 176 3; 177 1; 179 1; 
180 1; 181 1; 182 1; 184 1; 185 2; 
186 3; 187 17; 188 9; 189 9; 190 3; 
191 1; 193 1; 198 1; 199 3; 200 8; 
201 5; 202 4; 203 2; 205 41; 206 7; 
207 38; 208 7; 209 2; 211 16; 212 15; 
213 78; 214 115; 215 53; 216 8; 217 1; 
222 1; 223 2; 224 12; 225 14; 226 46; 
227 16; 228 8; 229 2; 233 29; 234 4; 
235 29; 236 5; 237 2; 238 25; 239 19; 
240 122; 241 104; 242 28; 243 12; 244 2; 
250 3; 251 16; 252 22; 253 42; 254 127; 
255 56; 256 13; 257 2; 264 3; 265 4; 
266 20; 267 11; 268 41; 269 236; 270 823; 
271 169; 272 18; 273 1; 277 1; 278 2; 
279 1; 280 6; 282 69; 283 29; 284 15; 
285 3; 293 1; 294 4; 295 2; 296 7; 
297 2; 308 1; 310 2; 311 3; 312 1; 
322 1; 324 1; 325 1; 338 4; 340 999; 
341 263; 342 37; 343 3; 348 1; 350 1; 
362 3; 363 1; 364 3; 365 1; 419 20; 
420 6; 421 21; 422 5; 
