Name: JWH-398 7-chloronaphthyl isomer
Synon: (7-chloronaphthalen-1-yl)(1-pentyl-1H-indol-3-yl)methanone
InChIKey: ZFJGDZVHMJACQT-UHFFFAOYSA-N
Formula: C24H22ClNO
MW: 375
ExactMass: 375.138992
CASNO: 0
ID: 2900
Comment: Provided by www.caymanchem.com/app/template/landing%2CForensic.vm / Item #9001027  Lot #0433046
Num Peaks: 200
40 4; 41 110; 43 227; 44 9; 50 7; 
51 14; 52 6; 53 8; 55 32; 62 6; 
63 14; 65 7; 69 6; 71 5; 73 7; 
74 15; 75 33; 76 28; 77 21; 78 11; 
86 6; 87 11; 88 17; 89 55; 90 8; 
94 5; 99 15; 100 11; 101 36; 102 69; 
103 23; 104 3; 106 11; 111 5; 112 19; 
113 35; 114 22; 115 90; 116 140; 117 40; 
118 10; 119 11; 121 25; 125 42; 126 243; 
127 163; 128 124; 129 70; 130 114; 131 17; 
132 12; 133 6; 134 10; 135 19; 139 13; 
140 13; 142 149; 143 40; 144 418; 145 53; 
147 9; 149 10; 150 5; 151 9; 152 5; 
153 3; 154 14; 155 19; 156 29; 157 12; 
158 15; 160 21; 161 334; 162 56; 163 120; 
164 16; 167 6; 168 4; 170 34; 173 12; 
174 17; 175 18; 176 7; 177 7; 182 3; 
184 14; 186 71; 187 31; 189 270; 190 39; 
191 76; 192 11; 193 2; 197 6; 198 6; 
199 5; 201 101; 202 17; 203 35; 208 2; 
209 4; 210 3; 211 22; 212 20; 213 85; 
214 999; 215 161; 216 16; 223 4; 224 12; 
225 13; 226 43; 227 19; 228 9; 229 5; 
237 5; 238 21; 239 21; 240 127; 241 177; 
242 38; 243 5; 248 4; 249 12; 250 7; 
251 18; 252 16; 253 31; 254 136; 255 76; 
256 15; 257 5; 262 3; 264 3; 265 8; 
266 14; 267 10; 268 37; 269 136; 270 61; 
271 11; 274 7; 275 15; 276 22; 277 10; 
278 8; 279 4; 280 7; 281 9; 282 39; 
283 31; 284 14; 285 6; 288 51; 289 25; 
290 59; 291 18; 292 18; 293 5; 294 5; 
296 4; 300 6; 301 21; 302 48; 303 24; 
304 78; 305 24; 306 27; 307 7; 310 4; 
314 8; 315 4; 316 8; 318 667; 319 195; 
320 240; 321 65; 322 18; 328 6; 330 3; 
332 8; 340 37; 341 18; 346 11; 347 9; 
348 6; 349 3; 356 17; 358 136; 359 45; 
360 63; 361 14; 362 5; 363 5; 373 6; 
375 889; 376 282; 377 303; 378 77; 379 10; 
