Name: JWH-398 6-chloronaphthyl isomer
Synon: (6-chloronaphthalen-1-yl)(1-pentyl-1H-indol-3-yl)methanone
InChIKey: AICJARHUOUQZSH-UHFFFAOYSA-N
Formula: C24H22ClNO
MW: 375
ExactMass: 375.138992
CASNO: 0
ID: 2901
Comment: Provided by www.caymanchem.com/app/template/landing%2CForensic.vm / Item #9001026  Lot #0431257
Num Peaks: 201
40 9; 41 137; 42 13; 43 277; 44 9; 
50 5; 51 18; 52 6; 53 7; 55 31; 
62 8; 63 20; 64 4; 65 6; 69 5; 
71 6; 73 6; 74 13; 75 34; 76 32; 
77 29; 78 8; 87 20; 88 23; 89 57; 
90 9; 93 5; 98 11; 99 25; 100 16; 
101 31; 102 78; 103 25; 104 4; 107 12; 
111 4; 113 45; 114 36; 115 82; 116 169; 
117 48; 118 16; 119 5; 120 22; 125 51; 
126 295; 127 148; 128 115; 129 89; 130 122; 
131 13; 132 8; 133 2; 134 7; 135 13; 
138 4; 139 12; 142 152; 143 44; 144 465; 
145 51; 147 4; 148 5; 149 9; 150 5; 
151 8; 152 6; 153 7; 154 16; 155 10; 
156 17; 157 9; 158 14; 159 12; 161 364; 
162 55; 163 139; 164 19; 165 5; 167 5; 
170 34; 171 4; 173 10; 174 11; 175 16; 
176 4; 177 13; 184 7; 185 6; 186 75; 
187 37; 188 23; 189 245; 190 36; 191 77; 
192 10; 193 4; 198 5; 199 5; 201 73; 
202 8; 203 26; 207 16; 208 1; 211 15; 
212 21; 213 95; 214 988; 215 150; 216 13; 
222 4; 224 16; 225 10; 226 41; 227 12; 
228 14; 229 4; 237 6; 238 18; 239 19; 
240 104; 241 150; 242 43; 243 8; 249 16; 
250 9; 251 18; 252 15; 253 46; 254 141; 
255 67; 256 17; 264 5; 265 11; 266 14; 
267 8; 269 186; 270 75; 271 13; 274 11; 
275 18; 276 17; 277 12; 278 11; 280 6; 
281 7; 282 40; 283 41; 284 16; 287 7; 
288 70; 289 30; 290 81; 291 19; 292 23; 
296 4; 300 19; 301 23; 302 34; 303 44; 
304 138; 305 43; 306 54; 307 12; 314 8; 
315 10; 316 21; 318 602; 319 156; 320 204; 
321 60; 322 15; 323 5; 325 4; 327 7; 
328 7; 329 3; 330 5; 332 12; 333 4; 
334 3; 338 4; 340 66; 341 19; 342 6; 
346 14; 347 12; 348 7; 349 5; 356 11; 
358 393; 359 118; 360 138; 361 28; 362 10; 
374 355; 375 999; 376 363; 377 353; 378 97; 
379 13; 
