Name: JWH-398 2-chloronaphthyl isomer
Synon: (2-chloronaphthalen-1-yl)(1-pentyl-1H-indol-3-yl)methanone
InChIKey: YNEFOXBSBQBQMF-UHFFFAOYSA-N
Formula: C24H22ClNO
MW: 375
ExactMass: 375.138992
CASNO: 0
ID: 2903
Comment: Provided by www.caymanchem.com/app/template/landing%2CForensic.vm / Item #9001023  Lot #0431255
Num Peaks: 179
40 2; 41 116; 43 249; 44 6; 51 16; 
52 6; 53 10; 55 34; 62 7; 63 19; 
64 6; 65 6; 73 9; 74 14; 75 31; 
76 27; 77 24; 78 9; 87 13; 88 17; 
89 57; 90 11; 91 7; 93 6; 98 5; 
99 18; 100 19; 101 42; 102 56; 103 25; 
107 15; 113 39; 114 34; 115 85; 116 150; 
117 31; 118 6; 119 5; 121 20; 123 5; 
125 45; 126 234; 127 113; 128 105; 129 62; 
130 116; 131 13; 133 9; 134 5; 135 19; 
139 10; 140 8; 142 103; 143 31; 144 432; 
145 62; 146 22; 149 5; 150 10; 151 6; 
152 7; 154 12; 155 5; 156 15; 157 9; 
158 20; 159 12; 161 244; 162 45; 163 88; 
164 12; 170 22; 171 6; 172 5; 173 14; 
174 15; 175 14; 176 7; 178 6; 184 9; 
185 5; 186 72; 187 31; 188 21; 189 313; 
190 38; 191 115; 192 15; 193 7; 198 6; 
200 8; 201 50; 202 13; 203 18; 210 5; 
211 15; 212 19; 213 100; 214 999; 215 181; 
216 18; 223 6; 224 11; 225 21; 226 51; 
227 19; 228 17; 238 35; 239 29; 240 134; 
241 142; 242 40; 243 7; 249 9; 250 9; 
251 19; 252 14; 253 44; 254 122; 255 50; 
256 13; 265 11; 266 12; 267 20; 268 30; 
269 150; 270 257; 271 53; 272 7; 274 10; 
275 12; 276 28; 277 10; 278 10; 280 8; 
281 5; 282 41; 283 31; 284 22; 288 44; 
289 16; 290 40; 291 17; 292 17; 296 9; 
300 7; 301 8; 302 13; 303 19; 304 98; 
305 19; 306 22; 310 8; 316 5; 318 293; 
319 96; 320 115; 321 36; 322 12; 323 8; 
325 8; 332 6; 338 9; 340 201; 341 45; 
346 11; 347 9; 348 5; 356 10; 358 194; 
359 61; 360 85; 361 24; 362 7; 375 899; 
376 271; 377 340; 378 77; 379 11; 
