Name: JWH-398
Synon: 1-pentyl-3-(4-chloro-1-naphthoyl)indole
InChIKey: IUWBHGFOHXVVKV-UHFFFAOYSA-N
Formula: C24H22ClNO
MW: 375
ExactMass: 375.138992
CASNO: 1292765184
ID: 2904
Comment: Jason Nawyn / standard from Cayman Chemicals (lot # 0423928-2)
Num Peaks: 249
36 1; 39 11; 40 1; 41 44; 42 4; 
43 87; 44 2; 50 2; 51 5; 52 2; 
53 2; 55 10; 62 3; 63 6; 65 1; 
69 2; 71 1; 73 2; 74 5; 75 15; 
76 11; 77 10; 78 3; 86 2; 87 5; 
88 8; 89 29; 90 4; 91 1; 94 1; 
98 1; 99 8; 100 5; 101 16; 102 29; 
103 12; 104 2; 106 1; 107 6; 111 1; 
112 5; 113 17; 114 7; 115 36; 116 75; 
117 26; 118 5; 119 3; 120 1; 121 10; 
123 1; 124 1; 125 25; 126 137; 127 67; 
128 52; 129 36; 130 53; 131 8; 132 6; 
133 2; 134 2; 135 6; 137 1; 138 1; 
139 3; 140 2; 141 1; 142 65; 143 16; 
144 240; 145 29; 146 4; 147 2; 148 1; 
149 2; 150 3; 151 3; 152 2; 153 6; 
154 8; 155 3; 156 10; 157 4; 158 9; 
159 5; 160 12; 161 180; 162 29; 163 63; 
164 9; 165 3; 167 2; 168 2; 169 1; 
170 13; 171 2; 173 6; 174 5; 175 12; 
176 2; 177 4; 178 1; 184 6; 185 3; 
186 36; 187 15; 188 7; 189 185; 190 24; 
191 60; 192 8; 197 1; 198 2; 199 2; 
200 4; 201 74; 202 11; 203 24; 204 3; 
210 1; 211 8; 212 11; 213 45; 214 505; 
215 85; 216 9; 217 1; 221 1; 222 1; 
223 3; 224 9; 225 7; 226 21; 227 8; 
228 7; 229 1; 236 1; 237 1; 238 14; 
239 11; 240 54; 241 84; 242 25; 243 4; 
247 2; 248 1; 249 8; 250 3; 251 9; 
252 9; 253 21; 254 89; 255 38; 256 9; 
257 1; 262 2; 263 1; 264 3; 265 5; 
266 7; 267 8; 268 10; 269 87; 270 36; 
271 6; 273 3; 274 7; 275 12; 276 11; 
277 7; 278 5; 279 2; 280 2; 281 3; 
282 17; 283 26; 284 14; 285 3; 286 1; 
287 4; 288 51; 289 25; 290 54; 291 17; 
292 15; 293 4; 294 2; 295 1; 296 2; 
300 10; 301 21; 302 28; 303 31; 304 131; 
305 38; 306 48; 307 11; 308 3; 310 1; 
311 1; 312 1; 313 1; 314 6; 315 3; 
316 15; 317 14; 318 517; 319 128; 320 177; 
321 42; 322 13; 323 4; 324 2; 325 1; 
327 1; 328 5; 329 2; 330 5; 331 2; 
332 11; 333 3; 334 3; 338 1; 339 2; 
340 74; 341 22; 342 4; 344 2; 345 2; 
346 13; 347 12; 348 7; 349 3; 356 18; 
357 7; 358 380; 359 103; 360 142; 361 37; 
362 8; 372 2; 373 12; 374 348; 375 999; 
376 360; 377 350; 378 83; 379 11; 
