Name: JWH-369
Synon: [5-(2-chlorophenyl)-1-pentyl-1H-pyrrol-3-yl]-1-naphthalenyl-methanone
InChIKey: SUELCWQJMQQCTF-UHFFFAOYSA-N
Formula: C26H24ClNO
MW: 401
ExactMass: 401.154642
CASNO: 914458278
ID: 2906
Comment: Provided by www.caymanchem.com/app/template/landing%2CForensic.vm / Item #1828  Lot #0435032
Num Peaks: 176
41 135; 42 15; 43 255; 44 21; 50 10; 
51 20; 52 12; 53 16; 55 32; 63 14; 
65 12; 71 13; 73 12; 74 12; 75 28; 
76 14; 77 62; 78 16; 86 39; 87 14; 
89 12; 99 18; 101 41; 102 27; 113 45; 
114 35; 115 34; 116 11; 119 9; 125 49; 
126 132; 127 670; 128 113; 129 14; 132 20; 
133 21; 134 24; 137 14; 138 76; 139 66; 
140 94; 141 159; 145 10; 146 10; 147 28; 
148 20; 149 148; 150 20; 151 72; 152 41; 
153 32; 155 999; 156 133; 160 12; 161 30; 
162 12; 163 54; 164 45; 165 97; 166 34; 
167 38; 168 20; 169 30; 174 9; 175 22; 
176 47; 177 30; 178 17; 179 21; 180 17; 
182 31; 188 19; 189 22; 190 48; 191 27; 
192 17; 193 49; 194 39; 195 10; 196 20; 
203 20; 204 248; 205 55; 206 102; 207 26; 
208 32; 209 17; 210 11; 216 19; 217 10; 
219 17; 220 33; 221 9; 230 13; 232 16; 
234 15; 237 32; 238 19; 239 105; 240 27; 
246 51; 247 14; 248 18; 249 14; 250 19; 
251 13; 252 56; 253 24; 254 10; 264 23; 
265 34; 266 40; 267 41; 268 33; 269 17; 
274 251; 275 54; 276 126; 277 34; 278 25; 
279 11; 280 33; 281 119; 282 54; 283 18; 
290 92; 291 31; 292 20; 293 32; 294 150; 
295 84; 296 54; 297 10; 303 14; 304 12; 
306 12; 307 13; 308 75; 309 45; 310 45; 
311 17; 314 27; 315 37; 316 61; 317 27; 
318 28; 322 12; 326 9; 327 12; 328 13; 
330 253; 331 81; 332 92; 333 23; 341 1; 
342 9; 344 233; 345 105; 346 93; 347 27; 
348 10; 358 17; 364 32; 366 193; 367 53; 
368 13; 372 20; 384 60; 385 21; 386 22; 
400 450; 401 876; 402 376; 403 311; 404 91; 
405 15; 
