Name: JWH-363
Synon: 1-pentyl-2-(3-trifluoromethylphenyl)-4-(1-naphthoyl)pyrrole
InChIKey: GETLFVZYXNFVJS-UHFFFAOYSA-N
Formula: C27H24F3NO
MW: 435
ExactMass: 435.181
CASNO: 0
ID: 2908
Comment: ForensicDB entry 3110
Num Peaks: 273
51 6; 52 17; 53 10; 54 1; 55 17; 
56 1; 63 3; 65 3; 66 1; 67 1; 
69 5; 71 7; 74 2; 75 8; 76 4; 
77 30; 78 4; 84 1; 86 16; 87 3; 
88 1; 89 2; 98 1; 99 1; 100 1; 
101 19; 102 4; 106 1; 109 1; 113 3; 
114 2; 115 5; 122 1; 125 8; 126 68; 
127 469; 128 76; 129 20; 130 1; 132 4; 
133 10; 134 1; 137 1; 138 1; 139 16; 
140 18; 141 40; 142 1; 143 3; 144 2; 
145 12; 146 3; 147 2; 148 1; 150 3; 
151 10; 152 17; 153 1; 154 20; 155 782; 
156 98; 157 10; 158 3; 159 5; 160 1; 
161 1; 162 3; 163 31; 164 36; 165 76; 
166 15; 167 23; 168 6; 169 4; 170 4; 
171 3; 172 59; 173 8; 174 2; 175 12; 
176 5; 177 11; 178 7; 179 9; 180 5; 
181 5; 182 22; 183 101; 184 11; 185 4; 
186 4; 187 1; 188 1; 189 8; 190 14; 
191 12; 192 4; 193 20; 194 34; 195 39; 
196 6; 197 2; 198 6; 199 1; 200 3; 
201 1; 202 8; 203 5; 204 9; 205 12; 
206 11; 207 16; 208 7; 209 14; 210 15; 
211 12; 212 3; 213 4; 214 1; 215 1; 
216 3; 217 1; 218 14; 219 16; 220 32; 
221 7; 222 23; 223 22; 224 41; 225 7; 
226 4; 227 1; 232 5; 233 5; 234 7; 
235 6; 236 7; 237 23; 238 280; 239 70; 
240 17; 241 3; 242 21; 243 2; 244 1; 
246 2; 248 3; 249 3; 250 40; 251 8; 
252 21; 253 8; 254 4; 255 2; 256 1; 
257 2; 262 3; 263 2; 264 19; 265 10; 
266 12; 267 8; 268 10; 269 5; 270 3; 
275 2; 276 9; 277 8; 278 10; 279 4; 
280 33; 281 17; 282 6; 283 3; 284 1; 
286 2; 288 6; 289 2; 290 126; 291 28; 
292 5; 293 5; 294 6; 295 15; 296 22; 
297 6; 298 1; 299 2; 301 2; 304 1; 
306 6; 307 10; 308 179; 309 41; 310 6; 
311 1; 312 1; 313 1; 314 2; 315 4; 
316 2; 317 1; 319 2; 320 7; 321 7; 
322 3; 323 3; 324 33; 325 8; 326 2; 
327 1; 328 1; 329 2; 331 1; 333 7; 
334 6; 335 16; 336 16; 337 11; 338 7; 
339 1; 342 1; 343 7; 344 38; 345 10; 
346 4; 347 2; 348 39; 349 98; 350 175; 
351 45; 352 6; 358 2; 359 1; 360 12; 
361 19; 362 15; 363 14; 364 343; 365 91; 
366 11; 367 1; 374 1; 375 1; 376 7; 
377 7; 378 351; 379 148; 380 30; 381 2; 
390 2; 391 1; 392 27; 393 7; 394 1; 
404 2; 406 15; 407 9; 408 1; 414 2; 
416 63; 417 16; 418 80; 419 21; 420 6; 
421 1; 432 1; 433 6; 434 515; 435 999; 
436 368; 437 42; 438 3; 
