Name: JWH-251 3-methylphenyl isomer
Synon: JWH-251 3-methyl isomer
Synon: 1-(1-pentyl-1H-indol-3-yl)-2-(m-tolyl)ethanone
InChIKey: DQMIYWJJSIRLSK-UHFFFAOYSA-N
Formula: C22H25NO
MW: 319
ExactMass: 319.193615
CASNO: 0
ID: 2913
Comment: Provided by www.caymanchem.com/app/template/landing%2CForensic.vm / Item #9001021  Lot #0431193
Num Peaks: 100
41 31; 43 61; 44 1; 50 2; 51 5; 
52 2; 53 4; 55 8; 62 2; 63 6; 
64 2; 65 5; 69 2; 71 1; 74 1; 
75 5; 76 5; 77 26; 78 10; 79 14; 
87 1; 88 5; 89 28; 90 3; 91 4; 
101 10; 102 26; 103 21; 104 6; 105 43; 
106 5; 109 1; 111 9; 114 7; 115 29; 
116 69; 117 10; 118 1; 119 2; 127 2; 
128 18; 129 36; 130 24; 131 3; 139 1; 
140 1; 141 1; 143 28; 144 207; 145 22; 
146 2; 152 1; 154 4; 155 1; 156 4; 
157 7; 158 5; 160 2; 163 1; 165 1; 
167 1; 168 1; 170 8; 171 1; 176 1; 
177 1; 178 2; 184 3; 185 1; 186 1; 
189 3; 190 1; 191 1; 198 1; 202 1; 
203 1; 204 5; 205 3; 206 1; 212 4; 
214 999; 215 160; 216 17; 217 5; 218 3; 
219 2; 220 2; 230 1; 231 1; 232 2; 
233 1; 234 1; 246 1; 248 1; 262 4; 
290 1; 303 2; 319 27; 320 7; 321 1; 
