Name: JZL195
InChIKey: QNYRAEKLMNDRFY-UHFFFAOYSA-N
Synon: 4-nitrophenyl-4-(3-phenoxybenzyl)piperazine-1-carboxylate
Formula: C24H23N3O5
MW: 433
ExactMass: 433.16377
CASNO: 1210004128
ID: 2915
Comment: Provided by www.caymanchem.com/app/template/landing%2CForensic.vm / Item #13668  Lot #0434547
Num Peaks: 89
41 9; 42 71; 44 8; 50 13; 51 26; 
52 10; 55 18; 56 84; 58 11; 63 11; 
64 18; 65 19; 70 12; 74 9; 75 21; 
76 15; 77 66; 78 53; 79 9; 83 16; 
85 19; 89 33; 90 44; 91 37; 92 17; 
94 10; 106 15; 107 12; 112 10; 115 38; 
117 23; 118 10; 122 26; 126 15; 127 31; 
128 21; 129 29; 130 12; 131 11; 133 1; 
135 3; 141 12; 148 69; 152 23; 153 52; 
154 41; 155 27; 156 17; 165 65; 168 54; 
169 19; 177 9; 181 61; 183 668; 184 999; 
185 130; 186 12; 193 14; 195 10; 196 20; 
197 31; 198 10; 206 20; 207 3; 208 9; 
209 11; 210 32; 221 28; 223 17; 224 36; 
226 9; 238 65; 239 15; 250 157; 251 15; 
253 8; 264 55; 265 12; 267 10; 281 4; 
282 12; 283 8; 295 105; 296 19; 388 27; 
429 9; 432 23; 433 42; 434 17; 
