Name: JB-336
Synon: N-Methyl-3-piperidyl benzilate
Synon: 1-Methyl-3-piperidyl benzilate
InChIKey: ZBEILXWHVSVDBN-UHFFFAOYSA-N
Formula: C20H23NO3
MW: 325
ExactMass: 325.167793
CASNO: 3321800
ID: 2916
Comment: DEA SWL
Num Peaks: 89
40 2; 41 29; 42 107; 43 63; 44 72; 
45 2; 46 1; 50 7; 51 37; 52 5; 
53 6; 54 7; 55 26; 56 16; 57 25; 
58 28; 59 1; 62 1; 63 4; 64 1; 
65 2; 66 1; 67 5; 68 15; 69 10; 
70 70; 71 55; 72 3; 74 3; 75 3; 
76 10; 77 238; 78 23; 79 2; 80 3; 
81 6; 82 75; 83 10; 84 387; 85 22; 
86 5; 87 1; 88 4; 89 2; 91 2; 
94 14; 95 4; 96 143; 97 999; 98 131; 
99 30; 100 2; 101 2; 102 1; 103 1; 
104 3; 105 356; 106 29; 107 2; 112 1; 
113 2; 114 23; 115 9; 116 1; 126 2; 
127 3; 128 3; 139 4; 142 1; 143 2; 
150 1; 151 5; 152 18; 153 8; 154 3; 
155 1; 163 5; 164 4; 165 24; 166 6; 
167 2; 168 1; 181 15; 182 22; 183 98; 
184 13; 185 1; 194 1; 207 1; 
