Name: JB-318
Synon: N-ethyl-3-piperidyl benzilate
InChIKey: OJYOTLHNSMYONM-UHFFFAOYSA-N
Formula: C21H25NO3
MW: 339
ExactMass: 339.183443
CASNO: 3567122
ID: 2918
Comment: DEA SWL
Num Peaks: 96
40 2; 41 40; 42 63; 43 56; 44 17; 
50 6; 51 35; 52 5; 53 7; 54 10; 
55 34; 56 52; 57 22; 58 45; 59 2; 
62 1; 63 3; 64 1; 65 2; 66 1; 
67 9; 68 18; 69 17; 70 20; 71 55; 
72 19; 73 1; 74 2; 75 3; 76 9; 
77 235; 78 22; 79 2; 80 6; 81 3; 
82 19; 83 8; 84 79; 85 13; 86 2; 
87 1; 88 1; 89 2; 91 2; 94 3; 
95 1; 96 350; 97 29; 98 452; 99 31; 
100 7; 101 1; 102 4; 103 1; 104 2; 
105 369; 106 29; 107 2; 108 11; 109 6; 
110 41; 111 999; 112 163; 113 22; 114 44; 
115 8; 126 3; 127 4; 128 32; 129 5; 
139 4; 142 1; 150 1; 151 5; 152 19; 
153 9; 154 3; 155 1; 156 1; 157 2; 
163 5; 164 5; 165 26; 166 7; 167 4; 
168 1; 174 1; 181 16; 182 18; 183 103; 
184 14; 185 1; 194 1; 324 7; 325 1; 
338 1; 
