Name: delta-9-Tetrahydrocannabinol
Synon: THC
Synon: Dronabinol
Synon: delta-9-THC
InChIKey: CYQFCXCEBYINGO-UHFFFAOYSA-N
Formula: C21H30O2
MW: 314
ExactMass: 314.22458
CASNO: 1972083
ID: 2919
Comment: DEA SWL
Num Peaks: 237
40 12; 41 368; 42 23; 43 327; 44 8; 
45 2; 50 4; 51 26; 52 11; 53 78; 
54 10; 55 159; 56 28; 57 32; 58 2; 
59 13; 62 1; 63 14; 64 6; 65 62; 
66 16; 67 144; 68 14; 69 143; 70 11; 
71 25; 72 3; 73 1; 74 3; 75 5; 
76 11; 77 157; 78 44; 79 126; 80 21; 
81 178; 82 24; 83 24; 84 4; 85 5; 
86 3; 87 5; 88 5; 89 25; 90 9; 
91 257; 92 39; 93 103; 94 20; 95 136; 
96 14; 97 10; 98 6; 99 10; 101 20; 
102 19; 103 55; 104 20; 105 143; 106 39; 
107 157; 108 44; 109 51; 110 7; 111 9; 
112 5; 113 13; 114 14; 115 196; 116 52; 
117 71; 118 19; 119 122; 120 33; 121 115; 
122 57; 123 85; 124 38; 125 4; 126 7; 
127 69; 128 178; 129 119; 130 28; 131 83; 
132 22; 133 63; 134 34; 135 55; 136 39; 
137 41; 138 9; 139 23; 140 9; 141 105; 
142 51; 143 45; 144 41; 145 71; 146 24; 
147 142; 148 31; 149 56; 150 20; 151 18; 
152 78; 153 72; 154 38; 155 52; 156 19; 
157 74; 158 35; 159 69; 160 63; 161 97; 
162 27; 163 35; 164 13; 165 116; 166 36; 
167 32; 168 28; 169 45; 170 19; 171 51; 
172 26; 173 106; 174 228; 175 128; 176 40; 
177 23; 178 34; 179 27; 180 10; 181 52; 
182 26; 183 54; 184 24; 185 51; 186 29; 
187 151; 188 64; 189 42; 190 23; 191 24; 
192 5; 193 161; 194 28; 195 28; 196 13; 
197 48; 198 26; 199 82; 200 47; 201 116; 
202 35; 203 16; 204 5; 205 8; 206 3; 
207 20; 208 9; 209 11; 210 10; 211 25; 
212 14; 213 58; 214 42; 215 68; 216 19; 
217 98; 218 23; 219 9; 220 3; 221 41; 
222 7; 223 6; 224 7; 225 18; 226 9; 
227 25; 228 21; 229 43; 230 17; 231 889; 
232 157; 233 43; 234 6; 235 1; 237 2; 
238 2; 239 7; 240 6; 241 21; 242 36; 
243 364; 244 81; 245 51; 246 36; 247 5; 
251 1; 253 4; 254 3; 255 16; 256 16; 
257 99; 258 265; 259 54; 260 6; 267 1; 
269 12; 270 17; 271 525; 272 116; 273 22; 
274 1; 281 6; 282 2; 283 10; 284 3; 
285 40; 286 29; 287 4; 295 4; 296 2; 
297 70; 298 18; 299 999; 300 212; 301 27; 
302 3; 312 4; 313 33; 314 779; 315 176; 
316 22; 317 2; 
