Name: delta-8-Tetrahydrocannabinol
Synon: 6H-Dibenzo[b,d]pyran-1-ol, 6a,7,10,10a-tetrahydro-6,6,9-trimethyl-3-pentyl-, (6aR-trans)-
Synon: delta-8-THC
InChIKey: HCAWPGARWVBULJ-UHFFFAOYSA-N
Formula: C21H30O2
MW: 314
ExactMass: 314.22458
CASNO: 5957755
ID: 2920
Comment: DEA SWL
Num Peaks: 219
41 215; 42 20; 43 272; 44 9; 45 1; 
50 3; 51 17; 52 10; 53 60; 55 108; 
56 16; 57 18; 58 1; 59 5; 62 1; 
63 8; 64 5; 65 44; 66 15; 67 82; 
68 27; 69 51; 70 4; 71 21; 72 2; 
73 1; 74 1; 75 3; 77 102; 78 28; 
79 84; 80 18; 81 43; 82 8; 83 9; 
84 2; 85 1; 86 1; 87 4; 88 2; 
89 13; 91 154; 92 26; 93 66; 94 16; 
95 29; 96 4; 97 4; 98 1; 99 2; 
101 8; 102 10; 103 29; 104 13; 105 84; 
106 20; 107 125; 108 32; 109 34; 110 4; 
111 3; 112 1; 113 3; 115 79; 116 22; 
117 32; 119 128; 120 28; 121 86; 122 46; 
123 62; 124 30; 125 4; 126 3; 127 28; 
128 63; 129 46; 130 10; 131 40; 132 11; 
133 35; 134 72; 135 33; 136 33; 137 22; 
138 11; 139 8; 141 35; 142 16; 143 17; 
144 15; 145 35; 146 10; 147 50; 148 16; 
149 30; 150 19; 151 9; 152 28; 153 26; 
154 13; 155 19; 156 5; 157 24; 158 13; 
159 25; 160 29; 161 47; 162 11; 163 16; 
164 9; 165 49; 166 14; 167 10; 168 10; 
169 16; 170 6; 171 16; 172 12; 173 52; 
174 178; 175 71; 176 17; 177 10; 178 19; 
179 12; 180 6; 181 27; 182 13; 183 35; 
184 10; 185 16; 186 15; 187 66; 188 42; 
189 59; 190 39; 191 17; 193 223; 194 31; 
195 17; 196 5; 197 20; 198 9; 199 24; 
200 17; 201 120; 202 34; 203 21; 204 5; 
205 3; 206 5; 207 12; 208 3; 209 3; 
210 4; 211 9; 212 5; 213 19; 214 22; 
215 37; 216 8; 217 18; 218 6; 219 3; 
220 1; 221 4; 222 1; 223 2; 224 3; 
225 5; 226 4; 227 10; 228 8; 229 24; 
231 999; 232 164; 233 46; 234 6; 235 1; 
238 1; 239 1; 240 1; 241 5; 242 6; 
243 46; 244 13; 245 65; 246 136; 247 24; 
248 2; 253 5; 254 1; 255 5; 257 54; 
258 350; 259 136; 260 19; 261 2; 269 3; 
271 308; 272 118; 273 18; 274 2; 281 2; 
283 3; 285 11; 286 6; 287 1; 295 2; 
297 9; 299 74; 300 17; 301 2; 312 1; 
314 602; 315 136; 316 19; 317 2; 
