Name: beta-D(+)-Glucose Pentaacetate
InChIKey: LPTITAGPBXDDGR-UHFFFAOYSA-N
Formula: C16H22O11
MW: 390
ExactMass: 390.11621
CASNO: 604693
ID: 2927
Comment: DEA WRL
Num Peaks: 129
23 1; 24 1; 27 2; 28 9; 29 3; 
31 2; 32 2; 33 1; 35 1; 38 1; 
39 4; 40 1; 41 4; 42 14; 43 999; 
44 30; 53 3; 55 6; 56 1; 57 8; 
60 9; 61 11; 67 1; 68 4; 69 29; 
70 17; 71 13; 72 1; 73 65; 74 6; 
77 1; 78 2; 80 12; 81 44; 82 6; 
83 3; 84 7; 85 43; 86 27; 87 3; 
89 2; 95 1; 96 4; 97 71; 98 277; 
99 41; 100 4; 101 9; 102 33; 103 154; 
104 8; 105 2; 109 36; 110 5; 111 4; 
112 22; 113 30; 114 47; 115 512; 116 46; 
117 6; 122 4; 125 8; 126 66; 127 44; 
128 8; 129 5; 130 1; 131 23; 138 2; 
139 45; 140 165; 141 27; 142 4; 143 34; 
144 15; 145 124; 146 9; 147 1; 153 5; 
154 1; 155 49; 156 13; 157 394; 158 126; 
159 13; 161 2; 167 2; 168 45; 169 74; 
170 8; 171 4; 173 6; 182 56; 183 4; 
184 1; 185 6; 186 11; 187 10; 191 1; 
197 29; 198 3; 199 109; 200 219; 201 22; 
202 3; 203 14; 210 9; 211 33; 212 4; 
215 46; 216 4; 217 3; 228 27; 229 14; 
230 2; 242 232; 243 37; 244 4; 245 24; 
246 4; 259 3; 270 1; 271 2; 287 4; 
288 2; 289 1; 317 6; 331 4; 
