Name: MDA19
Synon: 2-(1-hexyl-1,2-dihydro-2Z-oxo-3H-indol-3-ylidine hydrazide, benzoic acid
InChIKey: ZGQHMZCITJHYOW-QOCHGBHMSA-N
Formula: C21H23N3O2
MW: 349
ExactMass: 349.179028
CASNO: 1048973472
ID: 2928
Comment: Provided by www.caymanchem.com/app/template/landing%2CForensic.vm / Item #10563  Lot #0422497
Num Peaks: 115
41 75; 43 79; 44 5; 50 35; 51 99; 
52 14; 53 7; 55 90; 56 5; 57 6; 
62 4; 63 16; 64 8; 65 15; 69 6; 
73 8; 74 15; 75 14; 76 68; 77 569; 
78 52; 79 5; 83 12; 88 6; 89 65; 
90 57; 91 79; 92 8; 102 26; 103 59; 
105 826; 106 80; 107 6; 110 4; 115 9; 
116 38; 117 89; 118 283; 119 32; 120 6; 
121 11; 128 21; 129 13; 130 41; 131 69; 
132 165; 133 30; 134 91; 135 7; 143 6; 
144 50; 145 59; 146 289; 147 51; 148 16; 
149 7; 154 5; 156 8; 157 7; 158 9; 
159 35; 160 41; 161 7; 165 9; 170 8; 
171 14; 172 15; 173 27; 174 15; 183 4; 
186 5; 187 9; 188 15; 189 6; 192 4; 
193 4; 194 4; 195 6; 197 5; 198 33; 
199 6; 200 4; 201 6; 207 11; 208 1; 
216 11; 221 1; 222 5; 229 5; 230 7; 
244 999; 245 160; 246 15; 249 4; 250 29; 
251 5; 253 6; 254 1; 265 4; 274 5; 
278 4; 281 5; 282 3; 311 4; 321 7; 
325 8; 327 2; 328 4; 329 4; 331 5; 
341 5; 343 1; 346 4; 349 161; 350 37; 
