Name: 4-(3,4-Methylenedioxybenzyl)-pyrimidine
InChIKey: JRBGDNANKQHRRK-UHFFFAOYSA-N
Formula: C12H10N2O2
MW: 214
ExactMass: 214.074227
CASNO: 0
ID: 2929
Comment: ENFSI / Leuckart impurity MDA synthesis
Num Peaks: 46
38 38; 39 41; 43 32; 44 116; 50 72; 
51 225; 52 88; 53 41; 62 40; 63 73; 
64 32; 65 25; 66 27; 72 105; 74 32; 
75 61; 76 72; 77 317; 78 84; 79 85; 
80 27; 82 23; 92 23; 101 52; 102 47; 
103 40; 104 23; 105 72; 106 46; 128 57; 
129 40; 130 45; 131 47; 135 770; 136 108; 
155 211; 156 116; 157 39; 162 161; 163 27; 
183 46; 184 22; 185 67; 213 568; 214 999; 
215 163; 
