Name: 3-(1,3-Benzodioxol-5-yl)-N,2-dimethylpropan-1-amine
InChIKey: OUDAACSONIJLOT-UHFFFAOYSA-N
Formula: C12H17NO2
MW: 207
ExactMass: 207.125929
CASNO: 0
ID: 2930
Comment: DEA SWL / from sample of suspected MDMA synthesis using Helional precursor
Num Peaks: 74
38 1; 39 13; 40 1; 41 11; 42 19; 
43 9; 44 999; 45 28; 50 6; 51 37; 
52 6; 53 6; 54 1; 55 4; 56 7; 
57 7; 58 1; 62 2; 63 7; 64 2; 
65 8; 66 1; 68 1; 70 11; 71 27; 
72 11; 75 1; 76 2; 77 38; 78 9; 
79 7; 84 1; 85 2; 89 5; 90 1; 
91 6; 92 1; 102 2; 103 14; 104 6; 
105 17; 106 8; 107 1; 115 3; 116 1; 
117 5; 118 5; 119 1; 121 5; 122 5; 
131 45; 132 6; 133 5; 134 2; 135 89; 
136 29; 137 2; 145 5; 146 6; 147 9; 
148 10; 149 2; 161 28; 162 17; 163 4; 
164 8; 165 1; 175 3; 176 165; 177 19; 
178 1; 190 1; 207 75; 208 10; 
