Name: CB-25 di-TMS-derivative
InChIKey: DVKQVJJFWYHTPK-UHFFFAOYSA-N
Formula: C31H57NO3Si2
MW: 547
ExactMass: 547.3877
CASNO: 999542028
ID: 2934
Comment: Spectrum courtesy of Tom Gluodenis at Agilent Technologies
Num Peaks: 345
60 4; 61 7; 65 4; 66 2; 67 27; 
68 9; 69 59; 70 10; 71 11; 73 999; 
74 93; 75 141; 76 10; 77 15; 78 8; 
79 12; 80 15; 81 32; 82 16; 83 24; 
84 8; 85 11; 86 10; 87 3; 88 2; 
89 4; 90 3; 91 19; 92 3; 93 10; 
94 24; 95 28; 96 10; 97 15; 98 8; 
99 15; 100 31; 101 13; 102 11; 103 5; 
104 4; 105 14; 106 5; 107 14; 108 10; 
109 9; 110 5; 111 5; 112 11; 113 10; 
114 36; 115 28; 116 115; 117 18; 118 6; 
119 7; 120 5; 121 14; 122 7; 123 7; 
124 5; 125 4; 126 6; 127 9; 128 72; 
129 50; 130 44; 131 18; 132 6; 133 11; 
134 4; 135 8; 136 3; 137 7; 138 3; 
139 2; 140 11; 141 14; 142 25; 143 20; 
144 40; 145 24; 146 5; 147 21; 148 6; 
149 25; 150 7; 151 12; 152 7; 153 7; 
154 22; 156 672; 157 180; 158 85; 159 18; 
160 4; 161 7; 162 4; 163 14; 164 7; 
165 20; 166 11; 167 43; 168 49; 169 26; 
170 161; 171 196; 172 40; 173 17; 174 2; 
175 2; 176 1; 177 10; 178 5; 179 31; 
180 33; 181 69; 182 27; 183 28; 184 255; 
185 55; 186 25; 187 5; 188 2; 189 3; 
190 2; 191 5; 192 4; 193 23; 194 15; 
195 56; 196 209; 197 45; 198 82; 199 27; 
200 15; 201 6; 203 2; 204 2; 205 5; 
206 14; 207 18; 208 10; 209 35; 210 30; 
211 8; 212 40; 213 21; 214 10; 215 3; 
217 2; 218 1; 219 4; 220 3; 221 12; 
222 9; 223 16; 224 10; 225 4; 226 38; 
227 26; 228 12; 229 4; 230 2; 231 2; 
232 2; 233 3; 234 2; 235 17; 236 8; 
237 25; 238 25; 239 12; 240 43; 241 12; 
242 9; 243 2; 244 3; 245 5; 246 2; 
247 2; 248 2; 249 8; 250 6; 251 8; 
252 24; 253 40; 254 55; 255 14; 256 8; 
257 2; 263 4; 264 4; 265 12; 266 9; 
267 9; 268 35; 269 12; 270 15; 271 4; 
274 15; 275 15; 276 5; 277 3; 278 4; 
279 5; 280 23; 281 13; 282 47; 283 14; 
284 9; 285 2; 289 2; 290 2; 291 7; 
292 5; 293 5; 294 7; 295 9; 296 106; 
297 25; 298 17; 299 4; 305 3; 306 3; 
307 3; 308 3; 309 6; 310 2; 312 5; 
313 1; 318 2; 319 2; 320 5; 321 4; 
322 4; 323 8; 324 8; 325 38; 326 12; 
327 14; 328 3; 333 3; 334 6; 335 3; 
336 4; 337 8; 338 6; 339 6; 340 4; 
341 2; 347 2; 349 1; 350 2; 351 8; 
352 3; 353 2; 354 3; 355 5; 356 2; 
358 2; 359 2; 360 2; 361 1; 362 2; 
363 5; 364 9; 365 4; 366 2; 367 2; 
374 2; 375 4; 376 5; 377 3; 378 3; 
386 2; 387 2; 390 6; 391 5; 392 13; 
393 4; 400 2; 401 4; 402 3; 404 3; 
405 11; 406 6; 407 42; 408 14; 409 6; 
414 5; 415 3; 417 5; 418 5; 419 9; 
420 40; 421 17; 422 6; 423 3; 430 2; 
432 4; 433 2; 434 6; 435 4; 436 7; 
437 2; 446 6; 447 5; 448 13; 450 5; 
458 3; 459 8; 460 4; 462 2; 463 6; 
474 2; 476 5; 477 24; 478 11; 479 4; 
488 2; 491 16; 492 28; 493 13; 494 5; 
502 1; 505 83; 506 47; 507 21; 508 6; 
518 6; 519 24; 520 14; 521 6; 522 2; 
530 2; 533 92; 534 42; 535 15; 536 4; 
547 25; 548 131; 549 61; 550 22; 551 5; 
