Name: CP 47,497 (C8 analog) di-TMS-derivative
InChIKey: KPSDSCLUXNEKPZ-UKILVPOCSA-N
Formula: C28H52O2Si2
MW: 476
ExactMass: 476.350584
CASNO: 999538022
ID: 2935
Comment: Spectrum courtesy of Tom Gluodenis at Agilent Technologies
Num Peaks: 182
60 2; 61 7; 67 3; 69 11; 71 22; 
73 332; 74 34; 75 87; 76 6; 77 5; 
79 13; 81 56; 82 3; 83 5; 85 23; 
91 9; 95 2; 97 3; 99 4; 101 17; 
102 2; 103 4; 105 4; 115 9; 116 10; 
117 7; 119 3; 127 2; 128 7; 129 23; 
130 4; 131 11; 132 2; 133 9; 135 4; 
141 7; 142 3; 143 11; 144 2; 145 5; 
147 31; 148 5; 149 8; 151 9; 152 2; 
153 4; 154 2; 155 9; 156 2; 157 4; 
159 3; 161 9; 163 9; 164 2; 165 5; 
167 5; 168 2; 169 11; 170 5; 171 5; 
173 3; 175 10; 176 3; 177 19; 178 4; 
179 21; 180 4; 181 8; 182 3; 183 3; 
185 4; 187 6; 189 15; 190 4; 191 18; 
192 5; 193 11; 194 2; 197 3; 199 3; 
201 10; 202 4; 203 24; 204 8; 205 45; 
206 11; 207 30; 208 6; 209 3; 213 3; 
214 2; 215 8; 216 3; 217 20; 218 10; 
219 32; 220 32; 221 11; 222 2; 223 4; 
229 5; 231 17; 232 8; 233 63; 234 15; 
235 6; 237 2; 243 5; 244 3; 245 26; 
246 10; 247 13; 248 3; 249 3; 253 6; 
257 4; 258 3; 259 16; 260 4; 261 11; 
262 3; 263 3; 271 5; 272 3; 273 9; 
274 3; 275 9; 276 3; 279 2; 285 3; 
287 102; 288 46; 289 93; 290 23; 291 7; 
293 2; 301 2; 303 20; 304 6; 305 5; 
306 2; 315 2; 317 11; 318 3; 319 18; 
320 5; 321 3; 329 3; 330 2; 332 2; 
333 5; 334 4; 335 4; 349 8; 350 2; 
361 2; 363 13; 364 4; 372 7; 373 2; 
374 7; 375 2; 377 999; 378 432; 379 173; 
380 38; 381 6; 386 11; 388 7; 393 9; 
395 3; 433 22; 435 8; 436 3; 461 19; 
463 7; 464 3; 477 355; 478 160; 479 60; 
480 14; 481 3; 
