Name: CP 55,940 tri-TMS-derivative
InChIKey: AGOIKXSOUBIFCG-MPGAWZFDSA-N
Formula: C33H64O3Si3
MW: 592
ExactMass: 592.416325
CASNO: 999544024
ID: 2936
Comment: Spectrum courtesy of Tom Gluodenis at Agilent Technologies
Num Peaks: 351
60 5; 61 16; 65 2; 67 57; 68 4; 
69 50; 71 156; 73 999; 74 102; 75 245; 
76 17; 77 18; 79 81; 80 8; 81 27; 
82 4; 83 13; 85 100; 86 8; 87 7; 
88 3; 89 10; 91 43; 92 2; 93 86; 
94 12; 95 62; 96 6; 97 6; 99 7; 
101 84; 102 11; 103 65; 104 7; 105 16; 
106 3; 107 14; 108 2; 109 6; 111 5; 
113 7; 115 22; 116 48; 117 31; 118 7; 
119 25; 121 313; 122 32; 123 3; 125 2; 
127 13; 128 15; 129 152; 130 24; 131 61; 
132 12; 133 51; 134 8; 135 12; 136 2; 
137 5; 138 2; 139 5; 141 14; 142 8; 
143 34; 144 20; 145 17; 147 257; 148 44; 
149 56; 150 8; 151 17; 152 4; 153 7; 
154 5; 155 22; 156 7; 157 11; 158 5; 
159 7; 160 2; 161 14; 162 3; 163 17; 
164 8; 165 14; 166 5; 167 11; 168 11; 
169 21; 170 6; 171 12; 172 5; 173 6; 
174 2; 175 16; 176 3; 177 38; 178 9; 
179 44; 180 11; 181 16; 182 7; 183 18; 
184 2; 185 73; 186 15; 187 14; 188 4; 
189 27; 190 8; 191 47; 192 13; 193 31; 
194 8; 195 12; 196 4; 197 9; 198 3; 
199 10; 200 6; 201 23; 202 8; 203 57; 
204 21; 205 149; 206 36; 207 123; 208 37; 
209 27; 210 16; 211 130; 212 26; 213 22; 
214 20; 215 21; 216 10; 217 72; 218 23; 
219 366; 220 123; 221 59; 222 15; 223 11; 
224 3; 225 6; 226 3; 227 8; 228 4; 
229 22; 230 11; 231 44; 233 226; 234 58; 
235 23; 236 7; 237 13; 238 39; 240 3; 
241 8; 242 5; 243 27; 244 13; 245 86; 
246 27; 247 30; 248 8; 249 8; 250 4; 
251 6; 252 2; 253 10; 254 6; 255 29; 
256 14; 257 49; 258 34; 259 106; 260 28; 
261 22; 262 6; 263 9; 264 2; 265 5; 
266 2; 267 8; 268 3; 269 10; 270 6; 
271 30; 272 10; 273 32; 274 10; 275 12; 
276 2; 277 10; 278 3; 279 9; 280 3; 
281 7; 282 3; 283 8; 285 197; 286 57; 
287 41; 288 11; 289 27; 290 7; 291 12; 
292 38; 293 28; 294 10; 295 9; 296 4; 
297 5; 298 4; 299 30; 300 11; 301 25; 
302 9; 303 36; 305 477; 306 135; 307 48; 
308 12; 309 4; 310 4; 311 7; 312 3; 
313 10; 314 4; 315 9; 316 3; 317 8; 
318 39; 319 33; 320 9; 321 5; 322 2; 
323 2; 324 3; 325 5; 327 561; 328 183; 
329 61; 330 13; 331 48; 332 16; 333 15; 
334 24; 335 16; 336 7; 337 2; 338 1; 
339 2; 340 1; 341 5; 342 2; 343 10; 
344 62; 345 56; 346 17; 347 13; 348 4; 
349 5; 350 2; 351 2; 353 2; 355 5; 
356 3; 357 8; 358 7; 359 7; 361 25; 
362 8; 363 10; 364 4; 365 4; 366 2; 
369 9; 370 15; 372 18; 373 7; 374 2; 
375 8; 376 5; 377 7; 378 3; 379 13; 
380 6; 381 4; 382 2; 383 8; 384 10; 
386 5; 387 26; 388 3; 389 2; 390 2; 
391 2; 392 2; 393 8; 394 24; 395 9; 
396 6; 397 18; 398 6; 400 4; 403 3; 
404 2; 405 2; 410 20; 411 16; 412 51; 
414 19; 415 6; 417 86; 419 356; 420 138; 
422 52; 423 11; 430 7; 432 3; 433 2; 
434 2; 435 6; 445 3; 446 2; 449 2; 
466 22; 468 4; 488 10; 489 5; 490 3; 
503 24; 504 11; 505 5; 506 2; 508 2; 
509 3; 578 45; 579 24; 580 11; 581 2; 
593 619; 594 363; 595 171; 596 51; 597 14; 
598 2; 
