Name: CP 47,497 (C7 analog) di-TMS-derivative
InChIKey: KGZAPRJULXAJRJ-LADGPHEKSA-N
Formula: C27H50O2Si2
MW: 462
ExactMass: 462.334934
CASNO: 999533027
ID: 2937
Comment: Spectrum courtesy of Tom Gluodenis at Agilent Technologies
Num Peaks: 325
60 3; 61 9; 62 1; 63 1; 65 1; 
66 1; 69 4; 71 33; 73 314; 74 33; 
75 103; 76 8; 77 6; 78 1; 79 12; 
81 51; 82 1; 85 21; 86 2; 87 1; 
88 1; 89 1; 90 1; 91 9; 92 1; 
93 1; 95 1; 99 1; 100 1; 101 18; 
102 2; 103 4; 104 1; 105 4; 106 1; 
107 1; 113 1; 115 11; 116 10; 117 7; 
118 2; 119 3; 120 1; 121 1; 127 4; 
128 9; 129 24; 130 4; 131 11; 132 2; 
133 8; 134 1; 135 4; 138 1; 139 1; 
141 7; 142 4; 143 10; 144 2; 145 4; 
146 1; 147 2; 148 1; 149 6; 151 9; 
152 1; 153 3; 154 3; 155 9; 156 2; 
157 4; 158 1; 159 3; 160 1; 161 10; 
162 2; 163 9; 164 1; 165 5; 166 1; 
167 4; 168 2; 169 10; 170 4; 171 5; 
172 2; 173 3; 174 2; 175 11; 176 3; 
177 20; 178 3; 179 19; 180 3; 181 6; 
182 2; 183 2; 184 1; 185 4; 186 1; 
187 7; 188 2; 189 15; 190 4; 191 19; 
192 4; 193 9; 194 1; 195 2; 196 1; 
197 3; 198 1; 199 3; 200 1; 201 11; 
202 4; 203 23; 204 9; 205 44; 206 9; 
207 20; 208 4; 209 2; 210 1; 211 1; 
212 1; 213 3; 214 2; 215 8; 216 5; 
217 21; 218 10; 219 30; 220 27; 224 3; 
225 1; 226 1; 227 2; 228 1; 229 5; 
230 3; 231 14; 232 8; 233 67; 234 15; 
235 5; 236 1; 237 1; 238 1; 239 1; 
240 1; 241 1; 242 1; 243 4; 244 3; 
245 24; 246 9; 247 10; 248 2; 249 1; 
250 1; 251 1; 252 1; 253 5; 254 1; 
255 2; 256 1; 257 4; 258 2; 259 13; 
260 4; 261 9; 262 1; 263 2; 264 1; 
266 1; 269 1; 270 1; 271 4; 272 2; 
273 8; 274 3; 275 7; 277 1; 278 1; 
279 1; 280 1; 283 1; 284 1; 285 2; 
287 97; 288 40; 289 96; 290 23; 291 7; 
292 2; 293 2; 294 1; 297 1; 299 1; 
300 1; 301 2; 302 1; 303 17; 304 5; 
305 20; 306 5; 307 2; 308 1; 309 1; 
310 1; 312 1; 313 1; 314 1; 315 1; 
316 1; 317 1; 318 2; 319 2; 320 1; 
321 2; 322 1; 324 1; 327 1; 329 2; 
330 1; 331 1; 332 1; 333 2; 334 3; 
335 3; 336 1; 337 1; 338 1; 342 1; 
343 1; 344 1; 345 1; 346 1; 347 1; 
348 1; 349 6; 350 2; 351 1; 352 1; 
353 1; 354 1; 355 1; 356 1; 357 1; 
358 2; 359 5; 360 2; 361 2; 363 11; 
364 3; 365 1; 366 1; 367 1; 368 1; 
369 1; 370 1; 371 4; 372 9; 373 6; 
374 2; 375 1; 377 999; 378 400; 379 167; 
380 38; 381 7; 382 1; 384 1; 385 1; 
388 1; 389 1; 390 1; 391 3; 392 1; 
393 1; 394 1; 395 1; 396 1; 397 1; 
400 1; 401 1; 402 1; 403 1; 405 1; 
406 1; 407 1; 408 1; 415 1; 417 1; 
418 1; 419 21; 421 8; 422 1; 423 1; 
429 1; 433 1; 434 1; 439 1; 442 1; 
444 1; 446 1; 448 17; 449 2; 450 1; 
451 1; 454 1; 459 1; 461 1; 462 323; 
463 138; 464 52; 466 12; 467 2; 469 1; 
471 1; 472 1; 473 1; 474 1; 475 1; 
