Name: Ecgonine diTMS Derivative
InChIKey: ARJVVXRHOLBHAX-UHFFFAOYSA-N
Formula: C15H31NO3Si2
MW: 329
ExactMass: 329.184246
CASNO: 0
ID: 2943
Comment: DEA SFL1
Num Peaks: 160
39 8; 40 6; 41 40; 42 17; 43 33; 
44 33; 45 129; 46 7; 47 19; 53 17; 
54 11; 55 35; 56 7; 57 14; 58 25; 
59 170; 60 16; 61 20; 65 7; 66 10; 
67 21; 68 107; 69 32; 70 11; 71 10; 
72 35; 73 926; 74 86; 75 128; 76 7; 
77 18; 78 5; 79 19; 80 37; 81 35; 
82 113; 83 68; 84 16; 85 18; 86 9; 
89 155; 90 14; 91 32; 92 4; 93 10; 
94 22; 95 7; 96 29; 97 27; 98 13; 
99 24; 100 252; 101 53; 102 16; 103 12; 
105 7; 106 17; 107 7; 108 95; 109 17; 
110 8; 111 10; 112 8; 113 126; 114 41; 
115 32; 116 11; 117 15; 118 11; 119 15; 
122 5; 124 20; 125 4; 126 85; 127 32; 
128 14; 129 15; 131 12; 132 5; 133 71; 
134 12; 135 9; 136 86; 137 12; 138 15; 
139 33; 140 515; 141 999; 142 213; 143 62; 
144 9; 147 84; 148 18; 149 9; 150 4; 
152 97; 153 18; 154 360; 155 344; 156 94; 
157 26; 158 10; 159 43; 160 5; 163 20; 
164 5; 165 5; 166 16; 167 4; 168 8; 
169 7; 170 9; 171 21; 172 15; 173 10; 
175 12; 180 16; 181 6; 182 20; 183 5; 
184 12; 185 7; 186 7; 190 5; 196 7; 
198 39; 199 9; 200 4; 201 5; 208 6; 
210 25; 211 5; 212 14; 213 51; 214 23; 
215 6; 216 6; 224 17; 238 4; 240 50; 
241 8; 242 16; 245 26; 246 5; 247 5; 
256 18; 270 30; 271 8; 272 5; 286 7; 
298 28; 299 6; 300 12; 314 180; 315 52; 
316 19; 317 5; 328 6; 329 13; 330 5; 
