Name: GHB BSTFA Derivative
InChIKey: JQUWWJZPEOMMSB-UHFFFAOYSA-N
Formula: C10H24O3Si2
MW: 248
ExactMass: 248.126398
CASNO: 502852
ID: 2944
Comment: DEA SCL / LOT#88H5237
Num Peaks: 91
41 20; 42 5; 43 14; 44 9; 45 43; 
46 3; 47 17; 51 1; 52 1; 53 1; 
55 9; 56 8; 57 6; 58 16; 59 35; 
60 6; 61 19; 62 1; 66 14; 67 2; 
68 1; 69 23; 70 3; 71 3; 72 11; 
73 224; 74 23; 75 130; 76 9; 77 10; 
78 1; 79 1; 81 2; 83 1; 85 11; 
86 2; 87 4; 88 8; 89 3; 90 1; 
91 1; 93 1; 98 1; 99 17; 100 2; 
101 23; 102 3; 103 30; 104 3; 105 4; 
109 16; 113 1; 115 16; 116 14; 117 175; 
118 16; 119 10; 120 1; 129 19; 130 12; 
131 17; 132 9; 133 41; 134 5; 135 3; 
143 63; 144 6; 145 6; 147 999; 148 143; 
149 74; 150 6; 151 2; 157 2; 158 4; 
159 7; 160 1; 163 3; 189 1; 191 7; 
192 1; 204 52; 205 10; 206 3; 217 2; 
218 2; 231 1; 233 197; 234 37; 235 14; 
236 1; 
