Name: Lysergic acid di-TMS derivative
InChIKey: DJCSEVURFAVSTM-UHFFFAOYSA-N
Formula: C22H32N2O2Si2
MW: 412
ExactMass: 412.200232
CASNO: 0
ID: 2945
Comment: ENFSI / NFI/ Koch-Light 32747, derivatised
Num Peaks: 247
40 1; 41 1; 42 20; 43 14; 44 23; 
45 79; 46 5; 47 8; 53 2; 55 13; 
56 2; 57 6; 58 7; 59 24; 60 2; 
61 4; 67 1; 68 1; 69 1; 70 2; 
71 2; 73 717; 74 64; 75 66; 76 4; 
77 3; 82 1; 83 1; 84 3; 85 2; 
87 1; 88 1; 89 1; 91 1; 93 1; 
94 2; 95 1; 96 1; 97 1; 98 1; 
100 1; 101 1; 102 2; 103 3; 105 1; 
107 2; 110 1; 111 1; 113 1; 115 4; 
116 1; 117 5; 118 2; 119 1; 125 2; 
126 5; 127 6; 128 3; 129 23; 130 2; 
131 2; 132 1; 133 2; 138 1; 139 10; 
140 5; 141 2; 142 1; 143 1; 145 1; 
146 2; 147 10; 148 1; 149 1; 150 5; 
151 25; 152 36; 153 19; 154 18; 155 7; 
156 2; 161 1; 162 1; 163 3; 164 7; 
165 19; 166 10; 167 16; 168 10; 169 7; 
170 5; 171 1; 177 24; 178 34; 179 29; 
180 26; 181 15; 182 5; 183 3; 184 4; 
185 1; 186 1; 188 1; 189 1; 190 9; 
191 16; 192 20; 193 17; 194 18; 195 15; 
196 8; 197 2; 198 3; 199 2; 200 2; 
201 1; 202 2; 203 3; 204 9; 205 42; 
206 45; 207 62; 208 20; 209 25; 210 17; 
211 4; 212 2; 214 1; 216 1; 217 2; 
218 5; 219 23; 220 40; 221 67; 222 24; 
223 12; 224 13; 225 7; 226 51; 227 14; 
228 4; 230 1; 231 1; 232 1; 233 4; 
234 5; 235 5; 236 21; 237 17; 238 9; 
239 33; 240 15; 241 3; 242 1; 245 1; 
246 1; 247 2; 248 5; 249 8; 250 50; 
251 86; 252 120; 253 68; 254 22; 255 9; 
256 2; 260 1; 261 2; 262 7; 263 19; 
264 42; 265 19; 266 13; 267 34; 268 48; 
269 13; 270 4; 275 3; 276 4; 277 27; 
278 40; 279 350; 280 122; 281 42; 282 10; 
283 2; 284 1; 290 2; 291 7; 292 24; 
293 196; 294 72; 295 142; 296 38; 297 10; 
298 2; 307 6; 308 3; 309 3; 310 5; 
311 1; 312 1; 321 5; 322 4; 323 4; 
324 3; 325 1; 326 2; 327 1; 336 2; 
337 3; 338 5; 339 13; 340 6; 341 5; 
342 2; 351 1; 352 6; 353 7; 354 199; 
355 58; 356 23; 357 4; 366 1; 367 1; 
368 28; 369 24; 370 8; 371 2; 380 1; 
381 2; 382 3; 383 1; 395 1; 396 3; 
397 34; 398 10; 399 4; 408 1; 409 4; 
410 5; 411 70; 412 999; 413 341; 414 136; 
415 30; 416 4; 
