Name: Methyl Ecgonine TMS Derivative
InChIKey: ZOZZIPWQUVUYGY-UHFFFAOYSA-N
Formula: C13H25NO3Si
MW: 271
ExactMass: 271.16037
CASNO: 0
ID: 2949
Comment: DEA SFL1
Num Peaks: 104
39 20; 40 8; 41 47; 42 200; 43 26; 
44 39; 45 63; 47 16; 51 5; 53 30; 
54 22; 55 83; 56 35; 57 47; 58 19; 
59 99; 60 5; 61 15; 65 18; 66 14; 
67 40; 68 57; 69 21; 70 25; 71 8; 
72 5; 73 164; 74 14; 75 61; 76 5; 
77 21; 78 11; 79 16; 80 25; 81 75; 
82 999; 83 893; 84 120; 85 18; 89 82; 
90 8; 91 22; 92 6; 93 21; 94 215; 
95 33; 96 733; 97 414; 98 36; 99 10; 
100 15; 101 11; 103 6; 105 5; 106 8; 
107 9; 108 21; 109 5; 110 9; 111 6; 
114 13; 115 7; 119 6; 120 8; 122 39; 
123 9; 124 26; 127 5; 129 7; 132 7; 
133 6; 136 5; 138 6; 140 20; 143 8; 
150 6; 152 24; 154 21; 155 92; 156 15; 
158 5; 159 24; 166 7; 169 7; 170 6; 
171 9; 172 7; 175 27; 180 7; 181 5; 
182 85; 183 13; 184 24; 185 6; 190 6; 
198 11; 212 31; 213 6; 240 39; 241 9; 
242 9; 256 17; 271 35; 272 9; 
