Name: Methcathinone TPC Derivative
InChIKey: DFZAHEORACOPHZ-UHFFFAOYSA-N
Formula: C17H19F3N2O3
MW: 356
ExactMass: 356.134777
CASNO: 0
ID: 2950
Comment: DEA SFL1
Num Peaks: 114
38 1; 39 11; 40 4; 41 45; 42 64; 
43 16; 44 2; 47 2; 50 11; 51 41; 
52 4; 53 24; 54 8; 55 19; 56 35; 
57 27; 58 721; 59 27; 63 1; 64 1; 
65 1; 66 2; 67 7; 68 22; 69 112; 
70 21; 71 30; 72 1; 73 4; 74 3; 
75 2; 76 7; 77 140; 78 22; 79 9; 
80 1; 81 1; 82 1; 83 1; 84 2; 
86 2; 89 3; 90 1; 91 17; 92 2; 
94 5; 95 1; 96 70; 97 11; 98 20; 
99 1; 102 1; 103 7; 104 4; 105 121; 
106 11; 107 1; 109 4; 110 3; 111 1; 
112 3; 114 3; 115 3; 116 6; 117 1; 
118 2; 119 1; 122 1; 124 2; 125 1; 
126 11; 127 1; 128 11; 129 1; 130 4; 
131 31; 132 4; 133 5; 134 4; 136 1; 
137 4; 138 2; 139 7; 144 1; 145 1; 
146 40; 147 13; 148 6; 149 4; 154 11; 
155 1; 162 6; 163 1; 164 8; 166 999; 
167 74; 168 4; 190 11; 191 1; 192 1; 
193 3; 194 78; 195 6; 218 1; 223 1; 
234 2; 251 567; 252 67; 253 6; 271 20; 
272 3; 287 1; 356 18; 357 4; 
