Name: Levo-.alpha.-acetylmethadol
Synon: LAAM
Synon: Levacetylmethadol
Synon: Levomethadyl acetate
Synon: Orlaam
Synon: (1S,4S)-(6-dimethylamino-4,4-diphenyl-heptan-3-yl) acetate
InChIKey: XBMIVRRWGCYBTQ-UHFFFAOYSA-N
Formula: C23H31NO2
MW: 353
ExactMass: 353.23548
CASNO: 1477403
ID: 2957
Comment: DEA SWL
Num Peaks: 98
41 4; 42 17; 43 102; 44 19; 45 6; 
46 2; 51 2; 55 2; 56 23; 57 12; 
58 8; 59 1; 63 1; 65 2; 70 19; 
71 18; 72 999; 73 46; 74 1; 77 8; 
78 2; 79 2; 84 2; 85 9; 86 9; 
87 1; 89 2; 91 39; 92 2; 101 2; 
102 3; 103 5; 104 1; 105 15; 107 1; 
115 21; 116 3; 117 3; 118 1; 119 1; 
127 4; 128 10; 129 23; 130 4; 131 3; 
139 2; 141 1; 143 1; 144 1; 146 1; 
147 8; 148 1; 151 2; 152 9; 153 1; 
158 1; 160 3; 163 2; 164 3; 165 30; 
166 6; 167 6; 171 1; 176 3; 177 3; 
178 24; 179 13; 180 3; 189 4; 190 2; 
191 8; 192 4; 193 5; 194 1; 202 2; 
203 1; 204 1; 205 1; 207 9; 208 2; 
219 1; 222 1; 223 1; 224 1; 225 24; 
226 4; 236 2; 250 1; 253 2; 265 6; 
266 1; 278 1; 293 1; 294 4; 295 1; 
310 4; 338 6; 339 1; 
