Name: 1,2-propanedione,1-(3,4-methylenedioxy)phenyl-
InChIKey: FGXKZQWZZVCYBF-UHFFFAOYSA-N
Formula: C10H8O4
MW: 192
ExactMass: 192.042258
CASNO: 0
ID: 2962
Comment: ENFSI
Num Peaks: 48
37 10; 38 10; 39 34; 40 1; 41 2; 
42 10; 43 82; 44 2; 49 4; 50 20; 
51 21; 52 2; 53 30; 54 1; 58 1; 
60 4; 61 24; 62 85; 63 190; 64 20; 
65 245; 66 16; 73 2; 74 21; 75 5; 
76 2; 77 4; 78 1; 79 9; 89 1; 
90 3; 91 78; 92 11; 93 1; 107 1; 
119 11; 120 19; 121 349; 122 29; 123 2; 
133 1; 135 1; 147 1; 149 999; 150 100; 
151 10; 192 50; 193 6; 
