Name: N-ethyl-2,3-methylenedioxyphenethylamine TMS derivative
InChIKey: RQQGCUKDKVPNKU-UHFFFAOYSA-N
Formula: C14H23NO2Si
MW: 265
ExactMass: 265.149805
CASNO: 0
ID: 2967
Comment: ENFSI / NFI/13.026/TV_aug2005, derivatised
Num Peaks: 117
38 1; 39 7; 40 1; 41 2; 42 17; 
43 19; 44 11; 45 60; 46 4; 47 2; 
50 4; 51 30; 52 4; 53 5; 54 2; 
55 6; 56 46; 57 8; 58 52; 59 56; 
60 4; 61 3; 62 1; 63 6; 64 2; 
65 18; 66 2; 67 1; 68 1; 69 1; 
70 3; 71 3; 73 591; 74 53; 75 29; 
76 4; 77 42; 78 10; 79 12; 80 1; 
81 2; 82 2; 83 2; 84 1; 85 1; 
86 16; 87 6; 89 11; 90 4; 91 32; 
92 4; 93 2; 95 2; 96 1; 100 4; 
101 4; 102 5; 103 5; 104 3; 105 13; 
106 2; 107 3; 109 2; 114 7; 115 3; 
116 2; 118 9; 119 7; 120 2; 121 3; 
128 2; 130 999; 131 125; 132 41; 133 5; 
134 2; 135 31; 136 4; 137 1; 145 1; 
146 2; 147 5; 148 6; 149 15; 150 2; 
151 1; 160 1; 161 3; 162 2; 163 6; 
164 1; 165 1; 166 1; 175 1; 176 4; 
177 3; 178 1; 179 5; 180 1; 190 3; 
191 19; 192 6; 193 9; 194 1; 204 1; 
205 1; 206 1; 218 2; 220 6; 221 2; 
222 1; 234 2; 248 1; 250 19; 251 3; 
252 1; 264 2; 
