Name: Norcocaine TMS Derivative
InChIKey: PYMCJJKQPSZSEU-UHFFFAOYSA-N
Formula: C19H27NO4Si
MW: 361
ExactMass: 361.170935
CASNO: 0
ID: 2968
Comment: DEA SFL1
Num Peaks: 172
39 20; 40 8; 41 74; 42 16; 43 34; 
44 40; 45 122; 46 9; 47 6; 50 22; 
51 100; 52 14; 53 28; 54 20; 55 45; 
56 11; 57 10; 58 20; 59 158; 60 13; 
61 16; 62 3; 63 4; 65 15; 66 6; 
67 40; 68 234; 69 47; 70 14; 71 14; 
72 32; 73 999; 74 93; 75 96; 76 23; 
77 450; 78 46; 79 50; 80 87; 81 66; 
82 64; 83 28; 84 12; 85 14; 86 7; 
87 3; 88 4; 89 138; 90 12; 91 54; 
92 9; 93 23; 94 23; 95 11; 96 19; 
97 14; 98 12; 99 17; 100 136; 101 26; 
102 12; 103 9; 105 748; 106 101; 107 26; 
108 249; 109 29; 110 11; 111 12; 113 58; 
114 13; 115 22; 116 7; 117 6; 118 18; 
119 15; 120 5; 121 6; 122 13; 123 4; 
124 23; 125 7; 126 34; 127 12; 128 11; 
129 9; 131 11; 132 3; 133 4; 134 16; 
135 56; 136 331; 137 36; 138 22; 139 67; 
140 839; 141 361; 142 75; 143 18; 144 5; 
146 5; 148 2; 149 2; 150 7; 151 8; 
152 257; 153 40; 154 130; 155 95; 156 37; 
157 13; 158 7; 159 9; 164 6; 165 6; 
166 45; 167 28; 168 124; 169 14; 170 5; 
171 3; 172 9; 173 5; 178 5; 179 380; 
180 92; 181 34; 182 17; 183 3; 184 7; 
191 3; 192 5; 193 8; 194 4; 195 3; 
196 8; 197 3; 198 14; 206 4; 207 10; 
208 10; 209 4; 210 49; 211 9; 212 11; 
213 18; 214 3; 222 2; 224 108; 225 16; 
226 8; 238 14; 239 18; 240 591; 241 113; 
242 32; 243 4; 256 44; 257 8; 258 3; 
281 5; 288 4; 289 5; 302 3; 330 24; 
331 6; 346 123; 347 32; 348 8; 361 53; 
362 13; 363 5; 
