Name: Pyridine
InChIKey: JUJWROOIHBZHMG-UHFFFAOYSA-N
Formula: C5H5N
MW: 79
ExactMass: 79.042199
CASNO: 110861
ID: 2970
Comment: DEA SWL / unverified from sample
Num Peaks: 31
13 1; 25 8; 26 75; 27 24; 28 29; 
36 6; 37 29; 38 40; 39 85; 40 11; 
41 2; 48 8; 49 54; 50 282; 51 372; 
52 765; 53 79; 54 2; 60 1; 61 1; 
62 2; 63 1; 64 4; 74 3; 75 23; 
76 17; 77 4; 78 117; 79 999; 80 59; 
81 1; 
