Name: Psilocybin tri-TMS derivative
Synon: Psilocybine tri-TMS derivative
InChIKey: HBCOQPFYIUPMAE-UHFFFAOYSA-N
Formula: C21H41N2O4PSi3
MW: 500
ExactMass: 500.211174
CASNO: 0
ID: 2971
Comment: ENFSI / NFI/Sandoz batch 8001, derivatised
Num Peaks: 220
41 2; 42 21; 43 13; 44 10; 45 50; 
46 4; 47 2; 55 2; 56 4; 58 999; 
59 41; 60 1; 61 1; 69 1; 70 2; 
71 2; 73 339; 74 28; 75 20; 76 1; 
77 4; 83 1; 84 1; 85 1; 88 1; 
89 1; 91 1; 101 4; 102 4; 103 3; 
104 1; 105 1; 107 1; 113 1; 114 3; 
115 12; 116 2; 117 5; 118 1; 119 2; 
121 3; 127 1; 128 6; 129 5; 130 4; 
131 5; 132 2; 133 19; 134 3; 135 9; 
136 1; 137 2; 140 2; 141 1; 142 4; 
143 5; 144 5; 145 5; 146 2; 147 21; 
148 3; 149 3; 151 2; 153 1; 154 3; 
155 2; 156 5; 157 2; 158 2; 159 17; 
160 5; 161 1; 165 1; 167 1; 168 2; 
169 5; 170 9; 171 3; 172 5; 173 2; 
174 5; 175 1; 176 1; 177 1; 179 1; 
181 4; 182 3; 183 4; 184 11; 185 5; 
186 33; 187 7; 188 4; 189 1; 191 1; 
193 2; 194 1; 195 11; 196 2; 197 3; 
198 5; 199 8; 200 11; 201 16; 202 11; 
203 2; 204 1; 207 4; 208 1; 209 2; 
211 28; 212 6; 213 4; 214 4; 215 6; 
216 8; 217 3; 218 4; 219 1; 225 6; 
226 2; 227 4; 228 2; 229 3; 230 4; 
231 2; 232 3; 233 1; 234 1; 241 1; 
242 2; 243 2; 244 3; 246 2; 248 1; 
252 1; 255 1; 256 3; 257 5; 258 4; 
259 3; 260 3; 261 1; 262 1; 264 2; 
270 1; 272 1; 273 1; 274 4; 275 3; 
276 1; 277 1; 278 2; 279 1; 288 3; 
289 1; 290 3; 291 1; 292 1; 294 1; 
299 4; 300 1; 302 1; 307 1; 308 1; 
309 3; 322 1; 324 1; 326 3; 336 2; 
337 1; 338 11; 339 4; 340 2; 341 1; 
350 3; 351 1; 352 5; 353 1; 354 2; 
355 1; 367 1; 368 1; 370 1; 383 3; 
384 1; 385 1; 396 1; 398 2; 410 1; 
411 1; 412 6; 413 4; 414 3; 424 4; 
425 2; 426 8; 427 8; 428 4; 429 2; 
430 1; 440 18; 442 221; 443 92; 444 41; 
445 11; 446 2; 455 175; 456 69; 457 40; 
458 12; 459 3; 471 2; 472 1; 485 30; 
486 11; 487 5; 488 1; 498 1; 499 2; 
