Name: Pseudoephedrine TPC Derivative
InChIKey: NZQHUQQFHHSWTK-UHFFFAOYSA-N
Formula: C17H21F3N2O3
MW: 358
ExactMass: 358.150427
CASNO: 0
ID: 2972
Comment: DEA SFL1
Num Peaks: 131
38 2; 39 16; 40 4; 41 50; 42 82; 
43 44; 44 6; 45 1; 47 2; 50 10; 
51 25; 52 8; 53 28; 54 9; 55 22; 
56 43; 57 61; 58 804; 59 32; 60 6; 
62 1; 63 4; 64 2; 65 6; 66 3; 
67 8; 68 26; 69 111; 70 39; 71 33; 
72 2; 73 4; 74 3; 75 2; 76 3; 
77 101; 78 27; 79 70; 80 6; 81 2; 
82 2; 83 1; 84 7; 85 3; 86 27; 
87 2; 88 2; 89 4; 90 2; 91 36; 
92 4; 93 3; 94 6; 95 2; 96 70; 
97 13; 98 29; 99 3; 102 1; 103 4; 
104 3; 105 39; 106 20; 107 32; 108 3; 
109 7; 110 3; 111 3; 112 11; 113 2; 
114 6; 115 17; 116 10; 117 23; 118 13; 
119 3; 122 1; 123 1; 124 3; 125 1; 
126 15; 127 2; 128 11; 129 2; 130 2; 
131 3; 132 3; 133 14; 134 5; 135 3; 
136 2; 137 6; 138 3; 139 37; 140 3; 
141 1; 144 1; 146 5; 147 10; 148 52; 
149 11; 150 1; 154 9; 155 9; 156 1; 
159 1; 164 8; 165 12; 166 999; 167 96; 
168 7; 174 1; 183 4; 186 2; 192 6; 
193 49; 194 75; 195 6; 196 1; 202 1; 
207 1; 223 2; 224 6; 225 3; 251 206; 
252 415; 253 49; 254 4; 273 11; 274 2; 
277 1; 
