Name: Norephedrine TPC Derivative
InChIKey: BAIZLVOLZPKUCN-UHFFFAOYSA-N
Formula: C16H19F3N2O3
MW: 344
ExactMass: 344.134777
CASNO: 0
ID: 2973
Comment: DEA SFL1
Num Peaks: 132
38 2; 39 19; 40 5; 41 52; 42 26; 
43 49; 44 399; 45 11; 46 2; 47 3; 
49 1; 50 9; 51 27; 52 9; 53 31; 
54 13; 55 28; 56 9; 57 16; 58 2; 
62 1; 63 5; 64 3; 65 5; 66 3; 
67 8; 68 27; 69 118; 70 87; 71 36; 
72 1; 73 5; 74 3; 75 2; 76 4; 
77 121; 78 32; 79 99; 80 8; 81 4; 
82 4; 83 3; 84 4; 85 2; 86 1; 
89 6; 90 3; 91 35; 92 5; 93 3; 
94 6; 95 4; 96 70; 97 16; 98 72; 
99 7; 100 1; 102 1; 103 4; 104 3; 
105 39; 106 17; 107 57; 108 6; 109 4; 
110 3; 111 2; 112 8; 113 2; 114 4; 
115 16; 116 10; 117 20; 118 11; 119 3; 
121 1; 122 1; 123 2; 124 3; 125 4; 
126 19; 127 2; 128 11; 129 2; 130 1; 
131 1; 132 3; 133 14; 134 28; 135 4; 
136 1; 137 3; 138 5; 139 87; 140 6; 
141 3; 142 4; 146 1; 147 8; 148 8; 
149 7; 150 8; 151 3; 152 1; 160 7; 
161 1; 162 1; 164 5; 165 5; 166 999; 
167 160; 168 13; 169 5; 170 1; 175 2; 
177 1; 186 1; 193 8; 194 246; 195 22; 
196 2; 209 2; 210 15; 211 3; 220 3; 
237 145; 238 537; 239 59; 240 5; 241 1; 
259 11; 260 2; 
