Name: N-Hydroxy-MDA TPC Derivative
InChIKey: LXJOYTQBLIMJAJ-UHFFFAOYSA-N
Formula: C17H19F3N2O5
MW: 388
ExactMass: 388.124607
CASNO: 0
ID: 2974
Comment: DEA SFL1
Num Peaks: 91
36 4; 38 5; 39 17; 40 3; 41 39; 
42 16; 43 17; 44 7; 47 2; 50 9; 
51 35; 52 9; 53 26; 54 6; 55 14; 
56 6; 57 5; 60 2; 63 9; 64 2; 
65 13; 66 5; 67 8; 68 21; 69 83; 
70 27; 71 26; 73 8; 74 1; 75 1; 
76 8; 77 84; 78 24; 79 24; 80 1; 
81 6; 82 2; 84 4; 85 1; 89 5; 
91 19; 92 1; 93 1; 94 7; 95 3; 
96 54; 97 6; 98 19; 103 15; 104 15; 
105 44; 106 9; 107 1; 109 4; 111 1; 
112 1; 115 3; 116 4; 118 3; 121 7; 
122 5; 126 11; 128 11; 131 9; 132 4; 
133 13; 134 5; 135 249; 136 75; 137 12; 
139 13; 147 12; 148 10; 149 9; 161 10; 
162 567; 163 75; 164 7; 165 1; 166 999; 
167 76; 168 5; 186 5; 194 157; 195 14; 
205 8; 207 2; 253 16; 281 1; 388 51; 
389 9; 
