Name: N-Hydroxy-MDA TMS Derivative
Synon: N-hydroxy-3,4-methylenedioxyamphetamine TMS derivative
InChIKey: MXAFNSUVVHTUMH-UHFFFAOYSA-N
Formula: C13H21NO3Si
MW: 267
ExactMass: 267.12907
CASNO: 0
ID: 2975
Comment: DEA WRL / N-HYDROXY-METHYLENEDIOXYAMPHETAMINE-TMS Derivative.SILYLATED with BSTFA
Num Peaks: 128
42 105; 43 45; 44 39; 45 125; 46 2; 
47 134; 48 7; 49 3; 50 25; 51 163; 
52 27; 53 21; 54 5; 55 11; 56 12; 
57 5; 58 11; 59 85; 60 15; 61 46; 
62 8; 63 18; 64 6; 65 26; 66 5; 
67 4; 68 1; 69 2; 70 3; 71 1; 
73 95; 75 999; 76 99; 77 300; 78 66; 
79 75; 80 9; 81 1; 82 1; 83 1; 
84 1; 85 1; 86 3; 87 2; 88 3; 
89 29; 90 9; 91 18; 92 5; 93 5; 
96 1; 98 1; 99 1; 100 6; 101 1; 
102 36; 103 22; 104 25; 105 78; 106 25; 
107 8; 114 1; 116 993; 117 101; 118 71; 
119 9; 120 8; 121 9; 122 4; 123 1; 
126 6; 130 3; 132 903; 133 111; 134 55; 
135 530; 136 338; 137 31; 138 3; 145 2; 
146 4; 147 7; 148 9; 149 8; 150 2; 
151 3; 160 6; 161 10; 162 16; 163 14; 
164 3; 165 2; 167 1; 174 3; 175 3; 
176 2; 177 10; 178 13; 179 29; 180 4; 
181 5; 182 1; 191 1; 192 2; 193 11; 
194 10; 195 4; 196 1; 204 1; 205 22; 
206 5; 207 10; 208 1; 209 7; 220 2; 
222 3; 223 1; 235 72; 236 15; 237 9; 
238 2; 252 19; 253 3; 254 1; 265 1; 
266 1; 267 6; 268 1; 
