Name: 1-(3,4-methylenedioxyphenyl)-butan-1-one
InChIKey: GUUFGIXAPNRYKD-UHFFFAOYSA-N
Formula: C11H12O3
MW: 192
ExactMass: 192.078644
CASNO: 0
ID: 2977
Comment: ENFSI / PMK impurity (decomposition); Microgram, Vol. XXVI, No. 9, September 1993, pp 209-213
Num Peaks: 51
37 14; 38 14; 39 35; 40 7; 41 4; 
42 9; 43 98; 44 8; 49 6; 50 25; 
51 38; 52 4; 53 33; 60 6; 61 20; 
62 79; 63 160; 64 17; 65 218; 66 14; 
67 3; 73 2; 74 17; 75 7; 76 5; 
77 30; 78 4; 79 13; 89 2; 90 2; 
91 63; 92 10; 93 2; 105 7; 106 2; 
107 2; 119 9; 120 18; 121 302; 122 22; 
123 3; 135 119; 136 14; 147 3; 149 999; 
150 92; 151 9; 178 29; 179 3; 192 58; 
193 7; 
