Name: 1-(4-Methoxyphenyl)-2-propanone oxime
Synon: 2-Propanone, 1-(4-methoxyphenyl)-, oxime
InChIKey: XCAWVHHYSAGLPZ-DHZHZOJOSA-N
Formula: C10H13NO2
MW: 179
ExactMass: 179.094628
CASNO: 52271417
ID: 2978
Comment: ENFSI
Num Peaks: 67
38 20; 39 87; 40 80; 41 112; 42 157; 
43 24; 44 183; 45 24; 50 40; 51 126; 
52 95; 53 32; 55 15; 58 19; 60 16; 
62 22; 63 57; 64 30; 65 57; 66 17; 
74 12; 76 20; 77 249; 78 216; 79 56; 
80 13; 83 17; 85 15; 89 84; 90 41; 
91 164; 92 46; 93 14; 94 13; 102 14; 
103 27; 104 26; 105 29; 106 28; 107 159; 
108 38; 109 13; 115 12; 116 17; 117 17; 
118 33; 119 39; 120 100; 121 999; 122 394; 
123 36; 130 31; 131 74; 132 44; 133 20; 
135 46; 146 186; 147 138; 148 116; 149 26; 
160 12; 161 31; 162 145; 163 133; 164 15; 
179 250; 180 32; 
