Name: JWH-072
Synon: Naphthalen-1-yl(1-propyl-1H-indol-3-yl)methanone
InChIKey: IVLWWVXVWRIXSS-UHFFFAOYSA-N
Formula: C22H19NO
MW: 313
ExactMass: 313.146664
CASNO: 209414062
ID: 2982
Comment: Jason Nawyn
Num Peaks: 108
41 10; 43 17; 44 4; 51 3; 63 3; 
73 1; 74 2; 75 14; 76 9; 77 37; 
78 4; 87 1; 88 6; 89 46; 90 4; 
100 3; 101 36; 102 23; 103 9; 107 2; 
113 9; 114 12; 115 29; 116 139; 117 15; 
121 13; 126 56; 127 318; 128 93; 129 26; 
130 15; 136 4; 139 10; 141 10; 142 22; 
143 10; 144 353; 145 32; 146 1; 151 1; 
155 115; 156 17; 157 11; 158 6; 163 5; 
167 159; 168 20; 170 1; 184 3; 186 700; 
187 127; 188 9; 189 8; 200 3; 202 2; 
207 3; 212 3; 213 43; 214 29; 215 36; 
216 5; 224 3; 225 5; 226 19; 227 10; 
228 11; 229 5; 238 7; 239 14; 240 41; 
241 121; 242 61; 243 17; 251 4; 252 5; 
253 20; 254 127; 255 66; 256 98; 257 19; 
266 31; 267 44; 268 16; 269 57; 270 240; 
271 56; 272 4; 280 4; 281 5; 282 17; 
283 23; 284 606; 285 154; 286 23; 287 1; 
288 1; 294 27; 295 11; 296 446; 297 129; 
298 15; 299 2; 311 2; 312 452; 313 999; 
314 254; 315 19; 316 1; 
