Name: Reduced Triprolidine
InChIKey: QDMWQFIKYPJHGN-UHFFFAOYSA-N
Formula: C19H24N2
MW: 280
ExactMass: 280.193949
CASNO: 0
ID: 2983
Comment: DEA SWL / unverified from sample
Num Peaks: 111
40 2; 41 20; 42 82; 43 8; 44 2; 
50 2; 51 11; 52 6; 53 6; 54 10; 
55 50; 56 21; 57 6; 63 5; 64 1; 
65 10; 66 1; 67 2; 68 6; 69 14; 
70 12; 71 1; 75 1; 76 2; 77 12; 
78 18; 79 10; 80 5; 81 1; 82 6; 
83 1; 84 213; 85 15; 88 1; 89 6; 
90 5; 91 20; 92 5; 93 5; 94 2; 
96 13; 97 10; 98 165; 99 12; 101 1; 
102 4; 103 6; 104 6; 105 15; 106 8; 
113 1; 114 1; 115 19; 116 7; 117 32; 
118 20; 119 6; 120 1; 126 1; 127 5; 
128 8; 129 4; 130 3; 131 2; 132 1; 
133 1; 139 7; 140 6; 141 4; 142 2; 
143 4; 144 1; 147 5; 151 3; 152 11; 
153 4; 154 5; 155 1; 156 1; 161 1; 
164 1; 165 4; 166 15; 167 126; 168 50; 
169 5; 175 1; 177 1; 178 6; 179 5; 
180 52; 181 52; 182 243; 183 999; 184 143; 
185 9; 191 3; 192 4; 193 8; 194 22; 
195 5; 196 42; 197 6; 204 1; 206 3; 
207 3; 208 10; 209 3; 210 14; 211 2; 
280 3; 
