Name: Phthalimide
InChIKey: XKJCHHZQLQNZHY-UHFFFAOYSA-N
Formula: C8H5NO2
MW: 147
ExactMass: 147.032028
CASNO: 85416
ID: 2984
Comment: DEA SWL / unverified from sample
Num Peaks: 48
40 2; 41 1; 42 3; 43 36; 44 13; 
45 2; 46 29; 48 4; 49 45; 50 479; 
51 43; 52 47; 53 19; 54 1; 60 16; 
61 24; 62 25; 63 38; 64 30; 65 6; 
66 42; 70 14; 72 4; 73 64; 74 278; 
75 215; 76 999; 77 99; 78 4; 84 1; 
86 3; 87 2; 88 3; 90 37; 91 8; 
92 22; 99 2; 100 1; 101 3; 102 7; 
103 497; 104 748; 105 55; 106 4; 119 3; 
147 983; 148 87; 149 6; 
