Name: Oxcarbazepine
Synon: Trileptal
InChIKey: CTRLABGOLIVAIY-UHFFFAOYSA-N
Formula: C15H12N2O2
MW: 252
ExactMass: 252.089878
CASNO: 28721075
ID: 2988
Comment: DEA SWL / unverified from sample
Num Peaks: 71
40 3; 43 18; 44 88; 50 65; 51 93; 
52 32; 53 8; 62 28; 63 89; 64 43; 
65 27; 73 3; 74 24; 75 43; 76 91; 
77 135; 78 37; 87 12; 88 9; 89 120; 
90 65; 91 25; 92 4; 101 24; 102 35; 
103 16; 104 20; 105 8; 113 17; 114 12; 
115 22; 116 4; 125 13; 126 39; 127 69; 
128 62; 129 9; 130 3; 139 20; 140 28; 
141 4; 146 4; 150 24; 151 110; 152 271; 
153 81; 154 38; 164 14; 165 22; 166 21; 
167 19; 168 3; 177 38; 178 170; 179 204; 
180 999; 181 169; 182 16; 183 31; 190 3; 
192 11; 206 16; 207 131; 208 278; 209 700; 
210 104; 211 7; 235 37; 237 11; 252 401; 
253 63; 
