Name: Methylephedrine
Synon: (1R,2S)-2-(Dimethylamino)-1-phenyl-1-propanol
InChIKey: FMCGSUUBYTWNDP-UHFFFAOYSA-N
Formula: C11H17NO
MW: 179
ExactMass: 179.131014
CASNO: 552794
ID: 2991
Comment: DEA SWL
Num Peaks: 52
40 1; 41 6; 42 49; 43 10; 44 42; 
45 2; 46 1; 50 8; 51 24; 52 7; 
53 5; 54 4; 55 7; 56 44; 57 19; 
58 18; 62 1; 63 5; 64 1; 65 4; 
70 33; 72 999; 73 45; 74 3; 75 2; 
77 71; 78 19; 79 24; 80 1; 86 1; 
89 4; 90 1; 91 13; 92 1; 102 1; 
103 3; 105 20; 106 4; 107 4; 115 8; 
116 2; 117 6; 118 3; 119 1; 120 2; 
130 1; 131 1; 133 2; 134 1; 144 1; 
146 1; 148 1; 
