Name: Methylprednisolone (or breakdown product)
Synon: Medrol
Synon: 6.alpha.-Methylprednisolone
Synon: 1,4-Pregnadien-6.alpha.-methyl-11.beta.,17,21-triol-3,20-dione
InChIKey: VHRSUDSXCMQTMA-UHFFFAOYSA-N
Formula: C22H30O5
MW: 374
ExactMass: 374.209324
CASNO: 83432
ID: 2995
Comment: DEA SWL
Num Peaks: 186
40 12; 41 122; 42 15; 43 52; 44 6; 
45 3; 50 4; 51 17; 52 13; 53 53; 
54 9; 55 97; 56 7; 57 15; 59 1; 
63 7; 64 3; 65 40; 66 10; 67 59; 
68 18; 69 35; 70 10; 71 7; 73 1; 
75 2; 76 5; 77 93; 78 33; 79 81; 
80 13; 81 33; 82 7; 83 9; 84 2; 
85 3; 87 1; 89 10; 90 5; 91 241; 
92 29; 93 37; 94 10; 95 36; 96 8; 
97 37; 98 4; 99 3; 102 6; 103 28; 
104 9; 105 104; 106 40; 107 91; 108 30; 
109 37; 110 11; 111 5; 113 1; 115 69; 
116 23; 117 39; 118 8; 119 38; 120 14; 
121 217; 122 28; 123 45; 124 6; 125 2; 
126 1; 127 14; 128 41; 129 36; 130 14; 
131 32; 132 10; 133 51; 134 31; 135 372; 
136 999; 137 111; 138 9; 139 3; 141 19; 
142 14; 143 20; 144 12; 145 33; 146 12; 
147 42; 148 32; 149 37; 150 19; 151 6; 
152 10; 153 10; 154 5; 155 12; 156 7; 
157 16; 158 13; 159 38; 160 14; 161 38; 
162 7; 163 4; 164 1; 165 31; 166 8; 
167 7; 168 3; 169 8; 170 6; 171 14; 
172 8; 173 18; 174 12; 175 12; 176 2; 
177 2; 178 4; 179 12; 180 3; 181 5; 
182 3; 183 6; 184 3; 185 15; 186 6; 
187 7; 188 3; 191 2; 193 2; 194 2; 
195 5; 196 4; 197 8; 198 5; 199 7; 
200 4; 201 3; 202 1; 203 1; 205 1; 
206 2; 207 2; 208 1; 209 4; 210 4; 
211 8; 212 2; 213 4; 215 1; 221 4; 
223 7; 224 2; 225 7; 226 2; 227 3; 
228 1; 235 3; 236 2; 237 3; 238 3; 
239 7; 240 2; 241 2; 249 1; 251 1; 
252 1; 253 5; 254 3; 255 1; 263 5; 
264 1; 267 1; 268 1; 269 2; 271 1; 
278 1; 279 2; 281 5; 282 1; 296 1; 
314 4; 
