Name: Methyprylon
Synon: Noludar
Synon: (RS)-3,3-diethyl-5-methylpiperidine-2,4-dione
InChIKey: SIDLZWOQUZRBRU-UHFFFAOYSA-N
Formula: C10H17NO2
MW: 183
ExactMass: 183.125929
CASNO: 125644
ID: 2996
Comment: DEA SWL
Num Peaks: 81
40 23; 41 219; 42 95; 43 64; 44 22; 
45 3; 50 3; 51 9; 52 8; 53 59; 
54 29; 55 280; 56 72; 57 43; 58 26; 
59 2; 62 1; 63 2; 64 1; 65 10; 
66 7; 67 40; 68 18; 69 136; 70 48; 
71 22; 72 2; 77 9; 78 2; 79 9; 
80 8; 81 14; 82 12; 83 440; 84 44; 
85 49; 86 32; 87 2; 91 3; 92 1; 
93 2; 94 4; 95 7; 96 17; 97 74; 
98 309; 99 31; 100 3; 106 1; 107 2; 
108 2; 109 12; 110 8; 111 10; 112 87; 
113 7; 114 2; 122 2; 123 8; 124 4; 
125 30; 126 68; 127 18; 128 1; 136 1; 
138 6; 140 999; 141 84; 142 6; 150 6; 
151 1; 152 1; 154 81; 155 785; 156 74; 
157 5; 166 4; 168 39; 169 4; 183 7; 
184 2; 
