Name: Midazolam
Synon: Versed
Synon: 8-chloro-6-(2-fluorophenyl)-1-methyl-4H-imidazo[1,5-a][1,4]benzodiazepine
InChIKey: DDLIGBOFAVUZHB-UHFFFAOYSA-N
Formula: C18H13ClFN3
MW: 325
ExactMass: 325.078203
CASNO: 59467708
ID: 3000
Comment: DEA SWL / SWGDRUG Monograph available
Num Peaks: 247
40 11; 41 21; 42 27; 49 1; 50 16; 
51 19; 52 21; 53 14; 54 11; 55 1; 
57 8; 61 2; 62 11; 63 23; 64 9; 
65 3; 66 1; 67 10; 68 13; 69 7; 
70 4; 73 12; 74 30; 75 104; 76 18; 
77 19; 78 2; 79 1; 80 4; 81 15; 
82 2; 83 8; 84 5; 85 15; 86 12; 
87 22; 88 13; 89 18; 90 4; 91 6; 
92 2; 93 8; 94 19; 95 45; 96 7; 
97 42; 98 14; 99 20; 100 48; 101 60; 
102 44; 103 10; 104 2; 105 3; 106 6; 
107 16; 108 8; 109 25; 110 39; 111 74; 
112 20; 113 13; 114 17; 115 40; 116 12; 
117 7; 118 5; 119 2; 120 11; 121 23; 
122 18; 123 15; 124 38; 125 11; 126 17; 
127 33; 128 102; 129 18; 130 5; 131 8; 
132 3; 133 9; 134 9; 135 12; 136 64; 
137 35; 138 30; 139 11; 140 19; 141 28; 
142 77; 143 20; 144 16; 145 4; 146 5; 
147 6; 148 12; 149 16; 150 18; 151 12; 
152 20; 153 11; 154 27; 155 14; 156 7; 
157 11; 158 4; 160 1; 161 4; 162 28; 
163 143; 164 29; 165 48; 166 5; 167 8; 
168 53; 169 73; 170 15; 171 1; 174 6; 
175 22; 176 20; 177 22; 178 9; 179 12; 
180 14; 181 41; 182 21; 183 7; 184 2; 
186 1; 187 3; 188 12; 189 33; 190 6; 
191 16; 192 7; 193 9; 194 30; 195 36; 
196 13; 197 1; 199 4; 200 9; 201 20; 
202 12; 203 20; 204 7; 205 10; 206 9; 
207 8; 208 18; 209 6; 210 1; 213 1; 
214 1; 215 2; 216 4; 217 10; 218 3; 
219 11; 220 15; 221 41; 222 106; 223 24; 
224 2; 228 7; 229 8; 230 23; 231 5; 
232 11; 233 2; 234 4; 235 4; 236 3; 
237 2; 238 3; 239 2; 241 1; 242 7; 
246 1; 247 6; 248 2; 249 58; 250 10; 
251 1; 253 1; 254 1; 255 5; 256 20; 
257 26; 258 10; 259 7; 260 3; 261 4; 
262 2; 263 7; 264 2; 265 8; 266 1; 
267 1; 270 1; 272 5; 273 3; 274 11; 
275 12; 276 4; 277 2; 279 3; 281 3; 
282 1; 283 80; 284 19; 285 35; 286 7; 
287 2; 288 2; 289 1; 290 14; 291 1; 
292 2; 293 1; 295 1; 296 3; 297 118; 
298 31; 299 34; 300 14; 301 1; 304 4; 
305 1; 306 6; 307 2; 308 13; 309 4; 
310 999; 311 208; 312 340; 313 64; 314 1; 
323 1; 324 35; 325 212; 326 53; 327 64; 
328 15; 329 1; 
