Name: Moclobemide
Synon: 4-chloro-N-(2-morpholin-4-ylethyl)benzamide
Synon: Aurorix
Synon: Manerix
InChIKey: YHXISWVBGDMDLQ-UHFFFAOYSA-N
Formula: C13H17ClN2O2
MW: 268
ExactMass: 268.097855
CASNO: 71320779
ID: 3003
Comment: AAFS
Num Peaks: 60
39 1; 40 1; 41 9; 42 30; 43 7; 
44 7; 45 2; 50 8; 51 4; 54 6; 
55 16; 56 71; 57 7; 58 2; 61 1; 
63 1; 68 2; 69 4; 70 32; 71 5; 
72 12; 73 1; 74 6; 75 34; 76 11; 
77 3; 82 2; 83 6; 84 4; 85 6; 
86 5; 87 2; 88 4; 98 16; 100 999; 
101 58; 102 4; 103 1; 104 3; 105 1; 
110 2; 111 79; 112 11; 113 111; 114 8; 
137 1; 138 1; 139 94; 140 8; 141 31; 
142 2; 156 1; 168 1; 182 9; 183 1; 
184 3; 225 4; 227 1; 250 2; 268 1; 
