Name: Ibuprofen
Synon: Advil
Synon: Motrin
Synon: (RS)-2-(4-(2-methylpropyl)phenyl)propanoic acid
InChIKey: HEFNNWSXXWATRW-UHFFFAOYSA-N
Formula: C13H18O2
MW: 206
ExactMass: 206.13068
CASNO: 15687271
ID: 3005
Comment: DEA SWL
Num Peaks: 101
40 8; 41 133; 42 9; 43 122; 44 8; 
45 30; 50 11; 51 43; 52 13; 53 24; 
54 1; 55 27; 56 3; 57 48; 58 8; 
59 1; 60 1; 62 8; 63 35; 64 12; 
65 64; 66 6; 67 4; 69 5; 70 2; 
71 7; 72 3; 73 3; 74 5; 75 11; 
76 10; 77 121; 78 50; 79 51; 80 4; 
86 2; 87 5; 88 2; 89 42; 90 16; 
91 727; 92 63; 93 21; 94 2; 95 2; 
98 1; 101 5; 102 27; 103 91; 104 60; 
105 142; 106 16; 107 463; 108 35; 109 4; 
113 2; 114 2; 115 205; 116 58; 117 478; 
118 281; 119 514; 120 56; 121 6; 122 2; 
126 2; 127 16; 128 46; 129 32; 130 10; 
131 41; 132 7; 133 22; 134 3; 135 3; 
139 2; 141 7; 142 2; 143 4; 144 1; 
145 55; 146 10; 147 6; 148 2; 149 4; 
150 3; 151 1; 159 12; 161 999; 162 132; 
163 846; 164 193; 165 20; 166 1; 177 1; 
188 3; 191 10; 205 4; 206 361; 207 50; 
208 5; 
