Name: Nadolol
Synon: Corgard
Synon: (2R,3S)-5-{[(2R)-3-(tert-butylamino)-2-hydroxypropyl]oxy}-1,2,3,4-tetrahydronaphthalene-2,3-diol
InChIKey: VWPOSFSPZNDTMJ-UHFFFAOYSA-N
Formula: C17H27NO4
MW: 309
ExactMass: 309.194008
CASNO: 42200339
ID: 3009
Comment: AAFS / Probability Based Matching Data Base Entry
Num Peaks: 122
39 9; 40 1; 41 41; 42 15; 43 9; 
44 4; 45 2; 51 6; 52 2; 53 4; 
54 2; 55 15; 56 32; 57 84; 58 28; 
59 3; 60 25; 61 1; 63 4; 65 13; 
66 1; 67 2; 68 1; 69 3; 70 58; 
71 59; 72 20; 73 3; 74 16; 75 4; 
76 2; 77 36; 78 12; 79 14; 80 1; 
81 2; 82 4; 83 1; 84 11; 86 999; 
87 61; 88 2; 89 6; 90 3; 91 46; 
92 7; 93 3; 94 2; 96 10; 97 1; 
98 10; 99 1; 100 7; 101 3; 102 4; 
103 34; 104 10; 105 17; 106 1; 107 8; 
108 2; 111 2; 112 3; 113 1; 114 43; 
115 31; 116 39; 117 18; 119 6; 120 11; 
121 15; 122 3; 123 15; 127 4; 128 6; 
129 7; 130 16; 131 20; 132 16; 133 14; 
134 3; 135 3; 138 11; 141 1; 143 3; 
144 7; 145 14; 146 2; 147 16; 148 2; 
149 2; 153 1; 155 2; 157 5; 158 2; 
159 3; 160 9; 161 10; 162 10; 163 3; 
169 1; 171 6; 172 1; 173 2; 175 3; 
176 1; 183 2; 187 1; 199 1; 201 9; 
202 1; 207 1; 265 36; 266 6; 275 1; 
276 6; 292 1; 294 90; 295 15; 296 2; 
309 4; 310 1; 
