Name: Nalbuphine
Synon: Nubain
Synon: (-)-17-(cyclobutylmethyl)- 4,5.alpha.-epoxymorphinan- 3,6.alpha.,14-triol
InChIKey: NETZHAKZCGBWSS-UHFFFAOYSA-N
Formula: C21H27NO4
MW: 357
ExactMass: 357.194008
CASNO: 20594836
ID: 3010
Comment: DEA SWL
Num Peaks: 242
40 1; 41 128; 42 42; 43 33; 44 33; 
45 3; 50 1; 51 6; 52 3; 53 15; 
54 12; 55 50; 56 44; 57 28; 58 13; 
59 1; 60 6; 63 4; 64 2; 65 13; 
66 4; 67 17; 68 16; 69 37; 70 16; 
71 6; 72 4; 73 5; 74 2; 75 3; 
76 3; 77 25; 78 8; 79 11; 80 11; 
81 8; 82 17; 83 7; 84 11; 85 12; 
86 5; 87 2; 89 9; 90 2; 91 31; 
92 4; 93 5; 94 8; 95 7; 96 19; 
97 5; 98 26; 99 7; 100 3; 101 4; 
102 10; 103 18; 104 8; 105 12; 106 6; 
107 9; 108 6; 109 4; 110 18; 111 4; 
112 21; 113 3; 114 5; 115 59; 116 19; 
117 18; 118 10; 119 7; 120 6; 121 6; 
122 6; 123 13; 124 34; 125 5; 126 6; 
127 32; 128 36; 129 23; 130 11; 131 34; 
132 14; 133 10; 134 6; 135 3; 136 6; 
137 7; 138 3; 139 8; 140 5; 141 19; 
142 8; 143 18; 144 19; 145 18; 146 12; 
147 31; 148 16; 149 6; 150 4; 151 22; 
152 16; 153 18; 154 9; 155 12; 156 8; 
157 24; 158 9; 159 13; 160 18; 161 43; 
162 16; 163 5; 164 4; 165 12; 166 6; 
167 8; 168 9; 169 13; 170 10; 171 29; 
172 12; 173 30; 174 20; 175 20; 176 8; 
177 5; 178 4; 179 4; 180 4; 181 18; 
182 8; 183 12; 184 19; 185 37; 186 17; 
187 37; 188 17; 189 15; 190 6; 191 4; 
192 1; 193 4; 194 3; 195 6; 196 6; 
197 15; 198 15; 199 26; 200 24; 201 21; 
202 26; 203 10; 204 4; 205 1; 206 1; 
207 8; 208 3; 209 7; 210 6; 211 15; 
212 11; 213 14; 214 16; 215 13; 216 15; 
217 6; 218 3; 219 3; 220 1; 222 1; 
223 4; 224 4; 225 7; 226 12; 227 14; 
228 30; 229 12; 230 7; 231 3; 232 2; 
234 5; 235 1; 236 1; 237 3; 238 2; 
239 3; 240 6; 241 5; 242 11; 243 7; 
244 7; 245 4; 246 8; 247 2; 252 2; 
253 1; 254 14; 255 5; 256 6; 257 2; 
258 6; 259 2; 260 2; 266 2; 268 2; 
269 1; 270 18; 271 3; 272 19; 273 4; 
274 5; 281 2; 282 3; 284 48; 285 10; 
286 3; 287 1; 288 7; 289 1; 300 4; 
302 999; 303 192; 304 24; 305 2; 311 1; 
314 1; 328 5; 329 6; 330 1; 338 5; 
339 2; 340 3; 341 1; 356 9; 357 127; 
358 29; 359 4; 
