Name: Nalorphine
Synon: N-allyl-normorphine
Synon: (5.alpha.,6.alpha.)-17-allyl-7,8-didehydro-4,5-epoxymorphinan-3,6-diol
InChIKey: UIQMVEYFGZJHCZ-UHFFFAOYSA-N
Formula: C19H21NO3
MW: 311
ExactMass: 311.152143
CASNO: 62679
ID: 3012
Comment: DEA SWL
Num Peaks: 203
40 42; 41 685; 42 216; 43 171; 44 42; 
45 13; 50 12; 51 91; 52 28; 53 131; 
54 86; 55 206; 56 205; 57 159; 58 40; 
63 64; 64 29; 65 99; 66 32; 67 75; 
68 213; 69 58; 70 213; 71 21; 72 4; 
73 9; 74 4; 75 41; 76 58; 77 222; 
78 91; 79 69; 80 174; 81 381; 82 146; 
83 62; 84 193; 85 116; 86 12; 87 17; 
88 9; 89 92; 90 16; 91 195; 92 44; 
93 39; 94 75; 95 46; 96 170; 97 26; 
98 6; 99 5; 101 37; 102 75; 103 127; 
104 49; 105 86; 106 34; 107 46; 108 85; 
109 44; 110 44; 112 4; 113 10; 114 35; 
115 470; 116 108; 117 106; 118 53; 119 42; 
120 95; 121 67; 122 61; 123 22; 124 11; 
126 45; 127 233; 128 249; 129 114; 130 62; 
131 195; 132 78; 133 40; 134 44; 135 102; 
136 35; 138 21; 139 128; 140 45; 141 145; 
142 41; 143 47; 144 104; 145 91; 146 61; 
147 118; 148 56; 149 18; 150 159; 151 90; 
152 277; 153 183; 154 80; 155 73; 156 46; 
157 96; 158 45; 159 38; 160 88; 161 159; 
162 102; 163 43; 164 39; 165 157; 166 59; 
167 68; 168 64; 169 89; 170 68; 171 171; 
172 105; 173 151; 174 227; 175 94; 176 41; 
177 32; 178 41; 179 39; 180 31; 181 173; 
182 61; 183 24; 184 83; 185 92; 186 60; 
187 68; 188 567; 189 101; 190 20; 191 23; 
192 18; 193 29; 194 36; 195 39; 196 37; 
197 111; 198 71; 199 79; 200 145; 201 29; 
202 38; 205 6; 206 5; 207 30; 208 34; 
209 65; 210 55; 211 71; 212 40; 213 52; 
214 34; 215 12; 222 5; 223 12; 224 27; 
225 20; 226 86; 227 57; 228 68; 229 23; 
230 4; 235 4; 238 4; 239 4; 240 78; 
241 269; 242 86; 250 4; 252 37; 253 32; 
254 42; 255 4; 266 5; 267 4; 268 35; 
269 9; 270 49; 271 4; 278 5; 280 5; 
282 52; 283 23; 284 32; 285 8; 292 75; 
293 87; 294 117; 295 28; 296 8; 310 161; 
311 999; 312 194; 313 21; 
