Name: Naltrexone
Synon: Revia
Synon: 17-(cyclopropylmethyl)-4,5.alpha.-epoxy-3,14-dihydroxymorphinan-6-one
InChIKey: DQCKKXVULJGBQN-UHFFFAOYSA-N
Formula: C20H23NO4
MW: 341
ExactMass: 341.162708
CASNO: 16590413
ID: 3014
Comment: DEA SWL
Num Peaks: 248
40 8; 41 67; 42 109; 43 60; 44 32; 
45 6; 47 2; 50 7; 51 42; 52 19; 
53 100; 54 45; 55 999; 56 142; 57 44; 
58 13; 59 3; 60 3; 62 6; 63 26; 
64 13; 65 47; 66 14; 67 22; 68 66; 
69 27; 70 47; 71 25; 72 9; 73 9; 
74 2; 75 14; 76 18; 77 102; 78 39; 
79 33; 80 34; 81 22; 82 113; 83 26; 
84 203; 85 30; 86 8; 87 11; 88 9; 
89 43; 90 20; 91 101; 92 18; 93 15; 
94 24; 95 16; 96 101; 97 72; 98 191; 
99 28; 100 6; 101 23; 102 43; 103 64; 
104 24; 105 24; 106 14; 107 23; 108 20; 
109 12; 110 245; 111 30; 112 16; 113 14; 
114 17; 115 207; 116 53; 117 65; 118 31; 
119 18; 120 15; 121 14; 122 17; 123 18; 
124 62; 125 7; 126 41; 127 108; 128 115; 
129 59; 130 36; 131 128; 132 37; 133 18; 
134 26; 135 15; 136 16; 137 10; 138 27; 
139 19; 140 13; 141 50; 142 24; 143 31; 
144 70; 145 64; 146 43; 147 68; 148 27; 
149 12; 150 13; 151 25; 152 99; 153 40; 
154 22; 155 37; 156 23; 157 54; 158 29; 
159 37; 160 59; 161 114; 162 59; 163 12; 
164 12; 165 25; 166 11; 167 19; 168 19; 
169 34; 170 33; 171 147; 172 56; 173 127; 
174 101; 175 70; 176 20; 177 5; 178 6; 
179 4; 180 49; 181 28; 182 16; 183 24; 
184 68; 185 67; 186 55; 187 147; 188 64; 
189 37; 190 12; 191 10; 193 8; 194 9; 
195 9; 196 13; 197 39; 198 35; 199 40; 
200 79; 201 96; 202 132; 203 31; 204 16; 
205 7; 207 11; 208 10; 209 2; 210 10; 
211 22; 212 42; 213 36; 214 43; 215 35; 
216 44; 217 14; 218 18; 219 4; 221 4; 
222 5; 223 8; 224 12; 225 14; 226 29; 
227 12; 228 38; 229 12; 230 24; 231 5; 
232 2; 234 2; 237 2; 238 9; 239 8; 
240 27; 241 18; 242 46; 243 152; 244 68; 
245 20; 246 4; 250 3; 251 1; 252 4; 
253 7; 254 13; 255 31; 256 190; 257 56; 
258 25; 259 8; 265 3; 266 8; 267 4; 
268 18; 269 8; 270 17; 271 7; 272 6; 
273 3; 278 2; 280 3; 282 7; 283 2; 
284 12; 285 31; 286 94; 287 11; 294 3; 
295 4; 296 6; 298 5; 300 199; 301 38; 
302 7; 312 8; 313 9; 315 2; 322 2; 
324 4; 325 3; 326 20; 327 4; 328 3; 
329 3; 331 2; 339 3; 340 51; 341 638; 
342 139; 343 22; 344 4; 
