Name: N-Hydroxy-3,4-methylenedioxyamphetamine
Synon: N-hydroxy-MDA
Synon: MDOH
Synon: PIHKAL #114
Synon: N-Hydroxy-alpha-methyl-3,4(methylenedioxy)-phenethylamine
InChIKey: FNDCTJYFKOQGTL-UHFFFAOYSA-N
Formula: C10H13NO3
MW: 195
ExactMass: 195.089543
CASNO: 114562593
ID: 3018
Comment: DEA SWL
Num Peaks: 59
40 25; 41 32; 42 176; 43 25; 44 341; 
45 14; 50 67; 51 213; 52 41; 53 34; 
55 4; 56 4; 60 772; 61 33; 62 22; 
63 47; 64 10; 65 34; 67 30; 73 4; 
74 18; 75 24; 76 43; 77 295; 78 114; 
79 52; 80 11; 82 5; 89 26; 90 13; 
91 15; 102 9; 103 34; 104 35; 105 102; 
106 57; 107 20; 118 36; 119 4; 121 15; 
122 16; 131 10; 132 4; 134 32; 135 688; 
136 999; 137 93; 138 4; 146 83; 147 17; 
148 7; 160 38; 161 15; 162 20; 163 11; 
174 4; 177 11; 193 72; 195 8; 
