Name: N-acetyl-N-acetoxy-3,4-methylenedioxyamphetamine
Synon: N-hydroxy-MDA, diacetyl
Synon: N-acetyl-N-acetoxy-MDA
InChIKey: BNIYLCLCFJDDMK-UHFFFAOYSA-N
Formula: C14H17NO5
MW: 279
ExactMass: 279.110672
CASNO: 0
ID: 3019
Comment: ENFSI / NFI/GL-940615; JB-42
Num Peaks: 85
38 3; 39 21; 40 4; 41 12; 42 128; 
43 505; 44 54; 45 9; 50 15; 51 76; 
52 12; 53 11; 54 2; 55 5; 56 3; 
57 1; 60 117; 61 121; 62 8; 63 17; 
64 5; 65 14; 66 3; 67 4; 68 1; 
69 2; 70 1; 73 1; 74 3; 75 6; 
76 13; 77 153; 78 36; 79 36; 80 3; 
81 1; 85 1; 86 6; 87 1; 89 9; 
90 5; 91 11; 92 3; 93 2; 94 1; 
102 384; 103 41; 104 29; 105 61; 106 14; 
107 5; 108 1; 115 2; 116 1; 117 1; 
118 3; 119 4; 120 4; 121 6; 122 4; 
123 1; 131 24; 132 20; 133 13; 135 700; 
136 107; 137 9; 144 10; 145 1; 146 2; 
147 12; 148 9; 149 3; 151 1; 160 4; 
162 999; 163 117; 164 10; 176 1; 177 2; 
178 25; 179 3; 219 1; 221 2; 279 6; 
