Name: Niacin
Synon: Nicotinic Acid
Synon: Vitamin B3
Synon: Pyridine-3-carboxylic acid
InChIKey: PVNIIMVLHYAWGP-UHFFFAOYSA-N
Formula: C6H5NO2
MW: 123
ExactMass: 123.032028
CASNO: 59676
ID: 3020
Comment: DEA SWL
Num Peaks: 15
44 52; 45 75; 49 72; 50 329; 51 471; 
52 181; 53 80; 76 24; 77 282; 78 565; 
79 31; 105 591; 106 311; 123 999; 124 71; 
