Name: (-) Nicotine
Synon: 3-[(2S)-1-methylpyrrolidin-2-yl]pyridine
InChIKey: SNICXCGAKADSCV-UHFFFAOYSA-N
Formula: C10H14N2
MW: 162
ExactMass: 162.115699
CASNO: 54115
ID: 3023
Comment: DEA SWL
Num Peaks: 83
40 9; 41 39; 42 202; 43 13; 44 21; 
46 1; 49 1; 50 25; 51 71; 52 32; 
53 14; 54 16; 55 42; 56 9; 57 5; 
58 3; 60 3; 61 1; 62 7; 63 30; 
64 15; 65 49; 66 10; 67 9; 68 5; 
69 3; 70 1; 73 1; 74 2; 75 3; 
76 6; 77 23; 78 40; 79 13; 80 10; 
81 11; 82 51; 83 10; 84 999; 85 58; 
86 2; 88 1; 89 7; 90 8; 91 25; 
92 67; 93 16; 94 3; 102 2; 103 6; 
104 22; 105 23; 106 17; 107 9; 108 1; 
115 1; 116 5; 117 44; 118 65; 119 100; 
120 27; 121 5; 128 2; 129 1; 130 54; 
131 15; 132 17; 133 420; 134 49; 135 3; 
143 1; 144 6; 145 7; 146 3; 147 5; 
157 2; 158 2; 159 15; 160 4; 161 162; 
162 172; 163 20; 164 1; 
