Name: Nimetazepam
Synon: Erimin
Synon: 2-methyl-9-nitro-6-phenyl-2,5-diazabicyclo[5.4.0]undeca-5,8,10,12-tetraen-3-one
InChIKey: GWUSZQUVEVMBPI-UHFFFAOYSA-N
Formula: C16H13N3O3
MW: 295
ExactMass: 295.095692
CASNO: 2011678
ID: 3024
Comment: DEA SWL / unverified from sample
Num Peaks: 165
40 12; 41 21; 42 57; 43 14; 44 3; 
50 58; 51 150; 52 42; 53 11; 54 6; 
55 9; 56 8; 57 11; 61 7; 62 46; 
63 152; 64 39; 65 94; 66 45; 67 12; 
68 2; 70 22; 71 5; 73 5; 74 53; 
75 99; 76 159; 77 225; 78 74; 79 16; 
82 34; 83 32; 84 53; 86 24; 87 47; 
88 53; 89 195; 90 112; 91 212; 92 43; 
93 5; 96 76; 98 21; 99 25; 100 24; 
101 30; 102 79; 103 100; 104 48; 105 21; 
106 20; 108 51; 110 144; 112 7; 113 39; 
114 35; 115 85; 116 93; 117 183; 118 46; 
119 13; 122 2; 123 5; 124 32; 125 34; 
126 89; 127 58; 128 35; 129 18; 130 7; 
131 5; 132 5; 133 6; 134 3; 135 8; 
136 11; 137 23; 138 22; 139 119; 140 54; 
141 14; 142 8; 143 16; 144 43; 145 7; 
146 5; 147 7; 149 19; 150 86; 151 170; 
152 185; 153 55; 154 22; 158 2; 161 6; 
162 23; 163 135; 164 142; 165 332; 166 99; 
167 46; 168 8; 175 8; 176 30; 177 113; 
178 101; 179 56; 180 64; 181 31; 182 3; 
188 2; 189 6; 190 75; 191 127; 192 188; 
193 134; 194 39; 195 7; 202 31; 203 28; 
204 43; 205 189; 206 124; 207 44; 208 37; 
209 28; 210 3; 217 5; 218 37; 219 220; 
220 460; 221 374; 222 99; 223 14; 233 11; 
234 17; 235 14; 236 89; 237 45; 238 11; 
239 29; 247 45; 248 642; 249 151; 250 63; 
251 25; 252 37; 253 11; 264 26; 265 47; 
266 211; 267 999; 268 824; 269 132; 270 13; 
277 2; 278 133; 279 40; 280 5; 281 5; 
282 7; 294 851; 295 541; 296 97; 297 11; 
