Name: Oxymorphone
Synon: Opana
Synon: Opana ER
Synon: Numorphan
Synon: Numorphone
Synon: 14-Hydroxydihydromorphinone
Synon: 4,5.alpha.-epoxy-3,14-dihydroxy-17-methylmorphinan-6-one
InChIKey: UQCNKQCJZOAFTQ-UHFFFAOYSA-N
Formula: C17H19NO4
MW: 301
ExactMass: 301.131409
CASNO: 76415
ID: 3033
Comment: DEA SWL
Num Peaks: 219
40 14; 41 55; 42 481; 43 116; 44 501; 
45 19; 50 19; 51 68; 52 25; 53 51; 
54 21; 55 178; 56 72; 57 235; 58 210; 
59 32; 60 6; 62 13; 63 58; 64 28; 
65 75; 66 17; 67 18; 68 19; 69 16; 
70 482; 71 97; 72 24; 73 9; 74 13; 
75 30; 76 29; 77 153; 78 54; 79 38; 
80 19; 81 26; 82 43; 83 32; 84 108; 
85 37; 86 11; 87 18; 88 12; 89 73; 
90 30; 91 147; 92 30; 93 9; 94 53; 
95 17; 96 21; 97 15; 98 125; 99 29; 
100 13; 101 34; 102 67; 103 99; 104 30; 
105 36; 106 14; 107 7; 108 30; 109 2; 
110 19; 111 30; 112 154; 113 31; 114 31; 
115 333; 116 80; 117 83; 118 45; 119 27; 
120 20; 121 10; 122 2; 123 38; 124 5; 
125 7; 126 30; 127 179; 128 171; 129 71; 
130 44; 131 189; 132 71; 133 25; 134 21; 
135 12; 136 19; 137 47; 138 8; 139 36; 
140 235; 141 74; 142 25; 143 43; 144 99; 
145 106; 146 61; 147 114; 148 59; 149 12; 
150 25; 151 18; 152 34; 153 31; 154 22; 
155 47; 156 29; 157 73; 158 37; 159 47; 
160 96; 161 140; 162 104; 163 22; 164 50; 
165 128; 166 20; 167 14; 168 31; 169 39; 
170 34; 171 201; 172 85; 173 209; 174 217; 
175 95; 176 58; 177 15; 178 27; 179 7; 
180 6; 181 19; 182 16; 183 21; 184 69; 
185 75; 186 86; 187 189; 188 96; 189 40; 
190 18; 191 3; 192 2; 193 3; 194 5; 
195 5; 196 11; 197 38; 198 57; 199 39; 
200 73; 201 101; 202 143; 203 230; 204 45; 
205 6; 207 2; 208 3; 209 3; 210 9; 
211 10; 212 18; 213 19; 214 59; 215 112; 
216 504; 217 102; 218 22; 219 2; 223 2; 
224 4; 225 16; 226 27; 227 21; 228 20; 
229 13; 230 40; 231 8; 232 1; 236 1; 
238 12; 239 4; 240 14; 241 8; 242 13; 
243 11; 244 80; 245 52; 246 9; 252 2; 
253 4; 254 13; 255 3; 256 11; 257 3; 
258 13; 259 2; 267 1; 272 15; 273 9; 
274 1; 281 1; 282 8; 283 3; 284 12; 
285 2; 286 24; 287 2; 299 4; 300 46; 
301 999; 302 182; 303 25; 304 2; 
