Name: Pentazocine
Synon: Talwin
Synon: 2-dimethylallyl-5,9-dimethyl-2'-hydroxybenzomorphan
InChIKey: VOKSWYLNZZRQPF-UHFFFAOYSA-N
Formula: C19H27NO
MW: 285
ExactMass: 285.209265
CASNO: 359831
ID: 3037
Comment: DEA SWL
Num Peaks: 175
41 744; 42 111; 43 90; 44 88; 45 700; 
46 21; 50 6; 51 31; 52 14; 53 96; 
54 49; 55 109; 56 94; 57 68; 58 63; 
59 3; 63 15; 64 6; 65 47; 66 11; 
67 81; 68 199; 69 613; 70 581; 71 90; 
72 8; 75 5; 76 5; 77 112; 78 29; 
79 45; 80 29; 81 31; 82 105; 83 25; 
84 59; 85 17; 86 2; 87 1; 88 1; 
89 20; 90 5; 91 147; 92 20; 93 24; 
94 52; 95 24; 96 74; 97 18; 98 47; 
99 5; 101 8; 102 19; 103 57; 104 18; 
105 57; 106 2; 107 203; 108 62; 110 490; 
111 42; 112 51; 113 35; 115 230; 116 70; 
117 88; 118 27; 119 36; 120 25; 121 41; 
122 38; 123 4; 124 25; 125 3; 126 20; 
127 154; 128 186; 129 116; 130 48; 131 212; 
132 90; 133 84; 134 54; 135 52; 136 11; 
137 1; 138 37; 139 17; 140 14; 141 96; 
142 31; 143 34; 144 180; 145 300; 146 296; 
147 211; 148 40; 149 8; 150 26; 151 12; 
152 26; 153 21; 154 16; 155 44; 156 11; 
157 278; 158 342; 159 375; 160 181; 161 98; 
162 46; 163 7; 164 9; 165 7; 166 4; 
167 8; 168 9; 169 18; 170 27; 171 63; 
172 275; 173 325; 174 256; 175 58; 176 10; 
178 178; 179 24; 180 4; 181 3; 182 6; 
183 12; 184 24; 185 45; 186 67; 187 42; 
188 107; 189 16; 190 1; 196 4; 197 4; 
198 13; 199 14; 200 80; 202 549; 203 76; 
204 8; 207 1; 212 5; 213 2; 214 22; 
215 2; 216 272; 217 999; 218 154; 219 13; 
226 2; 228 17; 230 176; 231 27; 240 1; 
242 106; 243 30; 244 2; 254 3; 256 27; 
257 4; 268 8; 270 277; 271 54; 272 5; 
282 1; 284 228; 285 240; 286 49; 287 4; 
