Name: Pentobarbital
Synon: Nembutal
Synon: 5-Ethyl-5-(1-methylbutyl)-2,4,6(1H,3H,5H)-pyrimidinetrione
InChIKey: WEXRUCMBJFQVBZ-UHFFFAOYSA-N
Formula: C11H18N2O3
MW: 226
ExactMass: 226.1317425
CASNO: 76744
ID: 3038
Comment: DEA SWL
Num Peaks: 77
40 21; 41 261; 42 61; 43 291; 44 51; 
45 3; 50 2; 51 8; 52 8; 53 52; 
54 25; 55 141; 56 19; 57 8; 58 3; 
65 11; 66 10; 67 37; 68 17; 69 85; 
70 51; 71 62; 72 3; 73 3; 77 7; 
78 2; 79 9; 80 16; 81 10; 82 7; 
83 19; 84 8; 85 23; 86 3; 87 1; 
91 2; 93 1; 94 15; 95 12; 96 14; 
97 42; 98 84; 99 4; 108 2; 109 7; 
110 6; 111 4; 112 43; 113 15; 114 8; 
122 1; 123 2; 124 3; 125 1; 126 5; 
127 1; 128 5; 129 4; 137 2; 138 3; 
139 5; 141 901; 142 55; 143 7; 153 3; 
154 5; 155 102; 156 999; 157 214; 158 17; 
159 1; 167 1; 169 1; 181 1; 183 2; 
197 45; 198 8; 
