Name: Phenazocine
Synon: Prinadol
Synon: (2R,6R,11R)-6,11-dimethyl-3-(2-phenylethyl)-1,2,3,4,5,6-hexahydro-2,6-methano-3-benzazocin-8-ol
InChIKey: ZQHYKVKNPWDQSL-UHFFFAOYSA-N
Formula: C22H27NO
MW: 321
ExactMass: 321.209265
CASNO: 127355
ID: 3040
Comment: DEA SWL
Num Peaks: 102
41 23; 42 61; 43 15; 44 71; 51 11; 
52 2; 53 6; 54 6; 55 24; 56 38; 
57 24; 58 141; 59 4; 63 5; 65 33; 
66 1; 67 2; 68 7; 69 5; 70 14; 
73 1; 77 53; 78 14; 79 41; 80 4; 
82 6; 84 4; 89 7; 90 1; 91 103; 
92 12; 93 1; 94 2; 96 6; 102 4; 
103 36; 104 12; 105 111; 106 10; 107 28; 
108 5; 110 4; 115 50; 116 14; 117 17; 
118 4; 119 7; 120 1; 121 5; 127 28; 
128 33; 129 25; 130 11; 131 38; 132 14; 
133 14; 134 1; 135 5; 141 22; 142 6; 
143 6; 144 39; 145 69; 146 21; 147 20; 
148 2; 152 3; 153 4; 154 1; 155 12; 
156 4; 157 51; 158 91; 159 71; 160 14; 
161 7; 169 3; 170 4; 171 12; 172 21; 
173 86; 174 22; 175 5; 184 9; 185 3; 
186 5; 187 16; 188 1; 191 1; 199 9; 
200 5; 201 2; 207 2; 214 2; 215 2; 
228 6; 229 23; 230 999; 231 167; 232 14; 
253 4; 320 8; 
