Name: Pheniramine
Synon: Avil
Synon: N,N-dimethyl-3-phenyl-3-pyridin-2-yl-propan-1-amine
InChIKey: IJHNSHDBIRRJRN-UHFFFAOYSA-N
Formula: C16H20N2
MW: 240
ExactMass: 240.162648
CASNO: 86215
ID: 3044
Comment: DEA SWL
Num Peaks: 94
40 1; 41 3; 42 40; 43 12; 44 9; 
45 1; 50 4; 51 18; 52 8; 53 3; 
54 1; 55 1; 56 17; 57 9; 58 304; 
59 11; 62 1; 63 7; 64 2; 65 8; 
66 1; 70 5; 71 8; 72 73; 73 4; 
74 1; 75 2; 76 3; 77 14; 78 25; 
79 7; 80 2; 84 4; 87 1; 88 1; 
89 10; 90 4; 91 20; 92 3; 93 6; 
97 1; 101 1; 102 5; 103 9; 104 12; 
105 1; 106 3; 113 2; 114 3; 115 20; 
116 5; 117 15; 118 10; 119 2; 121 2; 
126 1; 127 4; 128 4; 129 1; 130 1; 
132 1; 139 18; 140 11; 141 7; 142 2; 
143 2; 144 1; 146 1; 151 2; 152 8; 
153 3; 154 5; 160 1; 164 1; 165 5; 
166 27; 167 167; 168 372; 169 999; 170 130; 
171 8; 178 2; 179 2; 180 36; 181 7; 
182 27; 183 3; 191 2; 192 3; 193 8; 
194 10; 195 3; 196 13; 197 2; 
