Name: Phenylephrine
Synon: Sudafed PE
Synon: (R)-3-[-1-hydroxy-2-(methylamino)ethyl]phenol
InChIKey: SONNWYBIRXJNDC-UHFFFAOYSA-N
Formula: C9H13NO2
MW: 167
ExactMass: 167.094628
CASNO: 59427
ID: 3048
Comment: DEA SWL
Num Peaks: 67
40 11; 41 15; 42 50; 43 29; 44 999; 
45 34; 46 1; 50 9; 51 21; 52 5; 
53 14; 54 3; 55 10; 56 1; 57 2; 
58 2; 59 1; 61 1; 62 5; 63 15; 
64 6; 65 42; 66 14; 67 7; 68 3; 
74 3; 76 2; 77 75; 78 9; 79 7; 
80 1; 81 2; 89 4; 91 19; 92 5; 
93 16; 94 21; 95 39; 96 2; 97 1; 
102 1; 103 1; 104 2; 105 5; 106 2; 
107 14; 108 3; 109 1; 117 1; 118 1; 
119 3; 120 14; 121 26; 122 7; 123 9; 
124 3; 125 1; 130 1; 132 2; 133 10; 
134 1; 136 1; 146 1; 147 2; 148 11; 
149 1; 167 3; 
