Name: Piperonal
Synon: Heliotropin
Synon: 1,3-Benzodioxole-5-carbaldehyde
Synon: Piperonyl aldehyde
InChIKey: SATCULPHIDQDRE-UHFFFAOYSA-N
Formula: C8H6O3
MW: 150
ExactMass: 150.031694
CASNO: 120570
ID: 3050
Comment: DEA SWL / Aldrich lot 00629TW
Num Peaks: 47
40 5; 41 1; 42 4; 43 1; 46 1; 
48 1; 49 10; 50 38; 51 36; 52 8; 
53 41; 54 2; 55 3; 60 8; 61 70; 
62 111; 63 249; 64 51; 65 148; 66 24; 
67 2; 68 1; 69 2; 73 4; 74 24; 
75 6; 76 4; 77 12; 78 2; 79 13; 
80 2; 90 2; 91 92; 92 16; 93 6; 
94 1; 103 2; 105 1; 119 61; 120 12; 
121 288; 122 29; 123 2; 149 999; 150 844; 
151 76; 152 8; 
