Name: Piracetam
Synon: 2-oxo-1-pyrrolidineacetamide
InChIKey: GMZVRMREEHBGGF-UHFFFAOYSA-N
Formula: C6H10N2O2
MW: 142
ExactMass: 142.074227
CASNO: 7491749
ID: 3051
Comment: DEA SWL
Num Peaks: 40
40 44; 41 421; 42 342; 43 217; 44 175; 
45 6; 51 2; 52 7; 53 14; 54 30; 
55 47; 56 53; 57 7; 58 15; 59 94; 
60 31; 67 7; 68 129; 69 305; 70 554; 
71 62; 72 1; 80 9; 83 34; 84 544; 
85 30; 86 2; 87 4; 96 16; 97 26; 
98 999; 99 163; 100 10; 114 3; 123 3; 
124 12; 125 28; 126 1; 142 136; 143 10; 
