Name: Prazepam
Synon: 7-chloro-1-(cyclopropylmethyl)-5-phenyl-1,3-dihydro- 2H-1,4-benzodiazepin-2-one
Synon: Centrac
Synon: Centrax
InChIKey: MWQCHHACWWAQLJ-UHFFFAOYSA-N
Formula: C19H17ClN2O
MW: 324
ExactMass: 324.102942
CASNO: 2955386
ID: 3052
Comment: DEA SWL
Num Peaks: 259
40 10; 41 43; 42 11; 43 7; 44 1; 
49 3; 50 26; 51 88; 52 21; 53 71; 
54 16; 55 518; 56 29; 57 2; 61 4; 
62 19; 63 64; 64 16; 65 114; 66 8; 
67 3; 68 7; 69 4; 70 2; 71 1; 
73 14; 74 26; 75 94; 76 60; 77 184; 
78 24; 79 5; 80 1; 82 25; 83 2; 
84 5; 85 6; 86 15; 87 28; 88 32; 
89 150; 90 56; 91 892; 92 69; 93 4; 
94 3; 95 4; 96 48; 97 8; 98 13; 
99 31; 100 34; 101 32; 102 120; 103 54; 
104 33; 105 18; 106 3; 107 2; 108 2; 
109 41; 110 25; 111 83; 112 26; 113 49; 
114 34; 115 51; 116 143; 117 87; 118 22; 
119 5; 120 4; 121 3; 122 6; 123 28; 
124 27; 125 48; 126 60; 127 56; 128 35; 
129 21; 130 22; 131 5; 132 1; 133 3; 
134 4; 135 5; 136 44; 137 57; 138 79; 
139 64; 140 43; 141 19; 142 15; 143 10; 
144 8; 145 2; 146 1; 147 8; 148 6; 
149 24; 150 107; 151 190; 152 129; 153 36; 
154 19; 155 10; 156 9; 157 5; 158 3; 
159 1; 160 2; 161 12; 162 33; 163 238; 
164 165; 165 265; 166 154; 167 21; 168 37; 
169 6; 170 3; 171 1; 172 1; 173 5; 
174 8; 175 18; 176 58; 177 181; 178 141; 
179 76; 180 29; 181 5; 182 2; 183 4; 
184 2; 185 3; 186 13; 187 7; 188 23; 
189 27; 190 101; 191 79; 192 70; 193 78; 
194 18; 195 4; 197 3; 198 7; 199 44; 
200 12; 201 21; 202 17; 203 41; 204 60; 
205 204; 206 88; 207 72; 208 14; 209 1; 
211 4; 212 15; 213 55; 214 47; 215 31; 
216 34; 217 39; 218 67; 219 66; 220 19; 
221 12; 222 2; 223 1; 224 8; 225 5; 
226 25; 227 157; 228 86; 229 65; 230 39; 
231 20; 232 20; 233 38; 234 71; 235 41; 
236 6; 237 2; 238 29; 239 88; 240 212; 
241 457; 242 249; 243 171; 244 60; 245 15; 
246 7; 247 12; 248 2; 249 4; 250 3; 
251 9; 252 23; 253 80; 254 49; 255 138; 
256 39; 257 40; 258 9; 259 6; 260 14; 
261 24; 262 8; 263 1; 264 6; 265 11; 
266 13; 267 244; 268 198; 269 999; 270 223; 
271 304; 272 54; 273 6; 277 1; 278 7; 
279 30; 280 11; 281 102; 282 29; 283 36; 
284 7; 285 2; 287 1; 288 5; 289 16; 
290 3; 291 1; 293 51; 294 58; 295 786; 
296 509; 297 349; 298 163; 299 35; 300 4; 
305 3; 306 5; 307 10; 308 3; 309 23; 
310 5; 311 7; 312 1; 323 240; 324 371; 
325 148; 326 126; 327 24; 328 3; 
