Name: Primidone
Synon: 5-ethyl-5-phenyl-hexahydropyrimidine-4,6-dione
Synon: Mysoline
InChIKey: DQMZLTXERSFNPB-UHFFFAOYSA-N
Formula: C12H14N2O2
MW: 218
ExactMass: 218.105528
CASNO: 125337
ID: 3055
Comment: DEA SWL
Num Peaks: 108
40 10; 41 23; 42 9; 43 13; 44 34; 
45 6; 46 1; 50 40; 51 106; 52 26; 
53 15; 54 4; 55 3; 56 36; 57 9; 
58 9; 59 2; 60 3; 61 1; 62 30; 
63 87; 64 16; 65 63; 66 6; 67 2; 
68 2; 69 9; 70 1; 71 6; 72 1; 
73 6; 74 15; 75 21; 76 36; 77 194; 
78 72; 79 17; 80 1; 82 4; 83 1; 
85 1; 86 8; 87 10; 88 12; 89 144; 
90 59; 91 245; 92 26; 93 3; 95 1; 
97 3; 98 1; 99 1; 101 7; 102 62; 
103 308; 104 142; 105 31; 106 10; 112 2; 
113 3; 114 4; 115 318; 116 84; 117 865; 
118 314; 119 31; 120 1; 125 21; 127 2; 
128 13; 129 5; 130 10; 131 44; 132 25; 
133 17; 134 16; 135 1; 140 15; 141 1; 
142 3; 143 14; 144 24; 145 42; 146 999; 
147 109; 148 8; 154 1; 158 1; 159 2; 
160 77; 161 246; 162 30; 163 2; 171 1; 
172 25; 173 10; 174 54; 175 10; 186 1; 
187 2; 188 5; 189 174; 190 680; 191 74; 
192 7; 203 4; 218 12; 
