Name: Finasteride
Synon: Proscar
Synon: Propecia
Synon: N-(1,1-dimethylethyl)-3-oxo-(5.alpha.,17.beta.)-4-azaandrost-1-ene-17-carboxamide
InChIKey: DBEPLOCGEIEOCV-UHFFFAOYSA-N
Formula: C23H36N2O2
MW: 372
ExactMass: 372.277678
CASNO: 98319267
ID: 3057
Comment: DEA SWL
Num Peaks: 197
41 212; 42 57; 43 80; 44 27; 53 63; 
54 29; 55 214; 56 307; 57 531; 58 800; 
59 81; 60 29; 65 41; 66 14; 67 146; 
68 51; 69 83; 70 28; 71 3; 72 296; 
73 22; 74 59; 77 151; 78 39; 79 287; 
80 214; 81 187; 82 57; 83 31; 84 23; 
85 126; 86 66; 87 3; 88 18; 91 247; 
92 59; 93 196; 94 136; 95 186; 96 98; 
97 29; 98 24; 99 10; 100 30; 102 6; 
103 29; 104 23; 105 164; 106 61; 107 157; 
108 226; 109 151; 110 956; 111 79; 112 21; 
114 15; 115 257; 116 40; 117 76; 118 34; 
119 94; 120 55; 121 121; 122 189; 123 290; 
124 72; 125 18; 126 30; 127 9; 128 370; 
129 93; 130 30; 131 82; 132 37; 133 88; 
134 92; 135 95; 136 224; 137 104; 138 29; 
140 5; 141 187; 142 185; 143 110; 144 31; 
145 73; 146 45; 147 97; 148 91; 149 80; 
150 46; 151 6; 152 6; 154 17; 155 28; 
156 22; 157 30; 158 30; 159 50; 160 46; 
161 62; 162 71; 163 68; 164 52; 165 9; 
169 10; 171 26; 172 19; 173 34; 174 29; 
175 23; 176 45; 177 27; 178 54; 179 2; 
181 19; 182 6; 183 7; 184 2; 185 22; 
186 19; 187 17; 188 18; 189 9; 190 30; 
191 18; 192 25; 193 11; 194 31; 195 24; 
196 2; 197 13; 199 15; 200 6; 201 25; 
202 21; 207 2; 208 7; 209 10; 213 19; 
214 14; 216 75; 217 18; 218 7; 228 10; 
229 3; 230 185; 231 102; 232 87; 233 16; 
234 41; 235 13; 244 90; 245 175; 246 43; 
248 21; 249 25; 250 41; 253 13; 256 47; 
257 13; 258 229; 259 46; 263 65; 264 17; 
267 30; 270 35; 271 29; 272 514; 273 123; 
274 34; 281 6; 282 16; 283 20; 284 45; 
298 25; 299 28; 300 71; 301 107; 302 21; 
315 42; 316 20; 317 201; 318 41; 327 6; 
329 10; 341 6; 343 10; 344 3; 355 21; 
357 540; 358 142; 359 19; 371 53; 372 999; 
373 259; 374 40; 
