Name: Protriptyline
Synon: Vivactil
Synon: 3-(5H-dibenzo[a,d][7]annulen-5-yl)-N-methylpropan-1-amine
InChIKey: BWPIARFWQZKAIA-UHFFFAOYSA-N
Formula: C19H21N
MW: 263
ExactMass: 263.1674
CASNO: 438608
ID: 3058
Comment: DEA SWL / Sigma lot 082K0596
Num Peaks: 121
40 1; 41 8; 42 20; 44 442; 45 11; 
50 2; 51 4; 52 1; 53 1; 54 1; 
55 1; 56 9; 57 16; 58 3; 59 35; 
60 1; 62 1; 63 9; 64 1; 65 3; 
68 2; 70 743; 71 38; 72 5; 74 3; 
75 4; 76 4; 77 5; 78 1; 83 8; 
84 1; 86 1; 87 4; 88 4; 89 8; 
91 10; 93 1; 95 7; 96 4; 98 1; 
99 1; 100 2; 101 4; 102 3; 103 2; 
107 1; 108 1; 110 1; 111 1; 113 4; 
114 2; 115 24; 116 2; 117 1; 125 1; 
126 6; 127 6; 128 8; 129 2; 132 1; 
137 3; 138 2; 139 20; 140 3; 141 3; 
149 1; 150 11; 151 15; 152 27; 153 4; 
161 2; 162 8; 163 43; 164 34; 165 191; 
166 27; 167 2; 170 1; 174 2; 175 5; 
176 26; 177 10; 178 49; 179 10; 185 1; 
186 3; 187 38; 188 42; 189 374; 190 137; 
191 999; 192 166; 193 17; 194 1; 199 1; 
200 11; 201 11; 202 64; 203 57; 204 39; 
205 13; 206 3; 213 7; 215 28; 216 10; 
217 13; 218 6; 219 2; 220 1; 221 1; 
226 1; 227 1; 228 1; 229 1; 231 3; 
232 6; 233 1; 234 2; 262 3; 263 15; 
264 3; 
