Name: Theophylline
Synon: Dimethylxanthine
Synon: 1,3-dimethyl-7H-purine-2,6-dione
InChIKey: ZFXYFBGIUFBOJW-UHFFFAOYSA-N
Formula: C7H8N4O2
MW: 180
ExactMass: 180.064726
CASNO: 58559
ID: 3064
Comment: DEA SWL
Num Peaks: 47
40 130; 41 218; 42 97; 43 10; 44 4; 
53 333; 54 57; 55 21; 56 68; 57 20; 
58 30; 65 21; 66 51; 67 159; 68 609; 
69 73; 70 35; 76 4; 77 5; 78 4; 
79 7; 80 6; 81 25; 82 11; 93 12; 
94 103; 95 687; 96 109; 97 14; 108 13; 
109 6; 110 9; 111 6; 121 9; 122 67; 
123 89; 124 42; 135 12; 136 30; 137 13; 
138 9; 150 12; 151 112; 152 47; 180 999; 
181 88; 182 10; 
