Name: 2C-B HFBA Derivative
Synon: NEXUS HFBA Derivative
Synon: 4-Bromo-2,5-dimethoxyphenethylamine HFBA Derivative
InChIKey: SBCHTSRUUAJWSM-UHFFFAOYSA-N
Formula: C14H13BrF7NO3
MW: 455
ExactMass: 454.996702
CASNO: 0
ID: 3103
Comment: Broward Sheriff Office Drug Library / DEA lot 2544-1022-119
Num Peaks: 268
37 4; 38 18; 39 92; 40 11; 41 29; 
42 12; 43 41; 44 48; 45 8; 46 2; 
47 2; 49 1; 50 74; 51 154; 52 33; 
53 172; 54 17; 55 38; 56 37; 57 29; 
58 4; 59 10; 60 3; 61 9; 62 39; 
63 139; 64 84; 65 97; 66 28; 67 49; 
68 12; 69 428; 70 13; 71 10; 73 3; 
74 31; 75 75; 76 85; 77 476; 78 184; 
79 168; 80 18; 81 26; 82 12; 83 15; 
84 2; 85 9; 86 7; 87 17; 88 14; 
89 203; 90 218; 91 308; 92 171; 93 64; 
94 19; 95 27; 96 13; 97 16; 98 5; 
99 4; 100 62; 101 6; 102 27; 103 66; 
104 53; 105 418; 106 150; 107 89; 108 50; 
109 79; 110 15; 111 8; 112 4; 113 3; 
114 30; 115 32; 116 18; 117 54; 118 87; 
119 173; 120 187; 121 97; 122 209; 124 5; 
125 8; 126 3; 127 3; 128 49; 129 14; 
130 5; 131 51; 132 70; 133 162; 134 94; 
135 143; 136 31; 137 27; 138 11; 139 4; 
140 2; 141 9; 142 7; 143 100; 144 15; 
145 83; 146 20; 147 58; 148 759; 149 183; 
150 186; 151 45; 152 6; 153 17; 154 5; 
155 24; 156 24; 157 43; 158 22; 159 30; 
160 7; 161 12; 162 29; 163 56; 164 81; 
165 17; 166 5; 167 7; 168 14; 169 434; 
170 35; 171 74; 172 19; 173 27; 174 10; 
175 8; 176 4; 177 6; 178 33; 179 7; 
180 2; 181 3; 182 5; 183 12; 184 36; 
185 26; 186 82; 187 23; 188 50; 189 9; 
190 1; 191 3; 192 4; 193 1; 194 3; 
195 1; 196 5; 197 17; 198 13; 199 310; 
200 41; 201 325; 202 33; 203 17; 204 2; 
205 3; 206 2; 207 5; 209 1; 210 3; 
211 7; 212 17; 213 59; 214 26; 215 68; 
216 17; 217 24; 218 8; 219 2; 220 1; 
221 1; 224 1; 225 1; 226 160; 227 151; 
228 91; 229 695; 230 145; 231 590; 232 56; 
233 3; 238 2; 240 4; 241 7; 242 999; 
243 224; 244 965; 245 202; 246 22; 247 3; 
256 1; 257 2; 258 1; 259 1; 261 1; 
264 1; 270 1; 271 1; 272 2; 275 1; 
277 1; 285 6; 286 3; 287 6; 288 4; 
289 1; 290 1; 298 3; 300 3; 301 1; 
302 3; 303 1; 313 1; 314 8; 315 1; 
316 4; 318 6; 319 1; 325 6; 326 1; 
328 1; 329 1; 331 1; 332 1; 333 2; 
337 2; 342 1; 343 2; 344 3; 345 2; 
346 4; 357 39; 358 5; 359 1; 360 3; 
361 16; 362 2; 375 34; 376 7; 377 1; 
388 7; 389 1; 390 7; 391 2; 393 1; 
396 1; 398 1; 408 1; 410 1; 416 1; 
418 1; 425 1; 442 1; 455 617; 456 88; 
457 590; 458 105; 459 8; 
