Name: N-Methylphenethylamine
Synon: Benzeneethanamine, N-methyl-
Synon: Phenethylamine, N-methyl-
Synon: N-Methyl-.beta.-phenylethylamine
Synon: N-Methyl-N-(2-phenylethyl)amine
Synon: .alpha.-Phenyl-.beta.-methylaminoethane
Synon: 1-Phenyl-2-methylaminoethane
Synon: N-Methyl-.beta.-phenethylamine
Synon: N-Methyl-2-phenylethylamine
Synon: N-(Phenylethyl)methylamine
Synon: N-Methylbenzeneethanamine
Synon: N-Methyl-2-phenylethanamine #
Synon: N-Methylphenylethylamine
Synon: (2-Phenylethyl)methylamine
Synon: N-Phenethylmethylamine
Synon: NSC 113957
InChIKey: SASNBVQSOZSTPD-UHFFFAOYSA-N
Formula: C9H13N
MW: 135
ExactMass: 135.104799
CASNO: 589082
ID: 3105
Comment: Broward Sheriff Office Drug Library / Aldrich lot 06920JV
Num Peaks: 50
38 3; 39 22; 40 7; 41 8; 42 38; 
43 15; 44 999; 45 27; 50 12; 51 26; 
52 7; 53 3; 54 1; 56 3; 57 1; 
59 1; 61 1; 62 5; 63 15; 64 4; 
65 41; 66 3; 74 4; 75 3; 76 3; 
77 29; 78 12; 79 8; 80 1; 87 1; 
89 12; 90 5; 91 65; 92 9; 93 1; 
102 3; 103 13; 104 9; 105 19; 106 2; 
116 1; 117 4; 118 8; 119 8; 130 1; 
132 6; 133 4; 134 5; 135 14; 136 1; 
