Name: .gamma.-Valerolactone
Synon: gamma-Valerolactone
Synon: GVL
Synon: 2(3H)-Furanone, dihydro-5-methyl-
Synon: .gamma.-Methyl-.gamma.-butyrolactone
Synon: .gamma.-Pentalactone
Synon: Pentanoic acid, 4-hydroxy-, .gamma.-lactone
Synon: 4-Hydroxypentanoic acid lactone
Synon: 4-Hydroxyvaleric acid lactone
Synon: 4-Methyl-.gamma.-butyrolactone
Synon: 4-Pentanolide
Synon: 4-Valerolactone
Synon: .gamma.-Pentanolactone
Synon: .gamma.-Valerolakton
Synon: Dihydro-5-methyl-2(3H)-furanone
Synon: 5-Methyldihydro-2(3H)-furanone
Synon: Valeric acid, 4-hydroxy-, gamma-lactone
Synon: 5-Methyldihydrofuran-2(3H)-one
Synon: 5-methyltetrahydrofuran-2-one
Synon: Dihydro-5-methyl-2-furanone
Synon: (.+/-.)-.gamma.-Valerolactone
Synon: (.+/-.)-4-Methylbutyrolactone
Synon: 5-Methyltetrahydro-2-furanone
Synon: NSC 33700
Synon: Valeric acid, 4-hydroxy-, .gamma.-lactone
InChIKey: GAEKPEKOJKCEMS-UHFFFAOYSA-N
Formula: C5H8O2
MW: 100
ExactMass: 100.0524297
CASNO: 108292
ID: 3109
Comment: Broward Sheriff Office Drug Library / Steraloids lot H536
Num Peaks: 36
36 1; 37 11; 38 19; 39 126; 40 31; 
41 419; 42 70; 43 290; 44 33; 45 44; 
46 1; 49 6; 50 21; 51 18; 52 6; 
53 25; 54 14; 55 116; 56 999; 57 134; 
58 5; 59 3; 69 1; 70 1; 71 14; 
72 1; 81 3; 83 1; 84 1; 85 542; 
86 24; 87 2; 88 1; 99 44; 100 88; 
101 11; 
