Name: Ecgonine Methyl Ester
InChIKey: QIQNNBXHAYSQRY-UHFFFAOYSA-N
Synon: Methyl 3-hydroxy-8-methyl-8-azabicyclo[3.2.1]octane-2-carboxylate
Synon: Methyl ecgonine
Formula: C10H17NO3
MW: 199
ExactMass: 199.120843
CASNO: 106293601
ID: 3110
Comment: Broward Sheriff Office Drug Library / Alltech lot 5201
Num Peaks: 119
38 4; 39 68; 40 15; 41 103; 42 353; 
43 62; 44 47; 45 12; 50 3; 51 13; 
52 12; 53 57; 54 53; 55 160; 56 79; 
57 75; 58 33; 59 37; 60 2; 61 2; 
62 1; 63 3; 64 1; 65 21; 66 15; 
67 65; 68 105; 69 46; 70 55; 71 47; 
72 6; 73 1; 74 2; 76 2; 77 18; 
78 11; 79 28; 80 47; 81 75; 82 999; 
83 495; 84 98; 85 10; 86 32; 87 4; 
91 20; 92 7; 93 28; 94 358; 95 45; 
96 771; 97 364; 98 50; 99 6; 100 45; 
101 4; 102 1; 103 2; 104 1; 105 1; 
106 5; 107 9; 108 27; 109 8; 110 59; 
111 11; 112 116; 113 11; 114 7; 115 3; 
116 11; 117 1; 118 5; 119 8; 120 12; 
121 4; 122 46; 123 10; 124 36; 125 5; 
126 23; 127 2; 128 6; 129 1; 132 1; 
134 1; 135 2; 136 8; 137 2; 138 28; 
139 4; 140 77; 141 7; 142 9; 143 1; 
144 2; 148 2; 150 3; 152 20; 153 2; 
154 19; 155 49; 156 21; 157 2; 166 10; 
167 2; 168 99; 169 10; 170 23; 171 7; 
180 1; 181 1; 182 58; 183 6; 184 6; 
198 2; 199 98; 200 12; 201 1; 
