Name: 4-Methylethcathinone HFBA Derivative
Synon: 4-MEC HFBA Derivative
InChIKey: BVKVAELRAIEBNU-UHFFFAOYSA-N
Formula: C16H16F7NO2
MW: 387
ExactMass: 387.106926
CASNO: 0
ID: 3113
Comment: Broward Sheriff Office Drug Library
Num Peaks: 104
38 1; 39 20; 40 2; 41 13; 42 29; 
43 6; 44 5; 45 19; 47 9; 50 7; 
51 19; 52 3; 53 2; 54 5; 55 12; 
56 51; 57 2; 62 4; 63 18; 64 6; 
65 98; 66 7; 68 2; 69 63; 70 36; 
71 6; 72 2; 73 1; 74 1; 75 1; 
76 3; 77 9; 78 5; 79 2; 87 1; 
89 28; 90 16; 91 253; 92 27; 93 4; 
98 3; 100 8; 101 1; 102 2; 103 5; 
104 4; 105 6; 109 5; 115 6; 116 2; 
117 11; 119 999; 120 91; 121 6; 123 1; 
128 1; 129 2; 130 2; 131 8; 132 1; 
133 5; 142 4; 143 1; 144 2; 145 5; 
146 10; 147 4; 148 18; 149 2; 150 1; 
151 2; 158 1; 159 3; 160 1; 166 2; 
169 53; 170 1; 172 1; 174 20; 175 3; 
176 1; 189 1; 190 1; 192 12; 193 3; 
196 10; 197 1; 202 1; 213 1; 217 3; 
218 3; 220 1; 222 1; 224 5; 226 2; 
234 1; 239 1; 240 107; 241 9; 249 1; 
266 1; 268 277; 269 25; 270 1; 
