Name: 3,4-Methylenedioxyethylamphetamine HFBA Derivative
Synon: MDEA HFBA Derivative
InChIKey: JQMBNVAXVHWHOK-UHFFFAOYSA-N
Formula: C16H16F7NO3
MW: 403
ExactMass: 403.101841
CASNO: 0
ID: 3115
Comment: Broward Sheriff Office Drug Library / Sigma lot 046K4048
Num Peaks: 143
38 4; 39 30; 40 13; 41 16; 42 62; 
43 16; 44 19; 45 53; 46 1; 47 24; 
50 21; 51 127; 52 23; 53 20; 54 10; 
55 13; 56 129; 57 6; 58 1; 61 1; 
62 10; 63 25; 64 9; 65 27; 66 6; 
67 7; 68 4; 69 126; 70 83; 71 14; 
72 9; 73 2; 74 3; 75 9; 76 21; 
77 233; 78 71; 79 57; 80 5; 81 3; 
87 1; 88 2; 89 27; 90 10; 91 26; 
92 22; 93 8; 94 1; 95 2; 96 1; 
98 3; 100 13; 101 2; 102 15; 103 73; 
104 57; 105 127; 106 24; 107 4; 108 2; 
109 14; 115 5; 116 4; 117 6; 118 5; 
119 29; 120 4; 121 16; 122 10; 123 3; 
128 1; 129 1; 130 4; 131 57; 132 23; 
133 36; 134 23; 135 630; 136 81; 137 7; 
142 12; 145 3; 146 9; 147 22; 148 17; 
149 7; 150 2; 151 1; 159 5; 160 8; 
161 41; 162 910; 163 202; 164 18; 165 1; 
166 5; 169 144; 170 4; 172 1; 174 2; 
175 1; 176 2; 177 2; 178 3; 180 1; 
187 1; 189 1; 190 3; 191 2; 192 28; 
193 8; 194 2; 196 22; 197 2; 205 8; 
206 4; 210 1; 213 3; 218 3; 220 2; 
222 2; 224 9; 226 3; 234 2; 238 1; 
240 352; 241 24; 242 1; 249 1; 263 1; 
264 1; 266 1; 267 1; 268 999; 269 95; 
270 5; 271 1; 359 2; 388 1; 402 3; 
403 104; 404 18; 405 2; 
