Name: Ephedrine HFBA Derivative
InChIKey: OQHSMAJCESLEEN-UHFFFAOYSA-N
Formula: C14H14F7NO2
MW: 361
ExactMass: 361.091276
CASNO: 0
ID: 3116
Comment: Broward Sheriff Office Drug Library
Num Peaks: 154
29 59; 30 19; 31 15; 32 4; 37 1; 
38 6; 39 53; 40 9; 41 18; 42 584; 
43 83; 44 14; 45 23; 47 23; 49 1; 
50 53; 51 205; 52 53; 53 36; 54 22; 
55 51; 56 311; 57 289; 58 429; 59 18; 
60 2; 61 2; 62 13; 63 39; 64 11; 
65 38; 66 6; 67 2; 68 7; 69 340; 
70 17; 71 4; 72 2; 73 4; 74 12; 
75 14; 76 21; 77 641; 78 152; 79 575; 
80 38; 81 8; 82 2; 84 12; 85 2; 
86 749; 87 39; 88 32; 89 44; 90 21; 
91 124; 92 22; 93 14; 94 2; 95 2; 
96 2; 97 1; 98 1; 100 53; 101 5; 
102 10; 103 30; 104 17; 105 269; 106 45; 
107 411; 108 35; 109 29; 110 2; 112 1; 
113 2; 114 2; 115 86; 116 36; 117 97; 
118 33; 119 59; 120 6; 121 1; 122 2; 
123 1; 127 2; 128 2; 129 1; 130 17; 
131 49; 132 32; 133 64; 134 39; 135 32; 
136 169; 137 12; 138 1; 139 1; 142 4; 
144 6; 145 5; 146 74; 147 21; 148 44; 
149 5; 150 9; 151 9; 158 3; 159 8; 
160 5; 162 1; 163 2; 166 4; 169 258; 
170 9; 172 1; 173 1; 174 2; 176 4; 
178 2; 180 10; 188 1; 191 6; 192 15; 
193 2; 196 3; 197 1; 198 1; 206 1; 
208 59; 210 426; 211 24; 212 1; 216 2; 
220 6; 222 1; 226 3; 227 1; 228 2; 
234 1; 235 3; 236 9; 240 291; 241 18; 
242 1; 250 1; 252 5; 254 938; 255 999; 
256 76; 257 5; 275 1; 343 1; 
