Name: 3,4-Methylenedioxyamphetamine HFBA Derivative
Synon: MDA HFBA Derivative
InChIKey: HIHQJXYXAUVMOH-UHFFFAOYSA-N
Formula: C14H12F7NO3
MW: 375
ExactMass: 375.070541
CASNO: 0
ID: 3117
Comment: Broward Sheriff Office Drug Library / Sigma lot 036K4031
Num Peaks: 101
38 3; 39 19; 40 4; 41 7; 42 21; 
43 10; 44 14; 45 12; 47 8; 50 19; 
51 91; 52 15; 53 12; 54 1; 55 3; 
61 1; 62 6; 63 16; 64 5; 65 16; 
66 5; 67 3; 69 91; 70 6; 73 2; 
74 4; 75 5; 76 13; 77 158; 78 46; 
79 44; 80 5; 88 1; 89 10; 90 4; 
91 11; 92 11; 93 5; 94 1; 100 12; 
101 1; 102 8; 103 32; 104 35; 105 77; 
106 16; 107 5; 108 1; 109 10; 115 1; 
116 2; 117 3; 118 4; 119 21; 120 3; 
121 10; 122 7; 123 1; 130 1; 131 32; 
132 16; 133 15; 134 13; 135 999; 136 118; 
137 10; 142 4; 145 1; 146 5; 147 10; 
148 6; 149 1; 150 1; 152 1; 159 2; 
160 2; 161 21; 162 433; 163 89; 164 9; 
166 2; 169 66; 170 2; 177 2; 190 1; 
192 6; 193 1; 194 1; 196 1; 206 1; 
240 51; 241 3; 263 1; 296 2; 308 1; 
359 1; 360 1; 374 2; 375 157; 376 25; 
377 3; 
