Name: Methamphetamine HFBA Derivative
InChIKey: WRGPIHJTEFMXOA-UHFFFAOYSA-N
Formula: C14H14F7NO
MW: 345
ExactMass: 345.096361
CASNO: 0
ID: 3118
Comment: Broward Sheriff Office Drug Library
Num Peaks: 104
37 1; 38 6; 39 99; 40 11; 41 78; 
42 600; 43 17; 44 11; 47 21; 50 22; 
51 71; 52 18; 53 6; 54 12; 55 14; 
56 235; 57 196; 58 50; 59 2; 60 2; 
61 1; 62 10; 63 40; 64 13; 65 140; 
66 10; 67 1; 68 1; 69 194; 70 6; 
71 2; 74 5; 75 5; 76 7; 77 52; 
78 33; 79 12; 80 2; 81 2; 84 5; 
85 1; 86 1; 87 2; 88 6; 89 38; 
90 16; 91 530; 92 53; 93 3; 100 19; 
101 2; 102 11; 103 26; 104 9; 105 5; 
106 1; 107 6; 109 16; 110 1; 113 1; 
115 77; 116 22; 117 144; 118 709; 119 177; 
120 14; 122 1; 128 1; 130 5; 131 14; 
132 12; 133 13; 134 2; 135 4; 142 1; 
144 1; 145 1; 146 4; 147 7; 148 10; 
150 2; 158 1; 159 2; 160 4; 166 1; 
169 126; 170 5; 176 7; 177 1; 178 1; 
180 2; 192 4; 208 2; 210 277; 211 14; 
220 3; 226 1; 235 1; 252 1; 253 2; 
254 999; 255 76; 256 4; 330 1; 
