Name: TFMPP HFBA Derivative
Synon: 1-[3-(Trifluoromethyl)phenyl]piperazine HFBA Derivative
InChIKey: QYEZSMYEDWQUDH-UHFFFAOYSA-N
Formula: C15H12F10N2O
MW: 426
ExactMass: 426.078995
CASNO: 0
ID: 3120
Comment: Broward Sheriff Office Drug Library
Num Peaks: 207
37 1; 38 3; 39 11; 40 6; 41 35; 
42 133; 43 7; 44 5; 45 1; 47 1; 
50 17; 51 23; 52 6; 53 3; 54 46; 
55 77; 56 691; 57 44; 58 10; 59 1; 
62 5; 63 18; 64 6; 65 7; 66 2; 
67 4; 68 11; 69 392; 70 49; 71 3; 
72 3; 73 1; 74 11; 75 54; 76 23; 
77 31; 78 29; 79 2; 80 2; 81 15; 
82 4; 83 11; 84 22; 85 2; 86 1; 
87 3; 88 7; 89 9; 90 12; 91 13; 
92 4; 93 4; 94 5; 95 79; 96 16; 
97 1; 98 1; 99 9; 100 57; 101 10; 
102 7; 103 6; 104 11; 105 6; 106 3; 
107 16; 108 5; 109 64; 110 4; 111 1; 
112 3; 113 8; 114 24; 115 8; 116 4; 
117 29; 118 13; 119 83; 120 6; 121 5; 
122 1; 123 1; 125 64; 126 46; 127 72; 
129 79; 130 18; 131 23; 132 13; 133 16; 
134 9; 135 2; 137 1; 138 4; 139 8; 
140 10; 141 8; 142 3; 143 11; 145 581; 
146 58; 147 3; 148 5; 149 1; 150 5; 
151 8; 152 8; 153 7; 154 24; 155 6; 
156 1; 157 2; 159 250; 160 30; 161 5; 
162 2; 163 1; 165 2; 166 46; 167 5; 
169 173; 170 9; 172 693; 173 739; 174 136; 
175 11; 176 1; 177 1; 178 6; 179 4; 
180 13; 181 5; 182 2; 183 1; 184 3; 
185 15; 186 38; 187 298; 188 124; 189 12; 
190 1; 192 5; 193 2; 194 1; 195 1; 
196 3; 197 4; 198 17; 200 999; 201 119; 
202 78; 203 10; 204 1; 206 3; 207 4; 
208 2; 209 3; 210 14; 211 3; 212 17; 
213 21; 214 12; 215 8; 216 1; 220 2; 
225 4; 226 9; 227 34; 228 54; 229 702; 
230 88; 231 4; 234 1; 238 1; 239 4; 
240 11; 241 1; 252 7; 253 6; 254 1; 
255 1; 257 26; 258 4; 260 1; 267 2; 
279 4; 281 1; 290 2; 291 3; 307 2; 
357 3; 382 3; 384 39; 385 7; 387 9; 
388 2; 405 3; 407 156; 408 29; 409 3; 
411 3; 424 4; 425 48; 426 525; 427 95; 
428 7; 429 1; 
