Name: Amphetamine HFBA Derivative
InChIKey: WRXHKYHBKGCSAA-UHFFFAOYSA-N
Formula: C13H12F7NO
MW: 331
ExactMass: 331.080711
CASNO: 0
ID: 3124
Comment: Broward Sheriff Office Drug Library / Sigma lot 41H0145
Num Peaks: 95
37 1; 38 5; 39 72; 40 10; 41 49; 
42 55; 43 43; 44 29; 45 110; 46 4; 
47 40; 48 1; 50 19; 51 56; 52 16; 
53 5; 54 2; 55 1; 56 1; 58 15; 
59 3; 61 1; 62 9; 63 35; 64 11; 
65 139; 66 11; 67 1; 69 155; 70 17; 
71 1; 73 1; 74 7; 75 3; 76 5; 
77 33; 78 19; 79 6; 81 7; 86 1; 
87 1; 88 1; 89 33; 90 16; 91 538; 
92 114; 93 12; 95 1; 100 17; 101 1; 
102 9; 103 22; 104 8; 105 2; 107 1; 
108 1; 109 14; 110 1; 113 1; 115 54; 
116 17; 117 157; 118 999; 119 179; 120 11; 
121 6; 123 1; 124 1; 127 1; 128 2; 
130 2; 131 5; 132 2; 133 4; 134 1; 
142 9; 146 5; 147 1; 150 1; 152 2; 
159 2; 162 1; 166 4; 169 102; 170 3; 
192 17; 193 5; 194 1; 196 4; 213 2; 
221 1; 240 357; 241 24; 242 1; 316 2; 
