Name: 3,4-Methylenedioxymethcathinone HFBA Derivative
Synon: Methylone HFBA Derivative
InChIKey: FPXBXGADUZTJGC-UHFFFAOYSA-N
Formula: C15H12F7NO4
MW: 403
ExactMass: 403.065454
CASNO: 0
ID: 3125
Comment: Broward Sheriff Office Drug Library
Num Peaks: 87
37 1; 38 1; 39 9; 40 1; 41 2; 
42 62; 43 2; 44 1; 47 2; 50 5; 
51 10; 52 1; 53 8; 54 3; 55 10; 
56 49; 57 29; 58 13; 60 1; 61 3; 
62 20; 63 68; 64 9; 65 113; 66 7; 
69 69; 70 1; 74 6; 75 2; 76 2; 
77 4; 78 4; 79 4; 81 1; 84 1; 
88 1; 89 3; 90 2; 91 48; 92 8; 
93 1; 95 1; 100 9; 103 1; 104 1; 
107 2; 109 4; 117 2; 118 1; 119 23; 
120 11; 121 123; 122 11; 123 1; 131 3; 
132 1; 135 6; 146 1; 147 3; 149 999; 
150 95; 151 10; 159 1; 160 17; 161 2; 
162 1; 169 45; 170 1; 175 1; 176 1; 
177 1; 178 2; 180 1; 189 1; 190 6; 
191 1; 192 1; 210 84; 211 4; 218 1; 
220 1; 234 1; 254 148; 255 12; 299 1; 
403 16; 404 2; 
