Name: 3,4,Methylenedioxymethamphetamine HFBA Derivative
Synon: MDMA HFBA Derivative
InChIKey: ZGHICVNRTPSTFX-UHFFFAOYSA-N
Formula: C15H14F7NO3
MW: 389
ExactMass: 389.086191
CASNO: 0
ID: 3126
Comment: Broward Sheriff Office Drug Library
Num Peaks: 120
37 1; 38 7; 39 57; 40 7; 41 25; 
42 538; 43 18; 44 3; 46 1; 47 17; 
50 41; 51 217; 52 30; 53 32; 54 12; 
55 24; 56 251; 57 170; 58 56; 59 3; 
60 2; 61 1; 62 16; 63 38; 64 13; 
65 37; 66 8; 67 10; 68 2; 69 207; 
70 5; 71 4; 73 4; 74 6; 75 8; 
76 24; 77 273; 78 76; 79 54; 80 7; 
81 5; 84 4; 88 4; 89 23; 90 8; 
91 25; 92 9; 93 5; 94 2; 95 5; 
100 19; 101 3; 102 13; 103 65; 104 48; 
105 99; 106 23; 107 9; 108 1; 109 15; 
110 4; 115 4; 116 3; 117 6; 118 8; 
119 31; 120 4; 121 13; 122 11; 123 1; 
128 1; 129 1; 130 3; 131 45; 132 19; 
133 34; 134 24; 135 791; 136 103; 137 9; 
145 2; 146 5; 147 17; 148 13; 149 2; 
150 2; 151 1; 159 3; 160 12; 161 37; 
162 999; 163 200; 164 20; 165 1; 166 3; 
169 144; 170 5; 174 1; 175 1; 176 3; 
177 3; 178 2; 180 2; 190 1; 191 7; 
192 6; 198 1; 204 4; 208 1; 210 247; 
211 12; 220 5; 226 1; 254 676; 255 54; 
256 2; 263 1; 388 1; 389 60; 390 10; 
