Name: DOB HFBA Derivative
Synon: 2,5-Dimethoxy-4-bromoamphetamine HFBA Derivative
InChIKey: PSQBFPVVLIIMFH-UHFFFAOYSA-N
Formula: C15H15BrF7NO3
MW: 469
ExactMass: 469.012354
CASNO: 0
ID: 3128
Comment: Broward Sheriff Office Drug Library / Sigma lot 110H4004
Num Peaks: 211
38 11; 39 86; 40 26; 41 118; 42 129; 
43 152; 44 96; 45 124; 46 5; 47 69; 
49 3; 50 52; 51 121; 52 29; 53 141; 
54 26; 55 118; 56 24; 57 98; 58 8; 
59 8; 60 3; 61 4; 62 23; 63 94; 
64 65; 65 92; 66 25; 67 74; 68 17; 
69 522; 70 45; 71 34; 72 3; 74 27; 
75 44; 76 61; 77 372; 78 89; 79 142; 
80 27; 81 76; 82 26; 83 58; 84 9; 
85 24; 86 4; 87 6; 88 10; 89 121; 
90 160; 91 296; 92 161; 93 69; 94 22; 
95 81; 96 29; 97 68; 98 8; 99 6; 
100 35; 101 8; 102 34; 103 64; 104 44; 
105 287; 106 66; 107 79; 108 45; 109 84; 
110 28; 111 49; 112 15; 113 9; 114 61; 
115 79; 117 53; 118 37; 119 159; 120 170; 
121 109; 122 166; 123 66; 124 17; 125 26; 
126 8; 127 7; 128 27; 129 24; 130 19; 
131 84; 132 58; 133 55; 134 40; 135 140; 
136 29; 137 33; 138 9; 139 13; 140 5; 
141 11; 142 31; 143 78; 144 15; 145 85; 
146 45; 147 97; 148 64; 149 60; 150 161; 
151 57; 152 21; 153 7; 154 8; 155 13; 
156 17; 157 39; 158 16; 159 33; 160 13; 
161 61; 162 308; 163 68; 164 15; 165 15; 
166 14; 167 6; 168 13; 169 425; 170 28; 
171 72; 172 17; 173 30; 174 8; 175 11; 
176 33; 177 35; 178 55; 179 21; 180 3; 
181 5; 182 4; 183 8; 184 29; 185 20; 
186 57; 187 23; 188 34; 189 16; 190 4; 
191 3; 192 36; 193 16; 194 11; 195 5; 
196 17; 197 10; 198 11; 199 277; 200 35; 
201 268; 202 26; 203 23; 208 3; 210 6; 
211 6; 212 3; 213 17; 214 23; 215 54; 
216 23; 217 55; 218 9; 219 3; 223 3; 
224 4; 225 7; 226 16; 227 25; 228 14; 
229 999; 230 140; 231 951; 232 131; 233 7; 
238 4; 239 5; 240 477; 241 75; 242 22; 
243 25; 244 19; 245 3; 247 3; 256 802; 
257 152; 258 804; 259 157; 260 21; 261 4; 
339 4; 360 3; 370 4; 371 4; 375 7; 
389 9; 469 224; 470 52; 471 244; 472 40; 
473 3; 
