Name: 2-Fluoromethamphetamine HFBA Derivative
Synon: 2-FMA HFBA Derivative
InChIKey: BCVACGBMFMSHHX-UHFFFAOYSA-N
Formula: C14H13F8NO
MW: 363
ExactMass: 363.086939
CASNO: 0
ID: 3129
Comment: Broward Sheriff Office Drug Library / Cayman lot 0435547-3
Num Peaks: 129
38 1; 39 27; 40 4; 41 23; 42 303; 
43 9; 44 1; 47 10; 50 8; 51 15; 
52 3; 53 1; 54 8; 55 11; 56 147; 
57 135; 58 26; 59 12; 60 2; 61 1; 
62 6; 63 26; 64 3; 65 6; 66 1; 
67 1; 68 4; 69 156; 70 12; 71 1; 
74 3; 75 15; 76 3; 77 8; 78 10; 
79 1; 80 2; 81 12; 82 5; 83 98; 
84 9; 86 1; 87 3; 88 4; 89 18; 
90 2; 91 12; 92 4; 93 2; 94 4; 
95 6; 96 16; 97 5; 98 1; 99 1; 
100 16; 101 18; 102 4; 103 7; 104 4; 
105 1; 106 1; 107 35; 108 12; 109 438; 
110 34; 111 1; 113 1; 114 1; 115 46; 
116 11; 117 3; 118 1; 119 23; 120 7; 
121 11; 122 8; 123 3; 127 2; 128 2; 
130 1; 131 9; 132 3; 133 32; 134 12; 
135 70; 136 154; 137 67; 138 5; 139 1; 
142 1; 144 1; 145 1; 146 2; 147 1; 
148 2; 149 3; 150 6; 151 12; 152 1; 
159 3; 160 2; 162 1; 164 2; 165 3; 
166 12; 167 1; 169 126; 170 6; 178 1; 
180 4; 192 6; 194 11; 195 1; 198 1; 
206 1; 208 5; 210 337; 211 18; 220 4; 
226 1; 228 1; 235 2; 251 1; 254 999; 
255 82; 256 4; 344 1; 348 1; 
