Name: 3,4-Dihydroxymethamphetamine
Synon: HHMA
Synon: DHMA
InChIKey: NTCPGTZTPGFNOM-UHFFFAOYSA-N
Formula: C10H15NO2
MW: 181
ExactMass: 181.110279
CASNO: 0
ID: 3131
Comment: AAFS
Num Peaks: 76
42 29; 43 17; 44 5; 50 6; 51 40; 
52 7; 53 9; 54 4; 55 11; 56 49; 
57 18; 58 999; 59 46; 60 5; 62 3; 
63 7; 64 3; 65 11; 66 8; 67 4; 
68 1; 69 1; 70 2; 71 2; 74 2; 
75 3; 76 3; 77 54; 78 10; 79 6; 
80 1; 81 3; 82 1; 83 2; 89 4; 
90 1; 91 5; 92 1; 93 2; 94 5; 
95 2; 102 2; 103 8; 104 4; 105 9; 
106 2; 107 5; 108 1; 109 1; 110 3; 
117 1; 118 1; 119 1; 120 1; 121 1; 
122 2; 123 58; 124 9; 131 3; 132 2; 
133 2; 134 1; 135 1; 136 3; 137 1; 
146 1; 148 1; 149 1; 150 2; 151 4; 
164 2; 165 2; 166 7; 179 1; 180 3; 
181 1; 
