Name: RCS-8 4-methoxy isomer
Synon: 1-(1-(2-cyclohexylethyl)-1H-indol-3-yl)-2-(4-methoxyphenyl)ethanone
InChIKey: NOIUUSTZQAOQAS-UHFFFAOYSA-N
Formula: C25H29NO2
MW: 375
ExactMass: 375.21983
CASNO: 0
ID: 3133
Comment: Provided by www.caymanchem.com/app/template/landing%2CForensic.vm / Item #10863  Lot #0429788
Num Peaks: 94
41 27; 42 1; 43 4; 51 2; 52 2; 
53 5; 55 47; 56 2; 57 2; 63 2; 
65 3; 67 6; 69 40; 70 2; 75 1; 
76 2; 77 15; 78 15; 79 4; 81 3; 
83 3; 88 2; 89 10; 90 3; 91 7; 
92 1; 101 3; 102 16; 103 9; 104 1; 
105 1; 106 2; 107 1; 114 3; 115 18; 
116 29; 117 4; 118 1; 121 68; 122 7; 
127 1; 128 13; 129 36; 130 36; 131 5; 
132 1; 135 3; 139 1; 140 1; 141 1; 
143 27; 144 144; 145 15; 146 1; 152 1; 
154 2; 156 2; 157 7; 158 25; 159 3; 
165 1; 167 2; 168 2; 170 8; 171 1; 
178 1; 182 1; 191 2; 192 2; 193 1; 
198 1; 204 3; 205 1; 206 1; 217 1; 
218 1; 219 1; 220 1; 221 1; 226 1; 
234 1; 236 1; 248 1; 250 3; 251 1; 
252 4; 254 999; 255 190; 256 19; 257 1; 
278 4; 279 1; 375 16; 376 4; 
