Name: 4'-Methoxy-.alpha.-pyrrolidinopropiophenone
Synon: MOPPP
Synon: 1-(4-methoxyphenyl)-2-(pyrrolidin-1-yl)propan-1-one
InChIKey: QJWOQBGBEFNYKB-UHFFFAOYSA-N
Formula: C14H19NO2
MW: 233
ExactMass: 233.141579
CASNO: 0
ID: 3134
Comment: Provided by www.caymanchem.com/app/template/landing%2CForensic.vm / Item #10449  Lot #0431252
Num Peaks: 67
41 23; 42 20; 43 4; 44 17; 50 6; 
51 6; 52 1; 53 7; 54 19; 55 41; 
56 107; 57 4; 62 2; 63 15; 64 24; 
65 5; 66 2; 67 2; 68 8; 69 30; 
70 17; 71 1; 74 2; 75 2; 76 8; 
77 51; 78 6; 79 4; 80 1; 81 1; 
82 1; 89 1; 90 1; 91 7; 92 42; 
93 3; 94 2; 96 21; 98 999; 99 78; 
100 2; 103 3; 104 1; 105 3; 107 13; 
108 2; 119 1; 120 2; 121 4; 133 1; 
135 41; 136 4; 146 1; 147 1; 161 2; 
162 1; 163 2; 164 1; 190 1; 202 1; 
204 1; 218 1; 230 1; 231 1; 232 1; 
233 1; 234 1; 
