Name: XLR11 N-(4-pentenyl) analog
InChIKey: NXTLUQFOTQPMOD-UHFFFAOYSA-N
Formula: C21H27NO
MW: 309
ExactMass: 309.209265
CASNO: 0
ID: 3140
Comment: Provided by www.caymanchem.com/app/template/landing%2CForensic.vm / Item #11688  Lot #0437919
Num Peaks: 159
41 141; 42 8; 43 19; 50 1; 51 5; 
52 3; 53 17; 55 59; 56 3; 57 9; 
58 1; 59 4; 62 2; 63 6; 65 8; 
66 2; 67 15; 68 2; 69 35; 70 2; 
73 1; 74 2; 75 5; 76 5; 77 18; 
78 5; 79 11; 81 30; 82 2; 83 40; 
84 4; 85 1; 87 1; 88 5; 89 25; 
90 6; 91 5; 93 1; 95 2; 96 2; 
97 6; 99 1; 101 10; 102 27; 103 15; 
104 3; 106 2; 109 25; 110 3; 113 24; 
114 10; 115 43; 116 56; 117 14; 118 6; 
119 6; 120 8; 125 4; 126 6; 127 9; 
128 30; 129 30; 130 65; 131 18; 132 3; 
133 1; 139 4; 140 6; 141 6; 142 6; 
143 41; 144 147; 145 16; 146 1; 151 1; 
152 5; 153 5; 154 22; 155 7; 156 12; 
157 9; 158 23; 159 2; 164 1; 165 3; 
166 8; 167 31; 168 25; 169 7; 170 40; 
171 8; 172 5; 173 2; 177 1; 178 2; 
180 52; 181 29; 182 33; 183 25; 184 14; 
185 18; 186 14; 187 1; 191 1; 192 3; 
194 104; 195 22; 196 39; 197 10; 198 8; 
199 3; 204 1; 205 1; 206 3; 207 6; 
208 15; 209 6; 210 49; 212 999; 213 159; 
214 17; 215 1; 220 1; 221 2; 222 3; 
223 3; 224 14; 225 3; 226 34; 227 22; 
228 3; 234 2; 235 1; 236 16; 237 3; 
238 5; 239 3; 240 2; 248 1; 250 24; 
251 14; 252 7; 254 10; 255 2; 256 1; 
264 1; 266 16; 267 4; 268 11; 269 2; 
279 3; 281 1; 292 3; 294 82; 295 20; 
296 2; 309 61; 310 12; 311 3; 
