Name: JWH-122 N-(4-pentenyl) analog
Synon: MAM2201 N-(4-pentenyl) analog
Synon: JWH-022 4-methylnaphthyl analog
Synon: (4-methylnaphthalen-1-yl)(1-(pent-4-en-1-yl)-1H-indol-3-yl)methanone
InChIKey: FJRCMNJZLRNCND-UHFFFAOYSA-N
Formula: C25H23NO
MW: 353
ExactMass: 353.177965
CASNO: 0
ID: 3141
Comment: Provided by www.caymanchem.com/app/template/landing%2CForensic.vm / Item #11611  Lot #0437478
Num Peaks: 171
40 9; 41 219; 42 9; 51 7; 53 12; 
54 6; 55 12; 62 6; 63 18; 65 15; 
67 11; 69 42; 73 2; 74 7; 75 18; 
76 9; 77 17; 78 11; 87 6; 88 13; 
89 62; 90 8; 91 19; 101 28; 102 63; 
103 19; 104 5; 107 6; 108 4; 113 26; 
114 23; 115 351; 116 132; 117 25; 118 4; 
119 13; 120 13; 121 23; 122 10; 126 20; 
127 69; 128 100; 129 78; 130 85; 131 15; 
134 36; 135 45; 136 28; 139 138; 140 57; 
141 422; 143 47; 144 255; 145 31; 146 12; 
147 10; 149 157; 151 9; 152 18; 153 22; 
154 22; 155 23; 156 27; 157 8; 158 31; 
161 4; 163 8; 165 16; 166 7; 167 12; 
169 999; 170 198; 171 28; 177 15; 178 5; 
179 7; 181 173; 182 39; 183 13; 184 161; 
185 21; 187 6; 188 5; 189 12; 191 3; 
193 6; 195 5; 198 11; 199 4; 200 11; 
201 12; 202 23; 203 5; 207 10; 208 5; 
210 5; 211 11; 212 492; 213 112; 214 34; 
215 16; 216 6; 224 16; 225 16; 226 66; 
227 34; 228 40; 229 19; 230 5; 237 12; 
238 17; 239 30; 240 70; 241 133; 242 50; 
243 8; 251 15; 252 22; 253 51; 254 201; 
255 117; 256 40; 257 15; 264 6; 265 9; 
266 30; 267 53; 268 112; 269 101; 270 104; 
271 23; 272 6; 278 5; 279 6; 280 34; 
281 40; 282 93; 283 129; 284 204; 285 48; 
286 9; 294 30; 295 15; 296 81; 297 52; 
298 478; 299 156; 300 22; 301 4; 308 11; 
310 173; 311 41; 312 36; 313 6; 320 7; 
322 13; 323 12; 324 35; 325 13; 327 4; 
331 4; 334 9; 336 181; 337 42; 338 54; 
339 12; 352 202; 353 677; 354 197; 355 24; 
356 5; 
