Name: Methylsynephrine
Synon: Benzyl alcohol, p-hydroxy-.alpha.-(1-(methylamino)ethyl)-
Synon: Hydroxyephedrine
Synon: p-Hydroxyephedrine
Synon: 4-Hydroxyephedrine
Synon: Methylsympatol
Synon: p-Oxy-ephedrin
Synon: Oxyephedrine
Synon: Suprifen
Synon: Suprifene
Synon: Supriphen
Synon: 4-[1-Hydroxy-2-(methylamino)propyl]phenol #
Synon: Ephedrine, p-hydroxy-
Synon: Oxilofrine
InChIKey: OXFGTKPPFSCSMA-UHFFFAOYSA-N
Formula: C10H15NO2
MW: 181
ExactMass: 181.110279
CASNO: 365264
ID: 3148
Comment: DEA SWL
Num Peaks: 70
37 1; 38 4; 39 23; 40 6; 41 13; 
42 43; 43 19; 44 13; 50 6; 51 17; 
52 6; 53 9; 54 5; 55 11; 56 87; 
57 29; 58 999; 59 34; 60 1; 61 1; 
62 2; 63 8; 64 3; 65 25; 66 8; 
67 3; 68 1; 74 2; 75 2; 76 1; 
77 46; 78 8; 79 4; 89 1; 91 7; 
92 1; 93 10; 94 6; 95 15; 96 1; 
103 5; 104 2; 105 7; 106 1; 107 15; 
108 1; 115 2; 116 1; 117 1; 118 1; 
119 2; 120 3; 121 32; 122 10; 123 13; 
124 1; 131 2; 132 2; 133 15; 134 14; 
135 1; 146 2; 147 5; 148 14; 149 2; 
150 1; 160 1; 162 13; 163 8; 164 1; 
