Name: JWH-408
Synon: 1-Pentyl-3-(6-methoxy-2-naphthoyl)indole
InChIKey: FOZSPMNPUXYIHT-UHFFFAOYSA-N
Formula: C25H25NO2
MW: 371
ExactMass: 371.18853
CASNO: 0
ID: 3149
Comment: ForensicDB Entry 3111
Num Peaks: 179
51 1; 53 1; 55 3; 63 4; 64 1; 
65 1; 67 1; 73 4; 75 3; 76 2; 
77 4; 78 1; 87 2; 88 7; 89 13; 
90 1; 94 1; 95 1; 96 1; 100 1; 
101 8; 102 13; 103 3; 106 1; 107 1; 
108 2; 109 1; 113 11; 114 58; 115 25; 
116 40; 117 4; 120 2; 121 6; 122 3; 
125 1; 126 11; 127 23; 128 44; 129 28; 
130 23; 131 2; 133 1; 134 1; 135 1; 
136 10; 137 2; 139 1; 140 1; 141 1; 
142 44; 144 136; 145 10; 146 1; 147 1; 
149 1; 150 1; 151 1; 152 1; 153 1; 
154 3; 155 3; 156 11; 157 142; 158 13; 
159 3; 164 1; 167 1; 168 1; 169 1; 
170 11; 171 2; 172 9; 175 2; 176 1; 
177 1; 183 1; 184 5; 185 241; 186 85; 
187 12; 188 1; 189 1; 191 1; 192 1; 
194 1; 197 1; 198 2; 199 1; 200 7; 
201 7; 202 14; 203 2; 207 9; 208 1; 
209 2; 210 1; 211 1; 212 2; 213 5; 
214 391; 215 54; 216 6; 219 1; 225 1; 
226 3; 227 6; 228 14; 229 32; 230 14; 
231 1; 238 1; 239 1; 240 6; 241 15; 
242 18; 243 13; 244 3; 245 1; 249 1; 
252 1; 253 1; 254 13; 255 4; 256 5; 
257 8; 258 5; 259 1; 267 1; 269 3; 
270 8; 271 10; 272 42; 273 5; 274 1; 
281 2; 282 1; 283 4; 284 5; 285 3; 
286 15; 287 4; 296 1; 297 2; 298 3; 
299 4; 300 12; 301 5; 302 1; 303 1; 
312 2; 313 1; 314 294; 315 95; 316 11; 
317 1; 323 1; 325 1; 326 1; 327 1; 
328 15; 329 2; 338 1; 340 4; 341 2; 
342 4; 343 9; 344 1; 354 41; 355 13; 
356 23; 357 5; 368 1; 369 5; 370 125; 
371 999; 372 273; 373 39; 374 2; 
