Name: JWH-165
Synon: (7-Methoxy-1-naphthyl)(1-propyl-1H-indol-3-yl)methanone
InChIKey: KYLIHRLLNONWLD-UHFFFAOYSA-N
Formula: C23H21NO2
MW: 343
ExactMass: 343.157228
CASNO: 0
ID: 3151
Comment: ForensicDB Entry 3662
Num Peaks: 178
41 44; 43 35; 44 3; 50 1; 51 4; 
52 1; 62 2; 63 9; 64 2; 65 1; 
74 2; 75 6; 76 7; 77 9; 78 2; 
86 1; 87 3; 88 14; 89 22; 90 2; 
94 2; 95 2; 99 2; 100 4; 101 18; 
102 19; 103 4; 107 5; 108 2; 109 2; 
112 1; 113 27; 114 93; 115 28; 116 63; 
117 12; 121 15; 122 1; 125 1; 126 16; 
127 31; 128 37; 129 20; 130 9; 131 1; 
132 1; 133 1; 135 5; 136 1; 137 2; 
139 4; 140 2; 141 1; 142 54; 143 13; 
144 145; 145 23; 146 4; 147 1; 149 2; 
150 2; 151 3; 152 1; 153 2; 154 3; 
155 7; 156 7; 157 86; 158 19; 159 1; 
163 3; 164 2; 167 9; 168 1; 169 1; 
170 3; 171 3; 172 2; 174 2; 175 4; 
176 4; 177 1; 183 11; 184 5; 185 49; 
186 574; 187 81; 188 5; 189 4; 190 1; 
197 120; 198 14; 199 5; 200 19; 201 16; 
202 30; 203 5; 204 1; 207 4; 210 1; 
211 5; 212 3; 213 26; 214 13; 215 22; 
216 3; 217 1; 224 3; 225 3; 226 12; 
227 22; 228 53; 229 20; 230 5; 231 1; 
238 5; 239 5; 240 56; 241 107; 242 47; 
243 15; 244 3; 245 1; 251 3; 252 4; 
253 7; 254 34; 255 20; 256 29; 257 26; 
258 9; 259 1; 265 1; 266 2; 267 2; 
268 8; 269 45; 270 60; 271 28; 272 17; 
273 5; 281 3; 282 18; 283 19; 284 29; 
285 64; 286 108; 287 31; 288 2; 294 11; 
295 4; 296 4; 297 10; 298 21; 299 24; 
300 60; 301 9; 302 1; 310 8; 311 14; 
312 61; 313 12; 314 263; 315 79; 316 10; 
324 17; 325 2; 326 289; 327 76; 328 172; 
329 40; 330 2; 341 1; 342 86; 343 999; 
344 249; 345 27; 346 1; 
