Name: JWH-311
Synon: 1-pentyl-3-(2-fluorophenylacetyl)indole
InChIKey: RLINGXSUWCVHIQ-UHFFFAOYSA-N
Formula: C21H22FNO
MW: 323
ExactMass: 323.168543
CASNO: 0
ID: 3154
Comment: ForensicDB entry 3305
Num Peaks: 76
41 16; 43 17; 44 1; 51 2; 53 1; 
55 4; 57 2; 59 1; 62 1; 63 5; 
65 1; 69 2; 71 1; 75 4; 76 3; 
77 5; 78 1; 81 1; 83 13; 87 1; 
88 4; 89 22; 90 2; 91 1; 101 7; 
102 20; 103 8; 107 2; 109 53; 110 3; 
114 6; 115 23; 116 54; 117 5; 123 1; 
127 1; 128 16; 129 32; 130 20; 131 2; 
142 1; 143 21; 144 192; 145 19; 146 1; 
154 2; 156 4; 157 8; 158 5; 168 1; 
170 7; 171 1; 177 1; 184 2; 185 1; 
186 1; 194 1; 196 1; 204 1; 207 5; 
212 4; 214 999; 215 151; 216 10; 217 1; 
222 2; 224 1; 235 2; 236 1; 266 5; 
267 1; 281 1; 307 1; 323 45; 324 10; 
325 1; 
