Name: JWH-248
Synon: 2-(4-bromophenyl)-1-(1-pentylindol-3-yl)ethanone
InChIKey: BMRAIRSNJUSFSM-UHFFFAOYSA-N
Formula: C21H22BrNO
MW: 383
ExactMass: 383.088476
CASNO: 0
ID: 3155
Comment: ForensicDB entry 3719
Num Peaks: 57
41 6; 43 13; 44 1; 51 1; 55 1; 
63 3; 64 1; 65 1; 75 2; 76 2; 
77 2; 88 2; 89 21; 90 13; 91 2; 
101 4; 102 9; 103 4; 104 1; 114 3; 
115 11; 116 26; 117 2; 127 1; 128 11; 
129 16; 130 13; 143 11; 144 109; 145 10; 
154 1; 156 1; 157 3; 158 2; 169 14; 
170 4; 171 14; 172 1; 176 1; 184 1; 
189 1; 203 1; 204 3; 207 3; 212 1; 
214 999; 215 159; 216 11; 217 2; 218 1; 
281 2; 326 2; 328 1; 383 12; 384 1; 
385 8; 386 2; 
