Name: Salvinorin B
Synon: (2S,4aR,6aR,7R,9S,10aS,10bR)-2-(3-furanyl)dodecahydro-9-hydroxy-6a,10b-dimethyl-4,10-dioxo-methyl ester-2H-naphtho[2,1-c]pyran-7-carboxylic acid
Synon: Divinorin B
InChIKey: BLTMVAIOAAGYAR-CEFSSPBYSA-N
Formula: C21H26O7
MW: 390
ExactMass: 390.167852
CASNO: 92545307
ID: 3160
Comment: Provided by www.caymanchem.com/app/template/landing%2CForensic.vm / Item #11488  Lot #0437761
Num Peaks: 272
40 44; 41 188; 42 16; 43 100; 44 5; 
45 11; 50 6; 51 19; 52 16; 53 97; 
54 38; 55 337; 56 21; 57 45; 58 11; 
59 64; 60 8; 61 33; 62 4; 63 12; 
65 132; 66 77; 67 160; 68 82; 69 88; 
70 7; 71 20; 72 3; 73 5; 74 6; 
75 14; 77 228; 78 46; 79 255; 80 47; 
81 288; 82 81; 83 79; 84 74; 85 37; 
86 90; 87 445; 88 23; 89 15; 91 286; 
92 70; 93 354; 94 999; 95 364; 96 44; 
97 85; 98 26; 99 16; 100 29; 101 21; 
102 2; 103 44; 104 27; 105 212; 106 48; 
107 392; 108 298; 109 116; 110 36; 111 31; 
112 8; 113 13; 114 28; 115 99; 116 305; 
117 141; 118 99; 119 138; 120 83; 121 344; 
122 84; 123 83; 124 23; 125 36; 126 11; 
127 18; 128 40; 129 60; 130 27; 131 85; 
132 46; 133 101; 134 85; 135 106; 136 33; 
137 50; 138 15; 139 20; 140 20; 141 19; 
142 19; 143 42; 144 20; 145 106; 146 65; 
147 104; 148 50; 149 78; 150 26; 151 55; 
152 28; 153 312; 154 40; 155 29; 156 13; 
157 24; 158 26; 159 53; 160 26; 161 76; 
162 18; 163 42; 164 27; 165 29; 166 56; 
167 37; 168 13; 169 14; 170 10; 171 32; 
172 18; 173 38; 174 26; 175 62; 176 21; 
177 36; 178 30; 179 157; 180 47; 181 29; 
182 8; 183 12; 184 9; 185 27; 186 22; 
187 28; 188 17; 189 18; 190 15; 191 49; 
192 63; 193 49; 194 14; 195 17; 196 9; 
198 10; 199 33; 200 26; 201 41; 202 12; 
203 29; 204 17; 205 27; 206 53; 208 1; 
210 12; 211 60; 212 13; 213 33; 214 12; 
215 17; 216 43; 217 20; 218 8; 219 20; 
220 44; 221 10; 222 11; 223 33; 224 13; 
225 6; 226 4; 227 16; 228 9; 229 27; 
230 9; 231 14; 232 5; 233 39; 234 16; 
235 26; 236 14; 237 1; 238 4; 239 16; 
240 8; 241 14; 242 7; 243 8; 244 3; 
245 13; 246 5; 247 29; 248 18; 249 21; 
250 12; 251 15; 252 28; 253 3; 254 4; 
256 7; 257 17; 258 17; 259 4; 260 6; 
261 119; 262 33; 263 4; 264 4; 265 1; 
267 6; 268 17; 269 15; 270 6; 271 7; 
273 329; 274 55; 275 26; 276 6; 279 29; 
281 7; 282 2; 283 7; 285 4; 286 7; 
287 8; 293 78; 294 21; 295 10; 296 3; 
299 8; 300 4; 301 6; 302 3; 303 14; 
304 3; 305 32; 306 3; 311 3; 313 5; 
314 10; 315 7; 317 4; 318 83; 319 15; 
320 4; 326 5; 328 8; 329 5; 330 11; 
331 17; 341 7; 343 10; 346 92; 347 36; 
348 4; 355 2; 356 4; 358 9; 359 12; 
362 27; 363 10; 368 3; 371 3; 387 3; 
390 70; 391 13; 
