Name: AM1220 azepane isomer
Synon: (1-((1-methylazepan-3-yl)methyl)-1H-indol-3-yl)(naphthalen-1-yl)methanone
InChIKey: ZDCZZWAEXISRJF-UHFFFAOYSA-N
Formula: C26H26N2O
MW: 382
ExactMass: 382.204514
CASNO: 0
ID: 3162
Comment: Provided by www.caymanchem.com/app/template/landing%2CForensic.vm / Item #11583  Lot #0438170
Num Peaks: 231
40 15; 41 125; 42 420; 43 92; 44 108; 
45 11; 50 7; 51 22; 52 5; 53 20; 
54 13; 55 53; 57 787; 58 745; 59 38; 
62 3; 63 18; 65 9; 66 4; 67 34; 
68 32; 69 28; 70 211; 71 86; 72 20; 
74 10; 75 28; 76 24; 77 57; 78 11; 
79 15; 80 4; 81 11; 82 112; 84 996; 
85 133; 86 7; 87 6; 88 14; 89 62; 
90 13; 91 7; 93 9; 94 17; 95 5; 
96 117; 97 30; 98 375; 99 32; 100 10; 
101 97; 102 28; 103 18; 105 7; 107 12; 
108 21; 109 10; 110 95; 111 402; 112 475; 
113 55; 115 226; 116 102; 117 24; 118 6; 
119 5; 120 6; 121 30; 122 4; 123 3; 
125 12; 126 115; 127 803; 128 177; 129 49; 
130 122; 131 5; 132 15; 133 9; 134 11; 
135 20; 136 8; 138 7; 139 16; 140 29; 
141 53; 142 34; 143 58; 144 145; 145 25; 
146 10; 147 10; 148 7; 150 6; 151 12; 
152 16; 154 73; 155 569; 156 129; 157 24; 
158 17; 161 4; 163 5; 164 12; 165 17; 
167 61; 168 69; 170 434; 171 42; 172 7; 
174 5; 175 8; 176 11; 178 5; 180 2; 
181 12; 182 26; 184 999; 185 161; 186 20; 
187 22; 188 8; 189 31; 191 197; 193 4; 
194 4; 196 41; 197 6; 198 32; 199 7; 
200 8; 201 7; 202 9; 203 6; 204 3; 
207 44; 210 10; 211 23; 212 43; 213 98; 
214 34; 215 59; 216 18; 217 7; 219 3; 
222 3; 223 3; 224 8; 225 63; 226 61; 
227 221; 228 41; 229 7; 237 15; 238 20; 
239 33; 240 70; 241 94; 242 49; 243 12; 
244 1; 249 2; 250 4; 251 13; 252 14; 
253 12; 254 112; 255 63; 256 16; 257 13; 
258 4; 263 5; 264 7; 265 22; 266 18; 
267 45; 268 93; 269 68; 270 118; 271 37; 
272 8; 273 4; 278 27; 279 11; 280 63; 
281 45; 282 26; 283 19; 284 48; 285 145; 
286 47; 287 7; 291 3; 292 11; 293 8; 
294 38; 295 19; 296 68; 297 26; 298 17; 
299 7; 303 3; 306 6; 307 6; 308 14; 
309 22; 310 40; 311 108; 312 38; 313 6; 
320 7; 322 12; 323 16; 324 202; 325 64; 
326 5; 327 9; 329 7; 336 3; 337 8; 
338 21; 339 26; 340 7; 341 5; 354 3; 
355 7; 380 4; 382 347; 383 97; 384 12; 
385 8; 
