Name: Pyrovalerone
Synon: 4'-Methyl-2-(1-pyrrolidinyl)valerophenone
Synon: 1-(4-Methylphenyl)-2-(1-pyrrolidinyl)-1-pentanone
Synon: Centroton
Synon: Thymergix
Synon: Valerophenone
InChIKey: SWUVZKWCOBGPTH-UHFFFAOYSA-N
Formula: C16H23NO
MW: 245
ExactMass: 245.177964
CASNO: 3563493
ID: 3163
Comment: Provided by www.caymanchem.com/app/template/landing%2CForensic.vm / Item #10836  Lot #0427897 / SWGDRUG Monograph available
Num Peaks: 72
40 1; 41 21; 42 31; 43 6; 44 1; 
50 1; 51 3; 52 1; 53 5; 54 13; 
55 36; 56 12; 57 3; 62 1; 63 7; 
65 38; 66 2; 67 2; 68 9; 69 23; 
70 15; 71 1; 72 2; 76 1; 77 3; 
78 1; 79 2; 80 3; 81 2; 82 5; 
84 35; 85 2; 89 11; 90 7; 91 78; 
92 7; 93 1; 94 4; 96 38; 97 32; 
98 12; 103 2; 105 6; 108 1; 110 12; 
111 1; 115 4; 116 1; 117 2; 119 43; 
120 4; 122 1; 124 20; 126 999; 127 100; 
128 6; 129 1; 130 1; 131 1; 144 1; 
145 1; 147 1; 159 1; 160 1; 173 1; 
174 2; 186 2; 200 2; 202 8; 203 1; 
243 1; 244 1; 
