Name: 4-Methylbuphedrone
Synon: 4-MeMABP
Synon: BZ-6378
Synon: 2-(Methylamino)-1-(4-methylphenyl)-1-butanone
InChIKey: ZOGGCQVVLHCLHY-UHFFFAOYSA-N
Formula: C12H17NO
MW: 191
ExactMass: 191.131014
CASNO: 1336911988
ID: 3170
Comment: Provided by www.caymanchem.com/app/template/landing%2CForensic.vm / Item #11486  Lot #0438555 / SWGDRUG Monograph available
Num Peaks: 63
40 4; 41 41; 42 49; 43 10; 44 47; 
45 1; 50 7; 51 12; 52 4; 53 3; 
54 5; 55 6; 56 41; 57 85; 58 3; 
61 1; 62 6; 63 23; 64 8; 65 81; 
66 5; 68 3; 69 2; 70 38; 72 999; 
73 52; 74 3; 75 2; 76 2; 77 7; 
78 2; 79 1; 86 1; 87 1; 89 25; 
90 12; 91 108; 92 9; 93 1; 102 1; 
103 2; 104 1; 105 6; 115 4; 116 1; 
117 2; 119 45; 120 5; 128 1; 130 1; 
131 1; 132 1; 134 4; 144 2; 145 1; 
146 2; 147 7; 148 1; 158 1; 160 2; 
161 2; 162 20; 163 2; 
