Name: 4-Methyl-.alpha.-ethylaminobutiophenone
Synon: 2-(ethylamino)-1-(4-methylphenyl)-1-butanone
InChIKey: ZTIPDEPKTDPNQE-UHFFFAOYSA-N
Formula: C13H19NO
MW: 205
ExactMass: 205.146665
CASNO: 18268194
ID: 3171
Comment: Provided by www.caymanchem.com/app/template/landing%2CForensic.vm / Item #11489  Lot #0438613
Num Peaks: 69
40 3; 41 60; 42 12; 43 11; 44 11; 
45 1; 50 4; 51 10; 52 3; 53 2; 
54 3; 55 4; 56 40; 58 92; 59 4; 
62 4; 63 18; 64 6; 65 72; 66 5; 
67 1; 68 4; 69 2; 70 23; 71 5; 
74 1; 75 2; 76 2; 77 8; 78 2; 
79 1; 84 12; 86 999; 87 64; 89 25; 
90 13; 91 121; 92 11; 93 2; 102 1; 
103 2; 104 1; 105 11; 106 1; 115 5; 
116 2; 117 3; 119 62; 120 7; 127 1; 
128 2; 129 1; 130 2; 131 3; 132 2; 
133 1; 144 1; 145 1; 146 3; 147 5; 
148 6; 158 1; 160 4; 161 2; 162 2; 
174 1; 176 18; 177 2; 206 1; 
