Name: 4-Methoxy-N,N-dimethylcathinone
Synon: N-Methylmethedrone
Synon: 2-(dimethylamino)-1-(4-methoxyphenyl)-1-propanone
InChIKey: LODCRGDBFNUJIZ-UHFFFAOYSA-N
Formula: C12H17NO2
MW: 207
ExactMass: 207.125929
CASNO: 1089307232
ID: 3174
Comment: Provided by www.caymanchem.com/app/template/landing%2CForensic.vm / Item #11666  Lot #0438581
Num Peaks: 71
40 1; 41 5; 42 54; 43 7; 44 37; 
45 1; 50 10; 51 8; 52 2; 53 4; 
54 5; 55 12; 56 54; 57 19; 58 2; 
62 5; 63 29; 64 38; 65 8; 66 3; 
68 1; 70 41; 72 999; 73 53; 74 6; 
75 4; 76 12; 77 72; 78 9; 79 6; 
89 2; 90 1; 91 9; 92 71; 93 5; 
94 1; 102 1; 103 5; 104 3; 105 4; 
107 17; 108 2; 118 1; 119 2; 120 3; 
121 18; 122 1; 131 1; 132 1; 133 3; 
135 56; 136 5; 145 1; 146 1; 147 2; 
148 2; 149 1; 160 1; 161 2; 162 3; 
163 4; 164 5; 174 1; 176 4; 177 1; 
190 2; 192 2; 204 1; 205 1; 206 1; 
207 2; 
