Name: 2-Methoxymethamphetamine
Synon: Methoxyphenamine
Synon: OMMA
InChIKey: OEHAYUOVELTAPG-UHFFFAOYSA-N
Formula: C11H17NO
MW: 179
ExactMass: 179.131014
CASNO: 93301
ID: 3176
Comment: DEA SWL
Num Peaks: 63
40 2; 41 9; 42 28; 43 12; 44 4; 
50 5; 51 16; 52 10; 53 4; 54 2; 
55 2; 56 45; 57 15; 58 999; 59 37; 
62 2; 63 10; 64 3; 65 29; 66 2; 
70 1; 71 1; 75 5; 76 2; 77 26; 
78 26; 79 7; 80 1; 82 1; 89 11; 
90 4; 91 86; 92 8; 93 3; 94 1; 
102 2; 103 5; 104 2; 105 5; 106 2; 
107 7; 108 4; 115 10; 116 3; 117 5; 
118 3; 119 4; 120 2; 121 21; 122 7; 
123 1; 130 2; 131 4; 132 6; 133 4; 
134 2; 146 3; 147 2; 148 3; 149 4; 
164 8; 165 1; 178 2; 
