Name: Thienoamphetamine Acetyl Derivative
Synon: N-Acetyl-Thienoamphetamine
InChIKey: VJWDORZDKVFWMI-UHFFFAOYSA-N
Formula: C9H13NOS
MW: 183
ExactMass: 183.071785
CASNO: 0
ID: 3180
Comment: ENFSI / ICP Prague, Czech Republic
Num Peaks: 81
26 1; 27 10; 28 14; 29 2; 30 3; 
37 1; 38 5; 39 32; 40 4; 41 14; 
42 45; 43 173; 44 839; 45 89; 46 2; 
47 6; 50 5; 51 12; 52 6; 53 51; 
54 4; 55 1; 56 3; 57 16; 58 14; 
59 4; 60 7; 61 1; 62 4; 63 12; 
64 2; 65 13; 66 4; 67 2; 68 1; 
69 18; 70 9; 71 12; 72 1; 77 9; 
78 6; 79 12; 80 5; 81 3; 82 4; 
83 2; 84 6; 85 6; 86 195; 87 10; 
89 1; 91 27; 92 3; 93 5; 94 1; 
95 7; 96 11; 97 300; 98 36; 99 25; 
100 2; 106 1; 107 2; 108 2; 109 7; 
110 5; 111 2; 112 1; 121 4; 122 3; 
123 133; 124 999; 125 101; 126 66; 127 6; 
128 1; 139 1; 140 7; 183 24; 184 3; 
185 1; 
