Name: JWH-147
Synon: 1-hexyl-2-phenyl-4-(1-naphthoyl)pyrrole
InChIKey: FRMYAMAGHYHNKF-UHFFFAOYSA-N
Formula: C27H27NO
MW: 381
ExactMass: 381.209265
CASNO: 914458201
ID: 3185
Comment: ENFSI / SKL, Sweden
Num Peaks: 249
29 73; 30 2; 37 1; 38 13; 39 26; 
40 3; 41 145; 42 14; 43 258; 44 5; 
50 4; 51 15; 52 18; 53 17; 54 5; 
55 40; 56 6; 57 17; 58 1; 62 3; 
63 10; 64 2; 65 10; 66 2; 67 3; 
68 1; 69 2; 70 1; 74 4; 75 13; 
76 12; 77 68; 78 12; 79 2; 80 1; 
83 1; 85 3; 86 2; 87 4; 88 8; 
89 15; 90 4; 91 20; 92 3; 93 1; 
94 1; 98 3; 99 3; 100 16; 101 29; 
102 15; 103 21; 104 77; 105 14; 106 3; 
107 1; 111 1; 112 2; 113 18; 114 36; 
115 168; 116 23; 117 10; 118 9; 120 7; 
121 3; 125 9; 126 84; 127 645; 128 128; 
129 41; 130 8; 131 3; 132 7; 134 7; 
135 1; 136 1; 137 1; 138 4; 139 25; 
140 38; 141 77; 142 59; 143 16; 144 6; 
146 6; 147 5; 148 4; 149 3; 150 4; 
151 7; 152 14; 153 14; 154 59; 155 999; 
156 234; 157 23; 158 3; 159 1; 160 2; 
161 3; 162 3; 163 24; 164 31; 165 80; 
166 16; 167 17; 168 14; 169 36; 170 208; 
171 23; 172 3; 174 1; 175 1; 176 6; 
177 4; 178 8; 179 6; 180 8; 181 6; 
182 36; 183 7; 184 8; 185 1; 186 1; 
187 2; 188 19; 189 9; 190 20; 191 9; 
192 5; 193 17; 194 22; 195 5; 196 17; 
197 4; 198 6; 199 1; 200 2; 201 2; 
202 7; 203 3; 204 6; 205 6; 206 8; 
207 6; 208 4; 209 1; 210 3; 211 2; 
212 6; 213 5; 214 3; 215 5; 216 1; 
217 1; 218 3; 219 14; 220 21; 221 4; 
222 1; 224 3; 225 3; 226 59; 227 13; 
228 4; 229 1; 230 1; 232 4; 233 4; 
234 5; 235 2; 236 1; 237 11; 238 8; 
239 58; 240 25; 241 14; 242 3; 243 1; 
246 1; 248 1; 249 2; 250 12; 251 9; 
252 31; 253 23; 254 144; 255 31; 256 4; 
262 2; 263 3; 264 6; 265 14; 266 19; 
267 37; 268 31; 269 17; 270 6; 271 1; 
275 1; 276 2; 277 7; 278 11; 279 6; 
280 29; 281 48; 282 85; 283 26; 284 5; 
290 6; 291 3; 292 8; 293 13; 294 27; 
295 27; 296 286; 297 72; 298 10; 299 1; 
304 39; 305 8; 306 3; 307 2; 308 10; 
310 233; 311 99; 312 19; 313 2; 320 1; 
322 7; 323 2; 324 20; 325 6; 326 1; 
336 1; 338 8; 339 2; 352 8; 353 4; 
354 1; 364 25; 365 9; 366 3; 380 242; 
381 558; 382 156; 383 20; 384 2; 
