Name: Thienoamphetamine
Synon: 1-(thiophen-2-yl-)propan-2-amine
InChIKey: NYVQQTOGYLBBDQ-UHFFFAOYSA-N
Formula: C7H11NS
MW: 141
ExactMass: 141.06122
CASNO: 30433933
ID: 3187
Comment: ENFSI / ICP Prague, Czech Republic
Num Peaks: 87
26 2; 27 14; 28 22; 29 3; 30 5; 
32 2; 37 3; 38 7; 39 31; 40 5; 
41 11; 42 49; 43 15; 44 999; 45 83; 
46 3; 47 5; 49 1; 50 7; 51 12; 
52 6; 53 39; 54 5; 55 1; 56 3; 
57 8; 58 14; 59 4; 60 2; 61 2; 
62 5; 63 18; 64 2; 65 13; 66 3; 
67 2; 68 1; 69 18; 70 7; 71 10; 
72 1; 73 1; 74 1; 75 1; 76 1; 
77 5; 78 2; 79 4; 80 7; 81 4; 
82 5; 83 2; 84 4; 85 3; 86 1; 
89 1; 91 2; 92 2; 93 9; 94 2; 
95 6; 96 4; 97 168; 98 31; 99 25; 
100 3; 101 1; 106 1; 107 1; 108 1; 
109 3; 110 2; 111 1; 112 1; 121 2; 
122 2; 123 7; 124 5; 125 5; 126 17; 
127 2; 128 1; 138 1; 139 1; 140 4; 
141 7; 142 1; 
