Name: Ostarine
Synon: ((2S)-3-(4-cyanophenoxy)-N-[4-cyano-3-(trifluoromethyl)phenyl]-2-hydroxy-2-methylpropanamide)
Synon: 3-(4-cyanophenoxy)-N-[4-cyano-3-(trifluoromethyl)phenyl]-2-hydroxy-2-methyl-propanamide
Synon: Enobosarm
InChIKey: JNGVJMBLXIUVRD-UHFFFAOYSA-N
Formula: C19H14F3N3O3
MW: 389
ExactMass: 389.098726
CASNO: 841205478
ID: 3189
Comment: ENFSI / SKL, Sweden; confirmed by NMR
Num Peaks: 186
29 147; 30 6; 31 17; 37 9; 38 13; 
39 54; 40 12; 41 63; 42 15; 43 527; 
44 23; 45 12; 46 1; 47 1; 49 1; 
50 24; 51 37; 52 20; 53 8; 54 2; 
55 10; 57 513; 58 237; 59 30; 60 2; 
61 7; 62 24; 63 69; 64 84; 65 33; 
66 6; 67 2; 68 3; 69 43; 70 3; 
71 2; 72 4; 73 6; 74 13; 75 82; 
76 54; 77 27; 78 4; 79 4; 80 3; 
81 4; 82 8; 83 2; 84 1; 85 33; 
86 3; 87 7; 88 35; 89 26; 90 84; 
91 66; 92 30; 93 12; 94 4; 95 3; 
96 1; 99 10; 100 20; 101 8; 102 234; 
103 74; 104 142; 105 15; 106 10; 107 8; 
108 20; 109 4; 111 2; 112 6; 113 7; 
114 3; 115 11; 116 36; 117 10; 118 36; 
119 284; 120 290; 121 39; 122 3; 123 1; 
124 2; 125 2; 126 1; 127 2; 128 2; 
130 52; 131 16; 132 155; 133 186; 134 27; 
135 4; 136 19; 137 4; 138 35; 139 79; 
140 18; 141 2; 142 2; 143 11; 144 6; 
145 12; 146 5; 147 4; 148 70; 149 6; 
150 17; 151 8; 152 4; 153 1; 155 4; 
156 5; 157 9; 158 338; 159 51; 160 7; 
161 1; 162 3; 163 1; 164 7; 165 65; 
166 23; 167 52; 168 12; 169 3; 170 121; 
171 12; 172 1; 176 999; 177 115; 178 11; 
179 1; 183 1; 184 9; 185 117; 186 838; 
187 205; 188 16; 189 1; 191 3; 192 2; 
193 35; 194 3; 195 10; 196 1; 197 7; 
198 2; 199 10; 200 1; 205 3; 207 3; 
209 1; 211 11; 212 12; 213 60; 214 9; 
215 4; 223 1; 225 3; 226 1; 228 1; 
229 8; 233 1; 237 1; 241 1; 242 2; 
243 1; 251 2; 253 8; 254 1; 255 1; 
257 48; 258 6; 270 2; 271 47; 272 7; 
281 1; 370 25; 371 15; 372 3; 389 42; 
390 9; 
