Name: Tapentadol
Synon: 3-[(1R,2R)-3-(dimethylamino)-1-ethyl-2-methylpropyl]phenol
Synon: Nucynta
Synon: Palexia
InChIKey: KWTWDQCKEHXFFR-SMDDNHRTSA-N
Formula: C14H23NO
MW: 221
ExactMass: 221.177964
CASNO: 175591238
ID: 3190
Comment: ENFSI / NCIS Norway / SWGDRUG Monograph available
Num Peaks: 79
41 13; 42 27; 43 10; 44 13; 45 3; 
46 1; 51 3; 52 1; 53 4; 55 5; 
56 7; 58 999; 59 35; 63 3; 64 1; 
65 9; 66 2; 67 1; 68 2; 69 1; 
70 10; 71 7; 72 1; 77 23; 78 6; 
79 8; 81 1; 82 1; 84 10; 85 22; 
86 13; 87 2; 89 2; 90 1; 91 19; 
92 2; 93 1; 94 5; 95 1; 98 2; 
102 1; 103 9; 104 1; 105 10; 106 1; 
107 48; 108 4; 112 1; 115 10; 116 4; 
117 5; 118 1; 119 5; 120 5; 121 9; 
127 2; 128 1; 129 1; 131 6; 132 3; 
133 18; 134 10; 135 3; 136 2; 145 2; 
146 1; 147 7; 148 3; 159 1; 160 1; 
161 3; 162 1; 176 2; 190 1; 219 1; 
220 1; 221 81; 222 11; 223 1; 
