Name: pMPBP
Synon: p-methyl-.alpha.-pyrrolidinobutyrophenone
InChIKey: NXNPGAAZKYDOPW-UHFFFAOYSA-N
Formula: C15H21NO
MW: 231
ExactMass: 231.162314
CASNO: 0
ID: 3191
Comment: ENFSI / SKL, Sweden
Num Peaks: 75
29 6; 30 7; 38 1; 39 16; 40 2; 
41 38; 42 28; 43 10; 44 1; 50 2; 
51 4; 52 2; 53 4; 54 14; 55 36; 
56 10; 57 1; 58 8; 62 2; 63 8; 
64 3; 65 40; 66 2; 67 2; 68 10; 
69 12; 70 51; 71 2; 76 1; 77 3; 
78 1; 79 1; 80 2; 81 1; 82 5; 
83 2; 84 4; 89 12; 90 6; 91 71; 
92 6; 93 1; 94 2; 95 1; 96 22; 
97 13; 98 1; 103 1; 105 5; 108 1; 
110 28; 112 999; 113 79; 114 2; 115 3; 
116 1; 117 1; 118 1; 119 32; 120 3; 
128 1; 129 1; 130 1; 131 1; 144 1; 
145 1; 147 1; 174 1; 186 1; 200 1; 
202 6; 203 1; 229 1; 230 1; 231 1; 
