Name: Etizolam
Synon: 4-(2-chlorophenyl)-2-ethyl-9-methyl-6H-thieno[3,2-f][1,2,4]triazolo[4,3-a][1,4]diazepine
Synon: Etilaam
Synon: Etizola
Synon: Pasaden
Synon: Depas
InChIKey: VMZUTJCNQWMAGF-UHFFFAOYSA-N
Formula: C17H15ClN4S
MW: 342
ExactMass: 342.070595
CASNO: 40054691
ID: 3192
Comment: ENFSI / SKL, Sweden; confirmed by NMR / SWGDRUG Monograph available
Num Peaks: 280
29 21; 32 15; 36 7; 37 3; 38 10; 
39 66; 40 48; 41 43; 42 31; 43 4; 
44 17; 45 95; 46 4; 47 12; 49 4; 
50 32; 51 55; 52 24; 53 34; 54 23; 
55 5; 56 3; 57 7; 58 28; 59 23; 
60 5; 61 9; 62 20; 63 62; 64 29; 
65 42; 66 24; 67 17; 68 4; 69 54; 
70 36; 71 46; 72 15; 73 65; 74 26; 
75 108; 76 52; 77 67; 78 30; 79 19; 
80 13; 81 14; 82 22; 83 19; 84 24; 
85 52; 86 21; 87 27; 88 22; 89 78; 
90 34; 91 31; 92 20; 93 24; 94 32; 
95 37; 96 29; 97 38; 98 32; 99 46; 
100 20; 101 28; 102 88; 103 32; 104 17; 
105 37; 107 13; 108 22; 109 35; 110 35; 
111 75; 112 77; 113 68; 114 42; 115 30; 
116 33; 117 20; 119 32; 120 17; 121 40; 
122 69; 123 29; 124 23; 125 149; 126 142; 
127 53; 128 26; 129 16; 130 9; 131 12; 
132 10; 133 31; 134 13; 135 29; 136 76; 
137 172; 138 76; 139 106; 140 61; 141 23; 
142 10; 143 107; 144 67; 145 17; 146 24; 
147 21; 148 23; 149 42; 150 40; 151 70; 
152 117; 153 72; 155 16; 156 8; 157 16; 
158 7; 159 7; 160 10; 161 23; 162 41; 
163 44; 164 53; 165 63; 166 44; 167 29; 
168 8; 169 10; 170 15; 171 22; 172 14; 
173 20; 174 37; 175 17; 176 30; 177 48; 
178 33; 179 58; 180 40; 181 19; 182 12; 
183 26; 184 26; 185 13; 186 11; 187 12; 
188 13; 189 9; 190 25; 191 26; 192 49; 
193 25; 194 10; 195 12; 196 47; 197 37; 
198 45; 199 14; 200 12; 201 14; 202 12; 
203 13; 204 17; 205 46; 206 44; 207 36; 
208 14; 209 40; 210 54; 211 42; 212 21; 
213 11; 214 33; 215 13; 216 10; 217 12; 
218 12; 219 6; 220 6; 221 7; 222 28; 
223 102; 224 301; 225 84; 226 32; 227 9; 
228 8; 229 4; 230 4; 231 14; 232 129; 
233 27; 234 55; 235 14; 236 17; 237 39; 
238 78; 239 259; 240 53; 241 44; 242 13; 
243 15; 244 21; 245 148; 246 42; 247 76; 
248 28; 249 19; 250 39; 251 89; 252 21; 
253 11; 256 2; 257 5; 258 53; 259 182; 
260 48; 261 73; 262 14; 263 8; 264 18; 
265 30; 266 426; 267 82; 268 22; 269 6; 
270 2; 271 7; 272 49; 273 232; 274 193; 
275 115; 276 64; 277 15; 278 4; 279 43; 
280 11; 281 7; 282 2; 284 2; 285 9; 
286 106; 287 24; 288 49; 289 9; 290 6; 
291 3; 295 2; 297 2; 298 4; 299 8; 
300 52; 301 17; 302 21; 303 5; 306 2; 
307 66; 308 16; 309 6; 310 2; 311 3; 
313 392; 314 83; 315 146; 316 28; 317 5; 
327 18; 328 3; 329 7; 339 2; 342 999; 
343 219; 344 362; 345 74; 346 20; 347 2; 
