Name: Bentazepam
Synon: Thiadipone
Synon: 5-phenyl-3,5a,6,7,8,9-hexahydro-2H-[1]benzothieno[2,3-e][1,4]diazepin-2-one
InChIKey: AIZFEOPQVZBNGH-UHFFFAOYSA-N
Formula: C17H16N2OS
MW: 296
ExactMass: 296.098333
CASNO: 29462188
ID: 3195
Comment: ENFSI / NCIS Norway
Num Peaks: 220
41 10; 42 3; 43 1; 44 6; 45 12; 
47 3; 50 5; 51 17; 52 7; 53 5; 
54 2; 55 3; 56 1; 57 1; 58 5; 
59 3; 60 3; 61 1; 62 3; 63 15; 
64 7; 65 16; 66 3; 67 5; 69 5; 
70 5; 71 11; 72 2; 73 7; 74 5; 
75 10; 76 15; 77 67; 78 14; 79 9; 
80 4; 81 2; 82 6; 84 8; 85 5; 
86 7; 87 4; 88 8; 89 27; 90 17; 
91 37; 92 9; 93 4; 94 3; 95 6; 
96 7; 97 11; 98 6; 100 9; 101 7; 
102 16; 103 27; 104 21; 105 15; 106 17; 
107 10; 108 4; 109 10; 110 13; 111 8; 
112 7; 113 26; 114 21; 115 33; 116 27; 
117 27; 118 11; 119 53; 121 9; 122 9; 
123 4; 125 11; 126 23; 127 27; 128 20; 
129 3; 130 5; 131 2; 132 3; 133 9; 
134 15; 135 10; 136 6; 137 7; 138 8; 
139 23; 140 16; 141 12; 142 3; 143 4; 
144 10; 145 10; 146 2; 147 6; 148 3; 
149 4; 150 9; 151 18; 152 26; 153 22; 
154 15; 155 4; 156 3; 157 1; 158 3; 
159 3; 160 3; 161 3; 162 6; 163 11; 
164 17; 165 61; 166 23; 167 16; 168 7; 
169 3; 170 2; 171 11; 172 4; 173 2; 
174 3; 175 2; 176 7; 177 9; 178 28; 
179 19; 180 17; 181 9; 182 5; 183 3; 
184 9; 185 5; 186 8; 187 1; 188 1; 
189 4; 190 10; 191 18; 192 15; 193 19; 
194 6; 195 6; 196 7; 197 5; 198 61; 
199 11; 200 6; 201 1; 202 2; 203 6; 
204 11; 205 19; 206 13; 207 38; 208 14; 
209 10; 210 20; 211 45; 212 53; 213 13; 
214 3; 216 3; 217 2; 218 5; 219 6; 
220 3; 221 5; 222 7; 223 11; 224 26; 
225 11; 226 5; 227 4; 228 1; 229 1; 
231 1; 232 2; 233 5; 234 3; 235 6; 
236 7; 237 24; 238 28; 239 101; 240 222; 
241 43; 242 10; 243 1; 249 1; 250 5; 
251 8; 252 7; 253 8; 254 8; 255 3; 
263 2; 264 1; 265 10; 267 999; 268 324; 
269 86; 270 24; 271 2; 279 7; 280 5; 
281 13; 282 3; 283 4; 293 1; 294 2; 
295 205; 296 694; 297 152; 298 47; 299 5; 
