Name: Org 29647
Synon: 5-Chloro-3-ethyl-1H-indole-2-carboxylic acid (1-benzyl-pyrrolidin-3-yl)-amide
InChIKey: MYJJVFCPCDPOSM-UHFFFAOYSA-N
Formula: C22H24ClN3O
MW: 381
ExactMass: 381.16079
CASNO: 0
ID: 3197
Comment: ENFSI / FCL Finland; confirmed by LC-MS and NMR
Num Peaks: 165
31 2; 32 23; 34 1; 37 2; 39 4; 
40 4; 41 10; 42 25; 43 4; 44 19; 
45 1; 49 1; 51 3; 52 2; 53 1; 
54 3; 55 1; 56 5; 59 1; 60 1; 
61 1; 62 1; 63 4; 64 1; 65 67; 
66 1; 68 42; 69 5; 70 1; 71 1; 
72 1; 73 3; 74 4; 75 1; 76 2; 
77 9; 78 8; 80 2; 82 11; 83 6; 
85 1; 87 1; 89 20; 90 10; 91 450; 
92 48; 93 1; 95 1; 96 3; 99 2; 
102 1; 103 11; 104 7; 105 8; 106 4; 
107 1; 111 1; 112 2; 113 2; 114 10; 
115 35; 116 8; 117 3; 118 3; 120 8; 
121 1; 123 5; 125 1; 126 4; 127 13; 
128 16; 130 2; 132 23; 133 22; 134 1; 
136 3; 137 1; 138 1; 139 1; 140 18; 
141 13; 142 14; 143 46; 144 1; 145 1; 
146 2; 147 2; 148 2; 149 13; 151 10; 
153 1; 154 6; 155 1; 156 16; 157 74; 
158 145; 159 999; 160 133; 161 8; 162 15; 
163 4; 164 22; 165 2; 166 1; 169 1; 
170 8; 171 6; 174 1; 175 5; 176 1; 
177 29; 178 21; 179 7; 183 1; 184 2; 
187 1; 188 31; 189 10; 190 35; 191 16; 
192 3; 193 7; 194 2; 201 2; 202 1; 
203 1; 204 9; 205 48; 206 71; 207 84; 
208 37; 209 12; 210 1; 221 2; 222 9; 
223 1; 224 1; 230 1; 231 2; 232 2; 
233 2; 247 1; 254 1; 265 1; 268 1; 
269 1; 270 2; 281 20; 282 4; 283 1; 
290 1; 292 1; 295 1; 298 1; 321 1; 
325 1; 340 1; 341 1; 346 1; 353 1; 
355 1; 381 43; 382 6; 383 16; 384 1; 
