Name: Zopiclone
Synon: (RS)-6-(5-chloropyridin-2-yl)-7-oxo-6,7-dihydro-5H-pyrrolo[3,4-b]pyrazin-5-yl 4-metylpiperazine-1-carboxylate
InChIKey: GBBSUAFBMRNDJC-UHFFFAOYSA-N
Formula: C17H17ClN6O3
MW: 388
ExactMass: 388.105066
CASNO: 43200802
ID: 3198
Comment: EFSI, Estonia
Num Peaks: 202
30 30; 32 44; 35 1; 36 8; 37 10; 
38 17; 39 13; 40 22; 41 61; 42 196; 
43 165; 44 281; 45 12; 46 1; 47 3; 
48 1; 49 4; 50 32; 51 41; 52 98; 
53 24; 54 33; 55 46; 56 345; 57 82; 
58 281; 59 12; 60 6; 61 10; 62 13; 
63 13; 64 36; 65 43; 66 8; 67 3; 
68 3; 69 14; 70 145; 71 43; 72 25; 
73 20; 74 5; 75 9; 76 137; 77 55; 
78 77; 79 31; 80 15; 81 5; 82 10; 
83 30; 84 20; 85 36; 86 6; 87 9; 
88 3; 89 4; 90 3; 91 9; 92 14; 
93 2; 94 1; 95 9; 96 13; 97 50; 
98 114; 99 356; 100 124; 101 14; 102 9; 
103 13; 104 18; 105 4; 106 12; 107 3; 
108 1; 109 5; 110 3; 112 367; 113 131; 
114 108; 115 42; 116 6; 117 1; 119 7; 
120 2; 122 1; 123 8; 124 2; 125 3; 
126 3; 127 28; 128 18; 129 9; 130 5; 
131 2; 132 1; 133 6; 134 2; 135 3; 
136 3; 137 6; 138 16; 139 258; 140 30; 
141 78; 142 26; 143 999; 144 66; 145 8; 
146 1; 147 1; 150 2; 151 1; 152 1; 
154 18; 155 19; 156 12; 157 3; 158 1; 
159 1; 160 1; 162 2; 163 8; 164 26; 
165 9; 166 9; 169 1; 174 2; 177 1; 
178 2; 179 2; 181 16; 182 19; 183 8; 
184 3; 187 5; 188 2; 189 6; 190 15; 
191 120; 192 13; 193 42; 194 4; 195 1; 
197 1; 201 5; 202 1; 203 1; 204 2; 
205 2; 206 2; 207 19; 208 2; 209 3; 
210 3; 211 1; 214 1; 215 4; 216 28; 
217 237; 218 38; 219 89; 220 11; 221 2; 
231 3; 232 1; 239 2; 241 1; 244 1; 
245 377; 246 187; 247 137; 248 51; 249 6; 
253 2; 254 2; 257 1; 258 2; 259 1; 
260 3; 261 9; 262 1; 265 1; 273 1; 
274 1; 276 1; 281 5; 282 1; 285 1; 
302 1; 315 2; 325 1; 328 1; 330 1; 
331 1; 333 1; 341 2; 342 1; 344 1; 
355 1; 385 1; 
