Name: 4-Methoxypropylamphetamine Acetyl derivative
Synon: AC PMPA
Synon: N-Acetyl-N-propyl-4-methoxyamphetamine
Synon: N-Acetyl-4-methoxypropylamphetamine
Formula: C15H23NO2
MW: 249
ExactMass: 249.172879
CASNO: 0
ID: 3206
Comment: ENFSI / ISA Warsaw, Poland/ In-house synthesis
Num Peaks: 87
41 30; 42 18; 43 101; 44 114; 45 4; 
50 2; 51 9; 52 7; 53 4; 54 3; 
55 4; 56 56; 57 10; 58 5; 63 5; 
64 2; 65 11; 66 1; 67 1; 68 2; 
69 1; 70 10; 71 1; 72 2; 76 1; 
77 36; 78 35; 79 9; 80 1; 84 9; 
85 3; 86 999; 87 60; 88 1; 89 9; 
90 5; 91 34; 92 4; 93 2; 94 2; 
100 1; 102 4; 103 7; 104 3; 105 8; 
106 5; 107 5; 108 3; 109 2; 112 1; 
115 10; 116 4; 117 14; 118 4; 119 5; 
120 1; 121 126; 122 16; 123 1; 125 1; 
127 1; 128 354; 129 29; 130 2; 131 3; 
132 3; 133 12; 134 6; 135 2; 146 1; 
147 40; 148 514; 149 78; 150 6; 151 1; 
161 1; 162 1; 163 1; 164 4; 165 1; 
176 1; 178 3; 192 2; 206 5; 207 1; 
220 2; 249 2; 
