Name: Org 27569
Synon: 5-chloro-3-ethyl-1H-indole-2-carboxylic acid [2-(4-piperidin-1-yl-phenyl)ethyl]amide
InChIKey: AHFZDNYNXFMRFQ-UHFFFAOYSA-N
Formula: C24H28ClN3O
MW: 409
ExactMass: 409.192091
CASNO: 868273067
ID: 3207
Comment: ENFSI / FCL Finland; confirmed by LC-MS and NMR
Num Peaks: 117
30 6; 31 10; 32 252; 39 8; 40 6; 
41 11; 42 8; 43 7; 44 94; 45 6; 
46 8; 49 6; 50 7; 51 8; 53 9; 
56 8; 58 7; 61 5; 65 5; 69 8; 
71 6; 73 56; 74 5; 75 7; 76 5; 
77 7; 78 10; 79 8; 89 8; 90 9; 
91 38; 95 6; 96 13; 98 7; 101 7; 
102 7; 103 5; 104 18; 105 13; 106 8; 
113 8; 115 27; 116 5; 117 28; 118 71; 
119 7; 126 7; 127 7; 129 6; 130 28; 
131 34; 132 15; 133 21; 140 31; 141 6; 
142 11; 143 55; 144 34; 145 7; 146 6; 
147 10; 148 7; 155 7; 156 8; 158 10; 
159 11; 161 12; 162 7; 163 22; 165 9; 
168 6; 172 10; 174 999; 175 166; 176 7; 
177 31; 178 5; 179 6; 181 8; 185 9; 
186 99; 187 828; 188 118; 190 42; 191 48; 
192 6; 193 10; 194 7; 195 5; 203 23; 
204 11; 205 27; 206 41; 207 328; 208 48; 
209 59; 211 7; 214 5; 255 8; 281 66; 
282 17; 283 5; 284 7; 295 10; 323 5; 
325 5; 327 7; 341 12; 355 5; 357 7; 
364 5; 383 6; 398 7; 407 8; 408 6; 
409 249; 410 33; 
