Name: Org 27759
Synon: N-[2-[4-(Dimethylamino)phenyl]ethyl]-3-ethyl-5-fluoro-1H-indole-2-carboxamide
InChIKey: MUYUEZAKMLKZSO-UHFFFAOYSA-N
Formula: C21H24FN3O
MW: 353
ExactMass: 353.19034
CASNO: 868273090
ID: 3208
Comment: ENFSI / FCL Finland; confirmed by LC-MS and NMR
Num Peaks: 129
31 2; 32 56; 39 5; 40 8; 42 1; 
43 3; 44 19; 45 1; 50 1; 51 1; 
52 1; 54 1; 55 3; 56 1; 60 2; 
65 2; 66 2; 67 2; 70 1; 73 2; 
75 1; 76 1; 77 11; 78 2; 79 1; 
80 2; 82 1; 84 2; 87 1; 89 2; 
90 10; 91 44; 92 10; 94 3; 95 5; 
96 1; 97 2; 99 1; 100 2; 101 1; 
102 1; 103 8; 104 2; 105 2; 107 11; 
108 4; 109 2; 110 2; 112 1; 115 6; 
117 12; 118 107; 119 26; 120 19; 121 14; 
122 1; 126 9; 128 2; 129 1; 130 2; 
131 13; 132 21; 133 70; 134 757; 135 99; 
136 4; 137 2; 140 3; 142 1; 145 15; 
146 113; 147 999; 148 124; 149 21; 150 2; 
154 1; 155 1; 157 1; 158 8; 159 3; 
160 27; 161 51; 162 23; 163 6; 164 1; 
170 1; 171 2; 172 23; 174 30; 175 12; 
177 7; 178 2; 179 1; 180 1; 181 2; 
185 2; 186 2; 188 13; 189 14; 190 57; 
191 9; 192 1; 193 6; 195 1; 202 2; 
203 2; 207 67; 208 15; 209 10; 222 1; 
228 1; 235 1; 236 2; 250 2; 267 2; 
268 3; 269 1; 281 25; 282 7; 287 1; 
296 2; 321 1; 341 1; 342 2; 343 2; 
346 1; 352 2; 353 251; 354 80; 
