Name: XLR11 cyclopropyl rearrangement product
Synon: 1-[1-(5-fluoropentyl)-1H-indol-3-yl]-3,3,4-trimethylpent-4-en-one
Synon: 5-Fluoro-UR-144 cyclopropyl rearrangement product
Synon: 5F-UR-144 cyclopropyl rearrangement product
InChIKey: BEZVSTOQIZTNCK-UHFFFAOYSA-N
Formula: C21H28FNO
MW: 329
ExactMass: 329.215492
CASNO: 0
ID: 3211
Comment: DEA SFL1 / unconfirmed from 5-Fluoro-UR-144 lot # 0437258-13
Num Peaks: 161
29 184; 31 14; 33 15; 38 15; 39 220; 
40 22; 41 824; 42 51; 43 300; 44 39; 
45 21; 47 79; 50 10; 51 43; 52 26; 
53 89; 54 38; 55 445; 56 50; 57 51; 
59 47; 61 28; 62 16; 63 39; 64 20; 
65 42; 66 14; 67 148; 68 16; 69 127; 
70 23; 73 4; 75 20; 76 26; 77 75; 
78 28; 79 54; 81 66; 82 40; 83 199; 
84 22; 88 30; 89 122; 90 38; 91 37; 
95 13; 96 15; 97 20; 101 72; 102 145; 
103 105; 104 27; 105 13; 106 15; 109 74; 
113 15; 114 59; 115 229; 116 409; 117 108; 
118 38; 119 19; 127 52; 128 205; 129 237; 
130 597; 131 119; 139 25; 140 23; 141 36; 
142 69; 143 195; 144 923; 145 120; 146 18; 
147 14; 152 32; 153 18; 154 85; 155 57; 
156 102; 157 57; 158 53; 159 13; 165 20; 
166 34; 167 84; 168 85; 169 28; 170 104; 
171 37; 172 356; 173 71; 178 15; 179 14; 
180 55; 181 61; 182 67; 183 33; 184 60; 
185 33; 186 21; 193 13; 194 44; 195 21; 
196 75; 197 29; 198 64; 199 16; 204 20; 
205 119; 206 39; 207 17; 208 12; 210 55; 
211 18; 212 327; 213 55; 214 14; 218 91; 
219 19; 224 23; 226 38; 227 30; 228 14; 
230 27; 231 21; 232 999; 233 177; 234 29; 
236 15; 246 30; 247 714; 248 114; 249 13; 
250 13; 252 20; 253 15; 254 39; 255 19; 
256 34; 266 13; 270 32; 271 18; 272 50; 
273 22; 274 18; 281 10; 282 7; 286 87; 
287 21; 294 207; 295 59; 309 68; 310 26; 
312 33; 314 436; 315 90; 328 24; 329 245; 
330 52; 
