Name: IMMA
Synon: BML-190
Synon: 1-(4-chlorobenzoyl)-5-methoxy-2-methyl-1H-indol-3-acetic acid,
Synon: Indomethacin morpholinylamide
InChIKey: BJSDNVVWJYDOLK-UHFFFAOYSA-N
Formula: C23H23ClN2O4
MW: 426
ExactMass: 426.134634
CASNO: 0
ID: 3215
Comment: DEA SFL1 / Cayman lot 19755-132573
Num Peaks: 104
30 5; 31 1; 36 1; 38 1; 39 3; 
40 1; 41 3; 42 52; 43 4; 45 8; 
50 12; 51 10; 52 2; 53 2; 54 3; 
55 3; 56 11; 57 3; 58 1; 61 1; 
62 2; 63 9; 64 1; 65 1; 70 81; 
71 3; 74 4; 75 48; 76 23; 77 15; 
78 2; 80 1; 84 1; 85 5; 86 4; 
87 3; 88 6; 89 16; 90 3; 91 1; 
99 2; 100 2; 101 5; 102 8; 103 19; 
104 23; 105 4; 110 4; 111 243; 112 18; 
113 80; 114 62; 115 10; 116 10; 117 4; 
118 1; 127 2; 128 7; 129 6; 130 37; 
131 9; 132 2; 138 2; 139 999; 140 80; 
141 327; 142 27; 143 5; 144 2; 145 1; 
146 1; 156 2; 157 2; 158 103; 159 14; 
160 2; 163 1; 170 1; 172 8; 173 80; 
174 18; 175 2; 176 1; 200 2; 202 1; 
204 1; 249 4; 277 1; 283 1; 284 1; 
287 2; 288 1; 296 1; 299 2; 310 1; 
312 152; 313 31; 314 53; 315 10; 316 1; 
426 51; 427 14; 428 19; 429 4; 
