Name: AM2201 2'-naphthyl isomer
Synon: (1-(5-fluoropentyl)-1H-indol-3-yl)(naphthalen-2-yl)methanone
InChIKey: JBPMXQYHIBTESP-UHFFFAOYSA-N
Formula: C24H22FNO
MW: 359
ExactMass: 359.168543
CASNO: 0
ID: 3218
Comment: DEA SFL1 / Cayman lot 0430209-19
Num Peaks: 230
29 65; 30 1; 32 2; 33 13; 36 1; 
37 1; 38 2; 39 41; 40 4; 41 238; 
42 11; 43 96; 44 5; 45 2; 46 2; 
47 63; 48 1; 50 10; 51 28; 52 8; 
53 15; 54 2; 55 14; 56 1; 57 1; 
59 17; 60 1; 61 13; 62 10; 63 22; 
64 4; 65 7; 66 1; 67 5; 69 30; 
70 2; 73 2; 74 11; 75 38; 76 31; 
77 91; 78 15; 79 2; 85 1; 86 3; 
87 12; 88 23; 89 84; 90 12; 91 3; 
94 5; 96 1; 98 4; 99 6; 100 12; 
101 96; 102 117; 103 36; 104 4; 105 1; 
107 9; 111 1; 112 4; 113 21; 114 36; 
115 113; 116 199; 117 24; 118 2; 119 3; 
121 18; 125 11; 126 161; 127 986; 128 305; 
129 156; 130 106; 131 11; 132 1; 133 3; 
134 4; 135 5; 137 2; 138 2; 139 13; 
140 10; 142 126; 143 44; 144 480; 145 53; 
146 5; 147 1; 148 1; 149 3; 150 5; 
151 8; 152 11; 153 6; 154 19; 155 597; 
156 95; 157 17; 158 11; 159 1; 161 2; 
162 3; 163 8; 164 4; 165 6; 166 5; 
167 9; 168 7; 170 37; 171 6; 172 2; 
173 7; 174 4; 175 2; 176 8; 177 3; 
178 2; 179 1; 180 1; 181 1; 182 2; 
183 2; 184 25; 185 5; 186 4; 187 13; 
188 8; 189 15; 190 4; 191 1; 193 1; 
197 1; 198 2; 199 2; 200 7; 201 4; 
202 8; 203 4; 204 49; 205 7; 207 6; 
208 1; 209 1; 210 2; 211 7; 212 23; 
213 56; 214 30; 215 72; 216 17; 217 3; 
223 1; 224 6; 225 6; 226 26; 227 16; 
228 18; 229 7; 230 6; 231 1; 232 869; 
233 136; 234 12; 237 1; 238 9; 239 10; 
240 47; 241 97; 242 107; 243 23; 244 3; 
251 5; 252 6; 253 13; 254 67; 255 27; 
256 57; 257 13; 258 1; 264 1; 265 4; 
266 11; 267 16; 268 13; 269 13; 270 44; 
271 14; 272 2; 280 2; 281 3; 282 10; 
283 13; 284 563; 285 148; 286 20; 287 1; 
296 6; 297 2; 298 4; 299 1; 302 2; 
308 1; 310 2; 311 1; 312 2; 322 1; 
324 2; 325 1; 326 4; 327 2; 330 4; 
331 7; 332 1; 338 6; 339 32; 340 8; 
341 2; 342 24; 343 7; 344 1; 357 2; 
358 81; 359 999; 360 259; 361 35; 362 3; 
