Name: N-Acetyl-3-Fluoroisomethcathinone
Synon: N-Acetyl-3-FiMC
InChIKey: CVWWDXMXPCLKQW-UHFFFAOYSA-N
Formula: C12H14FNO2
MW: 223
ExactMass: 223.100857
CASNO: 0
ID: 3221
Comment: ENFSI / ICP Prague, Czech Republic
Num Peaks: 94
27 4; 28 8; 29 1; 30 4; 31 1; 
38 1; 39 6; 40 1; 41 6; 42 185; 
43 240; 44 11; 45 1; 50 5; 51 7; 
52 1; 54 1; 55 1; 56 14; 57 11; 
58 3; 59 2; 62 4; 63 8; 64 1; 
65 1; 68 2; 69 4; 70 4; 72 10; 
73 1; 74 3; 75 21; 76 3; 77 12; 
78 1; 81 6; 82 2; 83 17; 84 1; 
86 2; 87 1; 88 1; 89 4; 90 1; 
91 2; 93 1; 94 7; 95 42; 96 17; 
97 8; 100 1; 101 6; 102 2; 103 13; 
104 1; 105 1; 107 31; 108 18; 109 50; 
110 7; 117 2; 118 7; 119 2; 120 2; 
121 13; 122 17; 123 11; 124 36; 125 3; 
133 4; 134 4; 135 10; 136 93; 137 15; 
138 999; 139 93; 140 3; 148 1; 149 1; 
150 2; 151 3; 152 3; 162 1; 164 2; 
165 1; 166 13; 167 1; 178 1; 180 273; 
181 148; 182 15; 183 1; 223 2; 
