Name: N-Trifluoroacetyl-3-Fluoroisomethcathinone
Synon: N-Trifluoroacetyl-3-FiMC
InChIKey: FPZHZLPWXZWMME-UHFFFAOYSA-N
Formula: C12H11F4NO2
MW: 277
ExactMass: 277.072592
CASNO: 0
ID: 3222
Comment: ENFSI / ICP Prague, Czech Republic
Num Peaks: 131
27 7; 28 2; 29 3; 31 2; 33 1; 
37 1; 38 3; 39 11; 40 2; 41 11; 
42 111; 43 219; 44 2; 45 1; 50 14; 
51 12; 52 2; 53 1; 54 1; 55 3; 
56 8; 57 24; 58 5; 59 3; 60 2; 
61 1; 62 8; 63 13; 64 2; 65 2; 
66 2; 67 2; 68 3; 69 137; 70 8; 
74 6; 75 32; 76 7; 77 23; 78 4; 
79 1; 80 2; 81 13; 82 5; 83 23; 
84 2; 85 1; 86 2; 87 3; 88 2; 
89 9; 90 2; 91 4; 92 1; 93 3; 
94 10; 95 67; 96 30; 97 30; 98 2; 
99 5; 100 1; 101 12; 102 6; 103 25; 
104 3; 105 2; 106 2; 107 55; 108 34; 
109 120; 110 999; 111 35; 112 1; 115 1; 
116 1; 117 3; 118 5; 119 1; 120 2; 
121 21; 122 14; 123 34; 124 2; 125 12; 
126 4; 127 15; 128 1; 131 1; 132 1; 
133 7; 134 7; 135 15; 136 181; 137 26; 
138 9; 139 1; 140 1; 143 1; 145 14; 
146 3; 148 1; 149 5; 150 22; 151 10; 
152 4; 153 1; 158 10; 159 2; 163 1; 
164 21; 165 67; 166 44; 167 4; 168 1; 
180 1; 185 1; 186 2; 196 1; 205 1; 
208 5; 209 1; 214 1; 217 17; 218 2; 
220 15; 221 2; 234 254; 235 142; 236 15; 
277 5; 
