Name: 4-Methoxypropylamphetamine HFB Derivative
Synon: PMPA HFB Derivative
Synon: N-Heptafluorobutyryl-N-propyl-4-methoxyamphetamine
Synon: N-Heptafluorobutyryl-4-methoxypropylamphetamine
InChIKey: YPRKVLFFAUUMHY-UHFFFAOYSA-N
Formula: C17H20F7NO2
MW: 403
ExactMass: 403.138226
CASNO: 0
ID: 3223
Comment: ENFSI / ISA Warsaw, Poland/ In-house synthesis
Num Peaks: 126
40 3; 41 85; 42 23; 43 240; 44 12; 
45 14; 47 4; 50 3; 51 13; 52 10; 
53 6; 54 4; 55 7; 56 66; 57 7; 
62 1; 63 8; 64 5; 65 20; 66 2; 
67 2; 68 3; 69 51; 70 16; 71 1; 
74 1; 75 1; 76 3; 77 66; 78 65; 
79 16; 80 1; 81 1; 82 1; 84 11; 
85 1; 86 1; 89 15; 90 12; 91 73; 
92 13; 93 5; 94 5; 95 1; 100 5; 
102 3; 103 12; 104 6; 105 14; 106 10; 
107 9; 108 7; 109 9; 112 3; 115 22; 
116 9; 117 24; 118 5; 119 18; 120 3; 
121 595; 122 70; 123 5; 128 2; 129 1; 
130 1; 131 6; 132 6; 133 19; 134 11; 
135 3; 142 2; 145 1; 146 5; 147 61; 
148 999; 149 223; 150 22; 151 2; 152 1; 
159 1; 160 1; 161 5; 162 2; 163 2; 
166 1; 169 60; 170 2; 176 2; 178 1; 
187 7; 190 1; 191 1; 192 10; 193 4; 
194 1; 196 4; 197 1; 204 1; 205 2; 
206 2; 207 1; 210 1; 213 2; 214 1; 
218 3; 220 1; 222 9; 226 5; 234 3; 
235 1; 239 1; 240 979; 241 69; 242 4; 
248 1; 252 1; 254 1; 266 2; 280 1; 
282 989; 283 101; 284 6; 374 1; 403 5; 
404 1; 
