Name: 2,3-Methylenedioxymethamphetamine
Synon: 2,3-MDMA
InChIKey: RTZIIFGBTSUSEL-UHFFFAOYSA-N
Formula: C11H15NO2
MW: 193
ExactMass: 193.110279
CASNO: 0
ID: 3227
Comment: DEA SWL / SFL1 lot N17P48C
Num Peaks: 72
38 2; 39 8; 40 1; 41 5; 42 20; 
43 11; 44 5; 50 8; 51 37; 52 6; 
53 6; 54 2; 55 3; 56 43; 57 11; 
58 999; 59 35; 60 1; 62 2; 63 9; 
64 3; 65 9; 66 2; 67 1; 74 3; 
75 3; 76 5; 77 56; 78 16; 79 15; 
80 2; 81 1; 88 14; 90 3; 91 9; 
92 2; 93 1; 94 1; 95 1; 102 2; 
103 7; 104 4; 105 16; 106 3; 107 3; 
115 1; 116 1; 117 2; 118 5; 119 3; 
120 4; 121 2; 130 1; 131 4; 132 2; 
133 3; 134 3; 135 37; 136 6; 146 1; 
147 2; 148 2; 161 1; 162 2; 163 2; 
176 1; 177 1; 178 9; 179 1; 191 1; 
192 4; 193 2; 
