Name: JWH-121
Synon: 1-butyl-3-(4-methyl-1-naphthoyl)indole
InChIKey: DOKBVCMQPGKQGV-UHFFFAOYSA-N
Formula: C24H23NO
MW: 341
ExactMass: 341.177965
CASNO: 0
ID: 3232
Comment: ForensicDB Entry 3117
Num Peaks: 200
41 57; 42 2; 43 1; 50 2; 51 6; 
52 2; 53 2; 55 7; 57 23; 58 1; 
62 4; 63 14; 64 2; 65 6; 74 3; 
75 11; 76 10; 77 12; 78 4; 86 1; 
87 5; 88 11; 89 50; 90 6; 91 9; 
94 1; 95 1; 98 1; 99 1; 100 4; 
101 21; 102 38; 103 13; 104 2; 107 7; 
108 1; 111 1; 112 1; 113 21; 114 22; 
115 231; 116 122; 117 16; 118 4; 119 4; 
120 5; 121 17; 125 2; 126 13; 127 45; 
128 53; 129 34; 130 29; 131 4; 132 7; 
134 18; 135 25; 136 8; 137 2; 138 1; 
139 89; 140 33; 141 224; 143 18; 144 289; 
145 30; 146 3; 147 2; 149 25; 150 2; 
151 4; 152 9; 153 14; 154 7; 155 14; 
156 10; 157 6; 158 7; 159 4; 160 3; 
161 1; 162 1; 163 4; 164 3; 165 6; 
166 2; 167 3; 168 7; 169 163; 170 37; 
172 14; 173 2; 174 2; 175 2; 176 4; 
177 2; 178 2; 179 1; 181 199; 182 31; 
183 3; 184 2; 185 1; 186 1; 187 5; 
188 3; 189 6; 190 2; 191 1; 194 1; 
195 4; 196 1; 198 5; 200 511; 201 79; 
202 17; 203 3; 204 1; 207 2; 211 3; 
212 3; 213 21; 214 19; 215 12; 216 3; 
217 1; 223 1; 224 9; 225 10; 226 44; 
227 24; 228 26; 229 12; 230 4; 237 5; 
238 8; 239 19; 240 40; 241 111; 242 32; 
243 6; 244 1; 249 1; 250 2; 251 10; 
252 15; 253 33; 254 136; 255 76; 256 39; 
257 10; 258 2; 264 5; 265 9; 266 19; 
267 29; 268 85; 269 85; 270 106; 271 24; 
272 3; 278 3; 279 3; 280 24; 281 35; 
282 47; 283 72; 284 235; 285 55; 286 10; 
287 1; 292 1; 293 1; 294 11; 295 6; 
296 20; 297 20; 298 551; 299 135; 300 17; 
301 1; 308 24; 309 7; 310 5; 311 2; 
312 31; 313 20; 314 5; 322 24; 324 547; 
325 151; 326 183; 327 44; 328 6; 338 2; 
340 436; 341 999; 342 253; 343 33; 344 3; 
