Name: JWH-252
Synon: 1-(2-methyl-pentylindol-3-yl)-2-(methylphenyl)ethanone
InChIKey: NHQVWPJMCINXPI-UHFFFAOYSA-N
Formula: C23H27NO
MW: 333
ExactMass: 333.209265
CASNO: 0
ID: 3238
Comment: ForensicDB Entry 3812
Num Peaks: 95
40 1; 41 10; 43 16; 44 1; 51 1; 
52 1; 53 1; 55 3; 57 1; 63 1; 
65 1; 69 1; 74 1; 75 2; 76 1; 
77 15; 78 5; 79 8; 81 1; 87 1; 
88 1; 89 5; 90 1; 91 3; 98 1; 
101 2; 102 8; 103 20; 104 4; 105 26; 
106 2; 114 1; 115 22; 116 7; 117 5; 
118 2; 119 2; 127 1; 128 13; 129 11; 
130 28; 131 4; 134 1; 140 1; 141 1; 
142 11; 143 19; 144 13; 145 1; 154 2; 
155 1; 156 4; 157 11; 158 125; 159 16; 
166 1; 167 2; 168 2; 170 2; 171 7; 
172 1; 178 1; 184 5; 185 1; 189 2; 
192 1; 198 2; 200 2; 202 2; 203 1; 
204 1; 205 1; 207 4; 212 4; 215 1; 
216 2; 217 4; 218 4; 226 3; 227 2; 
228 999; 229 164; 230 18; 231 2; 232 1; 
234 1; 276 5; 277 1; 281 3; 283 1; 
304 1; 327 1; 332 1; 333 34; 334 10; 
