Name: JWH-209
Synon: 1-(2-methyl-1-pentylindol-3-yl)-2-(4-methylphenyl)ethanone
InChIKey: RDYZLFKKWNGIJS-UHFFFAOYSA-N
Formula: C23H27NO
MW: 333
ExactMass: 333.209265
CASNO: 0
ID: 3240
Comment: ForensicDB Entry 3811
Num Peaks: 88
41 9; 43 17; 51 2; 52 1; 53 2; 
55 3; 63 2; 65 2; 69 1; 75 1; 
76 2; 77 18; 78 5; 79 9; 88 1; 
89 5; 90 2; 91 2; 101 3; 102 9; 
103 21; 104 7; 105 40; 106 3; 113 1; 
114 1; 115 24; 116 7; 117 5; 118 1; 
119 1; 127 2; 128 14; 129 11; 130 33; 
131 3; 140 1; 141 1; 142 11; 143 18; 
144 13; 145 1; 152 1; 154 2; 155 1; 
156 4; 157 14; 158 132; 159 15; 160 1; 
167 1; 168 2; 170 3; 171 5; 172 2; 
176 1; 178 1; 184 5; 185 1; 189 2; 
190 1; 191 1; 198 2; 200 1; 202 1; 
204 1; 212 4; 213 1; 216 1; 217 3; 
218 3; 219 1; 226 3; 228 999; 229 169; 
230 17; 231 3; 232 2; 234 1; 244 1; 
246 1; 276 4; 277 1; 304 1; 332 1; 
333 30; 334 7; 335 1; 
