Name: JWH-053
Synon: 3-(2-R-methylheptyl)-delta-8-tetrahydrocannabinol
InChIKey: UCXJMGASLIJZID-NSISKUIASA-N
Formula: C24H36O2
MW: 356
ExactMass: 356.27153
CASNO: 0
ID: 3245
Comment: ForensicDB Entry 3759
Num Peaks: 244
41 95; 42 8; 43 122; 44 7; 51 3; 
52 2; 53 17; 54 2; 55 56; 56 8; 
57 135; 58 6; 59 1; 63 1; 64 1; 
65 13; 66 4; 67 29; 68 5; 69 33; 
70 3; 71 33; 72 1; 73 1; 76 1; 
77 37; 78 10; 79 35; 80 8; 81 22; 
82 3; 83 5; 85 1; 87 1; 89 3; 
90 2; 91 65; 92 11; 93 44; 94 7; 
95 15; 96 2; 97 3; 98 1; 99 1; 
100 1; 101 1; 102 3; 103 12; 104 4; 
105 45; 106 10; 107 74; 108 15; 109 25; 
110 2; 111 2; 113 1; 115 32; 116 9; 
117 16; 118 4; 119 63; 120 13; 121 44; 
122 40; 123 71; 124 19; 125 3; 126 1; 
127 12; 128 28; 129 22; 130 6; 131 20; 
132 6; 133 31; 134 37; 135 27; 136 26; 
137 35; 138 5; 139 3; 140 1; 141 16; 
142 9; 143 10; 144 8; 145 21; 146 7; 
147 38; 148 9; 149 20; 150 13; 151 7; 
152 14; 153 15; 154 9; 155 10; 156 3; 
157 13; 158 10; 159 15; 160 18; 161 38; 
162 9; 163 26; 164 6; 165 28; 166 9; 
167 7; 168 6; 169 10; 170 4; 171 12; 
172 7; 173 35; 174 154; 175 85; 176 23; 
177 16; 178 19; 179 11; 180 3; 181 21; 
182 10; 183 17; 184 6; 185 12; 186 11; 
187 52; 188 31; 189 112; 190 46; 191 13; 
192 3; 193 2; 194 3; 195 15; 196 7; 
197 20; 198 8; 199 23; 200 12; 201 86; 
202 40; 203 23; 204 3; 205 4; 206 1; 
207 7; 208 3; 209 6; 210 3; 211 8; 
212 4; 213 29; 214 25; 215 75; 216 15; 
217 9; 218 2; 219 2; 221 1; 222 1; 
223 5; 224 3; 225 7; 226 3; 227 11; 
228 4; 229 14; 230 4; 231 4; 232 2; 
233 7; 234 1; 235 99; 236 16; 237 3; 
238 1; 239 3; 240 4; 241 8; 242 9; 
243 43; 244 8; 245 6; 246 2; 247 1; 
248 1; 249 5; 250 1; 251 1; 253 1; 
255 4; 256 2; 257 45; 258 999; 259 193; 
260 22; 261 3; 263 2; 269 2; 271 45; 
272 15; 273 684; 274 138; 275 39; 276 6; 
281 1; 283 2; 285 103; 286 33; 287 55; 
288 69; 289 14; 290 1; 295 3; 297 2; 
298 1; 299 37; 300 118; 301 73; 302 13; 
303 1; 311 2; 313 157; 314 42; 315 6; 
325 1; 327 5; 328 2; 337 1; 339 6; 
340 2; 341 53; 342 13; 343 1; 354 1; 
356 506; 357 135; 358 17; 359 1; 
