Name: JWH-058
Synon: 3-(1-R-methylheptyl)-delta-8-tetrahydrocannabinol
InChIKey: SOOAIMVOTCSILP-MISYRCLQSA-N
Formula: C24H36O2
MW: 356
ExactMass: 356.27153
CASNO: 0
ID: 3247
Comment: ForensicDB Entry 3726
Num Peaks: 255
40 3; 41 90; 42 11; 43 144; 44 5; 
51 4; 52 2; 53 19; 54 2; 55 64; 
56 9; 57 52; 58 2; 59 2; 63 2; 
64 1; 65 14; 66 4; 67 33; 68 8; 
69 43; 70 3; 71 35; 72 2; 73 2; 
76 1; 77 41; 78 10; 79 40; 80 8; 
81 27; 82 3; 83 7; 84 1; 85 1; 
87 2; 89 4; 90 2; 91 76; 92 12; 
93 46; 94 9; 95 18; 96 2; 97 3; 
98 1; 99 1; 100 2; 101 3; 102 3; 
103 14; 104 5; 105 49; 106 10; 107 75; 
108 14; 109 27; 110 3; 111 3; 112 1; 
113 2; 114 2; 115 35; 116 10; 117 17; 
118 4; 119 64; 120 13; 121 47; 122 42; 
123 36; 124 4; 125 1; 127 12; 128 31; 
129 23; 130 6; 131 19; 132 6; 133 31; 
134 35; 135 30; 136 10; 137 37; 138 18; 
139 5; 140 1; 141 20; 142 11; 143 11; 
144 8; 145 17; 146 5; 147 22; 148 5; 
149 35; 150 41; 151 19; 152 17; 153 15; 
154 7; 155 11; 156 4; 157 16; 158 8; 
159 19; 160 18; 161 39; 162 8; 163 28; 
164 14; 165 29; 166 12; 167 8; 168 8; 
169 10; 170 5; 171 15; 172 6; 173 26; 
174 25; 175 31; 176 9; 177 13; 178 16; 
179 10; 180 4; 181 13; 182 7; 183 25; 
184 7; 185 15; 186 9; 187 122; 188 103; 
189 62; 190 16; 191 13; 192 14; 193 8; 
194 6; 195 18; 196 6; 197 10; 198 5; 
199 18; 200 11; 201 151; 202 38; 203 103; 
204 41; 205 9; 206 2; 207 11; 208 4; 
209 7; 210 4; 211 18; 212 5; 213 29; 
214 11; 215 32; 216 27; 217 21; 218 4; 
219 2; 220 1; 221 3; 222 3; 223 5; 
224 2; 225 7; 226 3; 227 26; 228 21; 
229 58; 230 12; 231 11; 232 3; 233 7; 
234 3; 235 119; 236 21; 237 5; 238 1; 
239 7; 240 3; 241 10; 242 4; 243 16; 
244 3; 245 9; 246 4; 247 2; 248 2; 
249 7; 250 1; 251 2; 253 4; 254 4; 
255 9; 256 7; 257 32; 258 17; 259 10; 
260 2; 261 2; 263 1; 265 1; 267 1; 
269 4; 270 2; 271 136; 272 999; 273 904; 
274 167; 275 41; 276 6; 281 2; 283 2; 
284 1; 285 50; 286 55; 287 62; 288 60; 
289 13; 290 1; 295 3; 297 2; 298 1; 
299 31; 300 144; 301 82; 302 15; 303 1; 
311 2; 313 122; 314 138; 315 30; 316 3; 
325 2; 327 7; 328 3; 337 1; 339 6; 
340 2; 341 43; 342 11; 343 2; 354 2; 
355 3; 356 587; 357 157; 358 22; 359 2; 
