Name: JWH-054
Synon: 3-(2-S-methylheptyl)-delta-8-tetrahydrocannabinol
InChIKey: UCXJMGASLIJZID-PWIZWCRZSA-N
Formula: C24H36O2
MW: 356
ExactMass: 356.27153
CASNO: 0
ID: 3249
Comment: ForensicDB Entry 3758
Num Peaks: 227
40 2; 41 93; 42 3; 43 111; 44 4; 
51 2; 52 1; 53 13; 55 57; 56 3; 
57 119; 58 4; 59 1; 65 8; 66 2; 
67 26; 68 3; 69 36; 70 2; 71 31; 
72 1; 73 4; 75 1; 76 1; 77 17; 
78 6; 79 34; 80 4; 81 13; 82 2; 
83 4; 87 1; 89 2; 91 46; 92 5; 
93 37; 94 4; 95 9; 96 2; 97 2; 
98 1; 102 1; 103 8; 104 2; 105 30; 
106 6; 107 68; 108 12; 109 20; 110 2; 
111 1; 114 1; 115 18; 116 4; 117 9; 
118 2; 119 53; 120 8; 121 31; 122 38; 
123 54; 124 13; 125 1; 127 6; 128 14; 
129 13; 130 3; 131 10; 132 4; 133 19; 
134 32; 135 16; 136 12; 137 26; 138 3; 
139 2; 141 11; 142 4; 143 5; 144 4; 
145 9; 146 2; 147 27; 148 8; 149 15; 
150 8; 151 6; 152 10; 153 8; 154 5; 
155 7; 156 1; 157 9; 158 3; 159 8; 
160 11; 161 33; 162 6; 163 17; 164 4; 
165 23; 166 6; 167 4; 168 3; 169 6; 
170 2; 171 6; 172 4; 173 26; 174 118; 
175 46; 176 17; 177 14; 178 10; 179 10; 
180 1; 181 15; 182 6; 183 10; 184 4; 
185 7; 186 6; 187 39; 188 15; 189 82; 
190 26; 191 9; 192 4; 193 3; 194 1; 
195 8; 196 4; 197 10; 198 3; 199 16; 
200 7; 201 50; 202 24; 203 17; 204 2; 
205 2; 207 9; 208 5; 209 5; 210 2; 
211 5; 212 2; 213 13; 214 16; 215 67; 
216 9; 217 6; 218 1; 219 2; 221 1; 
223 4; 224 2; 225 4; 226 2; 227 7; 
228 1; 229 14; 230 2; 231 2; 232 1; 
233 2; 234 1; 235 90; 236 9; 237 1; 
239 1; 240 1; 241 5; 242 7; 243 44; 
244 6; 245 5; 247 1; 248 1; 249 5; 
251 1; 255 1; 256 1; 257 26; 258 999; 
259 191; 260 15; 261 2; 267 1; 269 1; 
271 43; 272 5; 273 694; 274 134; 275 28; 
276 3; 281 7; 282 1; 283 1; 285 72; 
286 33; 287 29; 288 45; 289 7; 290 1; 
295 2; 297 1; 299 26; 300 81; 301 73; 
302 10; 311 1; 313 122; 314 31; 315 4; 
327 3; 328 1; 339 1; 340 1; 341 42; 
342 12; 343 1; 355 6; 356 534; 357 138; 
358 14; 359 1; 
