Name: JWH-018 N-3-methylbutyl isomer
Synon: N-(3-methylbutyl)-3-(1-naphthoyl)indole
Synon: JWH-073 3-methylbutyl homolog
InChIKey: BBNUROBSKAJPGN-UHFFFAOYSA-N
Formula: C24H23NO
MW: 341
ExactMass: 341.177965
CASNO: 0
ID: 3253
Comment: DEA SFL1 / Cayman lot 0427677-13
Num Peaks: 223
29 96; 30 2; 32 4; 36 1; 37 2; 
38 5; 39 52; 40 6; 41 177; 42 13; 
43 373; 44 22; 45 2; 50 13; 51 32; 
52 9; 53 17; 54 3; 55 57; 56 9; 
57 4; 59 1; 61 2; 62 10; 63 28; 
64 5; 65 6; 66 1; 67 2; 69 5; 
70 1; 71 13; 73 6; 74 17; 75 45; 
76 35; 77 107; 78 20; 79 3; 83 1; 
85 1; 86 5; 87 13; 88 24; 89 77; 
90 13; 91 6; 94 6; 96 2; 98 4; 
99 6; 100 12; 101 107; 102 112; 103 41; 
104 7; 105 2; 106 12; 107 5; 108 3; 
111 3; 112 7; 113 38; 114 43; 115 108; 
116 153; 117 45; 118 9; 119 7; 120 6; 
121 29; 125 14; 126 169; 127 999; 128 284; 
129 155; 130 236; 131 30; 132 6; 133 7; 
134 9; 135 11; 137 3; 138 3; 139 33; 
140 14; 142 60; 143 71; 144 448; 145 47; 
146 5; 147 3; 148 1; 149 3; 150 8; 
151 8; 152 11; 153 7; 154 15; 155 552; 
156 81; 157 16; 158 32; 159 5; 161 3; 
162 4; 163 11; 164 6; 165 6; 166 3; 
167 153; 168 29; 169 6; 170 30; 171 7; 
172 2; 174 5; 175 4; 176 6; 177 3; 
178 3; 179 2; 180 1; 181 4; 182 2; 
184 5; 185 4; 186 25; 187 21; 188 11; 
189 16; 190 4; 191 2; 192 1; 193 2; 
194 1; 195 1; 196 2; 197 2; 198 4; 
199 3; 200 9; 201 5; 202 8; 203 2; 
205 1; 207 15; 208 5; 209 2; 210 1; 
211 7; 212 11; 213 62; 214 440; 215 105; 
216 14; 217 2; 224 8; 225 9; 226 30; 
227 13; 228 18; 229 9; 230 2; 237 2; 
238 10; 239 20; 240 57; 241 141; 242 55; 
243 14; 244 5; 250 1; 251 11; 252 10; 
253 25; 254 125; 255 55; 256 73; 257 20; 
258 3; 264 2; 265 8; 266 28; 267 36; 
268 83; 269 75; 270 208; 271 45; 272 10; 
278 2; 279 1; 280 12; 281 10; 282 25; 
283 21; 284 389; 285 177; 286 31; 287 4; 
294 1; 296 4; 297 1; 298 17; 299 4; 
308 2; 311 1; 312 3; 313 3; 322 11; 
323 4; 324 226; 325 61; 326 12; 327 4; 
331 1; 338 2; 339 8; 340 210; 341 648; 
342 166; 343 19; 344 2; 
