Name: JWH-071
Synon: 1-ethyl-3-(1-naphthoyl)indole
InChIKey: DFUBISUWTFPBFB-UHFFFAOYSA-N
Formula: C21H17NO
MW: 299
ExactMass: 299.131014
CASNO: 209414051
ID: 3264
Comment: ForensicDB Entry 3558
Num Peaks: 174
41 1; 50 6; 51 17; 52 4; 53 1; 
61 1; 62 9; 63 23; 64 4; 65 4; 
66 1; 73 1; 74 12; 75 35; 76 18; 
77 60; 78 7; 79 1; 82 1; 86 4; 
87 13; 88 19; 89 84; 90 11; 91 6; 
93 1; 94 7; 95 6; 98 4; 99 6; 
100 10; 101 53; 102 30; 103 11; 104 3; 
107 26; 108 4; 109 2; 110 1; 111 2; 
112 4; 113 19; 114 24; 115 57; 116 165; 
117 29; 118 6; 119 5; 120 1; 121 59; 
123 1; 125 7; 126 84; 127 274; 128 68; 
129 42; 130 13; 131 12; 132 7; 133 2; 
134 3; 135 17; 136 14; 137 2; 138 1; 
139 12; 140 6; 141 3; 142 13; 143 36; 
144 183; 145 19; 146 1; 150 36; 151 6; 
152 5; 153 3; 154 6; 155 45; 156 7; 
157 25; 158 4; 161 2; 162 3; 163 8; 
164 4; 165 3; 167 47; 168 9; 169 1; 
170 7; 172 888; 173 111; 174 11; 175 4; 
176 5; 177 1; 178 1; 180 1; 181 4; 
182 1; 185 1; 186 3; 187 15; 188 8; 
189 13; 190 3; 198 1; 199 2; 200 7; 
201 5; 202 5; 203 2; 207 7; 208 1; 
209 1; 210 1; 211 11; 212 10; 213 62; 
214 35; 215 43; 216 9; 217 1; 222 2; 
223 1; 224 8; 225 8; 226 25; 227 13; 
228 11; 229 5; 230 1; 236 1; 237 2; 
238 15; 239 17; 240 69; 241 131; 242 62; 
243 15; 244 3; 250 1; 251 8; 252 11; 
253 26; 254 82; 255 50; 256 63; 257 14; 
258 1; 264 1; 265 5; 266 16; 267 35; 
268 19; 269 91; 270 208; 271 57; 272 9; 
278 1; 280 21; 281 22; 282 672; 283 190; 
284 182; 285 38; 286 4; 296 4; 298 609; 
299 999; 300 217; 301 25; 302 2; 
