Name: JWH-213
Synon: (4-ethylnaphthalen-1-yl)-(2-methyl-1-pentylindol-3-yl)methanone
InChIKey: JAVDQKMSPNBPCK-UHFFFAOYSA-N
Formula: C27H29NO
MW: 383
ExactMass: 383.224915
CASNO: 824959833
ID: 3266
Comment: ForensicDB Entry 3781
Num Peaks: 223
40 1; 41 27; 42 4; 43 56; 44 4; 
51 3; 53 1; 55 9; 63 3; 65 3; 
67 1; 73 3; 75 3; 76 2; 77 16; 
78 3; 79 1; 87 1; 88 2; 89 10; 
90 3; 91 5; 97 1; 100 2; 101 10; 
102 18; 103 19; 104 6; 106 2; 107 2; 
108 1; 112 1; 113 11; 114 7; 115 69; 
116 13; 117 10; 118 3; 119 7; 120 8; 
121 5; 125 1; 126 15; 127 41; 128 58; 
129 56; 130 47; 131 5; 132 3; 133 8; 
134 31; 135 9; 138 1; 139 56; 140 43; 
141 36; 142 28; 143 27; 144 20; 145 5; 
146 4; 147 6; 148 12; 149 36; 150 3; 
151 15; 152 52; 153 95; 154 59; 155 71; 
156 31; 157 21; 158 135; 159 16; 161 1; 
162 2; 163 8; 164 2; 165 7; 166 4; 
167 8; 168 9; 169 10; 170 10; 171 17; 
172 21; 173 1; 176 1; 177 4; 178 4; 
179 1; 180 1; 181 20; 182 6; 183 286; 
184 59; 185 7; 186 11; 187 2; 189 4; 
191 3; 192 4; 193 2; 194 2; 195 2; 
196 7; 198 19; 199 5; 200 10; 201 5; 
202 7; 203 1; 207 8; 208 2; 209 6; 
210 2; 211 2; 212 28; 213 18; 214 15; 
215 11; 216 1; 221 2; 222 1; 223 2; 
224 4; 225 8; 226 39; 227 18; 228 157; 
229 29; 230 5; 235 1; 237 6; 238 4; 
239 23; 240 18; 241 30; 242 17; 243 6; 
244 1; 250 4; 251 9; 252 16; 253 24; 
254 101; 255 58; 256 21; 257 2; 263 1; 
264 8; 265 14; 266 32; 267 55; 268 59; 
269 92; 270 32; 271 5; 277 4; 278 12; 
279 13; 280 52; 281 37; 282 66; 283 84; 
284 142; 285 29; 286 3; 291 2; 292 5; 
293 8; 294 17; 295 16; 296 90; 297 75; 
298 319; 299 80; 300 10; 306 1; 307 2; 
308 9; 309 10; 310 79; 311 36; 312 111; 
313 45; 314 9; 322 2; 323 3; 324 27; 
325 9; 326 221; 327 181; 328 48; 329 7; 
336 4; 337 52; 338 22; 339 8; 340 82; 
341 24; 342 5; 343 1; 351 1; 352 2; 
353 58; 354 638; 355 178; 356 29; 357 1; 
364 1; 365 4; 366 296; 367 89; 368 548; 
369 154; 370 26; 381 1; 382 512; 383 999; 
384 279; 385 47; 386 3; 
