Name: AB-005 azepane isomer
Synon: (1-(1-methylazepan-2-yl)-1H-indol-3-yl)(2,2,3,3-tetramethylcyclopropyl)methanone
InChIKey: VNSNHIFBQMRMRE-UHFFFAOYSA-N
Formula: C23H32N2O
MW: 352
ExactMass: 352.251463
CASNO: 0
ID: 3272
Comment: Provided by www.caymanchem.com/app/template/landing%2CForensic.vm / Item #11877  Lot #0439947
Num Peaks: 192
41 107; 42 138; 43 55; 44 56; 45 2; 
49 1; 50 2; 51 6; 53 23; 55 115; 
57 180; 58 205; 59 10; 62 2; 63 4; 
64 2; 65 8; 66 4; 67 24; 68 12; 
69 32; 70 65; 71 15; 72 3; 73 1; 
74 1; 75 6; 76 3; 77 15; 78 2; 
79 20; 81 41; 82 45; 83 40; 84 211; 
85 17; 86 1; 87 1; 88 4; 89 16; 
90 5; 91 5; 92 1; 93 2; 94 5; 
95 6; 96 36; 97 31; 98 48; 99 4; 
100 1; 101 16; 102 8; 103 5; 104 2; 
105 1; 106 1; 107 1; 108 5; 109 18; 
110 36; 112 999; 113 84; 114 12; 115 54; 
116 26; 117 11; 118 3; 119 1; 125 11; 
126 3; 127 10; 128 25; 129 13; 130 16; 
131 5; 132 2; 138 1; 139 4; 140 6; 
141 6; 142 9; 143 22; 144 28; 145 4; 
147 3; 151 1; 152 5; 153 4; 154 21; 
155 10; 156 17; 157 8; 158 6; 159 2; 
160 1; 165 3; 166 7; 167 26; 168 23; 
169 9; 170 64; 171 10; 172 4; 173 2; 
176 7; 178 2; 179 3; 180 16; 181 15; 
182 25; 183 12; 184 40; 185 11; 186 2; 
191 3; 192 4; 193 6; 194 20; 195 6; 
196 13; 197 6; 198 9; 199 7; 200 1; 
204 2; 205 1; 206 3; 207 1; 208 12; 
209 6; 210 15; 211 5; 212 9; 213 2; 
217 1; 218 1; 220 2; 221 2; 222 4; 
223 2; 224 6; 225 11; 226 10; 227 13; 
228 6; 229 1; 232 1; 233 1; 234 2; 
235 1; 236 3; 237 6; 238 5; 239 4; 
240 10; 241 2; 248 1; 249 2; 250 5; 
252 32; 253 11; 255 79; 256 15; 257 2; 
262 1; 264 2; 266 3; 267 1; 269 5; 
270 6; 271 2; 276 1; 278 1; 279 1; 
280 1; 281 1; 293 3; 294 12; 295 2; 
309 12; 310 4; 311 3; 324 1; 335 1; 
337 26; 338 7; 339 1; 350 4; 352 158; 
353 37; 354 6; 
