Name: 3-Methyl-.alpha.-pyrrolidinopropiophenone
Synon: 3-MePPP
Synon: 3-Me-.alpha.-PPP
Synon: 2-(pyrrolidin-1-yl)-1-(m-tolyl)propan-1-one
InChIKey: BYYSWQHJMWVSGB-UHFFFAOYSA-N
Formula: C14H19NO
MW: 217
ExactMass: 217.146665
CASNO: 0
ID: 3276
Comment: Provided by www.caymanchem.com/app/template/landing%2CForensic.vm / Item #11485  Lot #0439653
Num Peaks: 67
40 8; 41 54; 42 39; 43 8; 44 27; 
45 1; 46 1; 50 6; 51 11; 52 5; 
53 9; 54 32; 55 56; 56 147; 57 6; 
61 1; 62 6; 63 22; 65 80; 66 5; 
67 3; 68 14; 69 41; 70 23; 71 1; 
74 2; 75 2; 76 2; 77 6; 78 2; 
79 2; 80 2; 81 1; 82 1; 86 1; 
87 1; 89 29; 91 116; 92 11; 93 2; 
94 4; 96 29; 98 999; 99 72; 100 2; 
102 1; 103 3; 104 2; 105 3; 115 4; 
116 1; 117 3; 119 28; 120 2; 128 1; 
129 1; 130 1; 131 1; 133 1; 144 1; 
145 1; 186 1; 200 2; 202 1; 214 1; 
215 2; 216 1; 
