Name: 25H-NBOMe imine analog
InChIKey: QPVMUPLRZMIWJW-CPNJWEJPSA-N
Synon: (E)-2-(2,5-dimethoxyphenyl)-N-(2-methoxybenzylidene)ethanamine
Synon: 2C-H-NBOMe imine analog
Synon: 2C-H-NB2OMe imine analog
Synon: 25H-NB2OMe imine analog
Formula: C18H21NO3
MW: 299
ExactMass: 299.152143
CASNO: 0
ID: 3280
Comment: Provided by www.caymanchem.com/app/template/landing%2CForensic.vm / Item #12062  Lot #0440910
Num Peaks: 138
40 2; 41 8; 42 59; 43 4; 45 1; 
50 10; 51 40; 52 15; 53 15; 54 5; 
55 6; 62 5; 63 23; 64 20; 65 75; 
66 10; 67 5; 68 1; 69 1; 74 2; 
75 5; 76 16; 77 149; 78 121; 79 50; 
80 5; 81 2; 82 2; 83 2; 87 1; 
88 2; 89 45; 90 37; 91 281; 92 40; 
93 18; 94 5; 95 4; 96 1; 97 1; 
101 1; 102 8; 103 22; 104 63; 105 104; 
106 36; 107 32; 108 38; 109 6; 110 1; 
115 5; 116 17; 117 89; 118 27; 119 71; 
121 999; 122 92; 123 20; 124 1; 125 1; 
126 1; 127 2; 128 2; 130 2; 132 64; 
133 128; 134 27; 135 45; 136 35; 137 12; 
138 5; 139 1; 140 1; 141 3; 142 4; 
143 1; 144 1; 145 2; 146 6; 148 789; 
149 102; 150 48; 151 50; 152 18; 153 2; 
154 2; 155 1; 159 1; 160 10; 161 2; 
162 15; 163 8; 164 30; 165 13; 166 3; 
167 2; 168 1; 169 1; 170 1; 175 1; 
176 1; 177 2; 178 3; 179 1; 180 2; 
181 2; 182 1; 186 1; 190 1; 191 1; 
192 10; 193 2; 194 1; 195 1; 196 2; 
197 1; 208 1; 209 2; 210 2; 211 1; 
220 1; 221 1; 222 2; 224 1; 225 1; 
226 1; 236 2; 237 1; 238 2; 252 7; 
253 2; 266 2; 268 503; 269 90; 270 10; 
298 1; 299 5; 300 1; 
