Name: AM2201 5-hydroxyindole metabolite
Synon: (1-(5-fluoropentyl)-5-hydroxy-1H-indol-3-yl)(naphthalen-1-yl)methanone
InChIKey: OLTHGHIBQIQLMQ-UHFFFAOYSA-N
Formula: C24H22FNO2
MW: 375
ExactMass: 375.163458
CASNO: 0
ID: 3286
Comment: Provided by www.caymanchem.com/app/template/landing%2CForensic.vm / Item #11196  Lot #0439612
Num Peaks: 225
41 376; 42 17; 43 141; 45 7; 46 5; 
47 94; 50 16; 51 39; 52 13; 53 35; 
55 31; 56 4; 57 3; 59 35; 61 26; 
62 9; 63 49; 64 14; 65 27; 66 8; 
67 11; 69 84; 70 6; 73 4; 74 24; 
75 50; 76 64; 77 153; 78 34; 79 10; 
80 23; 81 7; 83 3; 85 3; 86 8; 
87 23; 88 19; 89 87; 90 74; 91 22; 
92 7; 93 3; 95 13; 96 5; 98 6; 
99 6; 100 31; 101 89; 102 38; 103 80; 
104 29; 105 49; 107 20; 108 8; 109 3; 
112 4; 113 15; 114 25; 115 33; 116 47; 
117 52; 118 32; 119 8; 121 43; 122 9; 
124 3; 126 187; 127 930; 128 166; 129 25; 
130 30; 132 189; 133 69; 134 18; 136 70; 
137 7; 139 35; 141 45; 142 14; 144 74; 
145 75; 146 68; 147 13; 148 11; 150 158; 
151 21; 152 13; 153 10; 155 349; 156 46; 
157 4; 158 16; 159 85; 160 421; 161 43; 
162 9; 163 12; 164 11; 165 12; 167 124; 
168 20; 170 12; 172 27; 173 19; 174 27; 
175 11; 176 38; 177 14; 178 6; 179 3; 
180 5; 181 4; 182 3; 183 4; 184 4; 
185 3; 186 28; 187 30; 189 25; 190 8; 
191 3; 192 11; 193 5; 196 3; 198 5; 
199 10; 200 56; 201 55; 202 101; 203 38; 
204 16; 205 5; 208 9; 209 3; 211 7; 
212 9; 213 46; 214 36; 215 41; 216 10; 
217 6; 218 11; 220 15; 221 4; 224 5; 
225 15; 226 29; 227 56; 228 115; 229 58; 
230 45; 231 27; 232 6; 238 15; 239 26; 
240 101; 241 113; 242 46; 243 22; 244 16; 
245 6; 246 12; 248 738; 249 133; 250 17; 
251 9; 252 12; 253 14; 254 51; 255 43; 
256 71; 257 117; 258 97; 259 28; 260 4; 
264 4; 265 6; 267 12; 268 26; 269 40; 
270 145; 271 66; 272 105; 273 23; 274 5; 
275 4; 282 104; 283 73; 284 63; 285 104; 
286 312; 287 68; 288 12; 293 3; 294 3; 
296 16; 297 9; 298 53; 300 670; 301 142; 
302 14; 311 6; 312 9; 313 6; 314 11; 
324 7; 326 5; 327 7; 328 4; 338 7; 
340 6; 341 4; 346 10; 347 6; 353 3; 
354 6; 355 11; 356 28; 358 349; 359 85; 
360 15; 375 999; 376 288; 377 44; 378 4; 
