Name: AM2201 N-(3-fluoropentyl) isomer
Synon: (1-(3-fluoropentyl)-1H-indol-3-yl)(naphthalen-1-yl)methanone
InChIKey: HZCSEIOOIWCYMP-UHFFFAOYSA-N
Formula: C24H22FNO
MW: 359
ExactMass: 359.168543
CASNO: 0
ID: 3288
Comment: Provided by www.caymanchem.com/app/template/landing%2CForensic.vm / Item #9001030  Lot #0440639
Num Peaks: 215
41 297; 42 16; 43 46; 44 1; 45 3; 
46 4; 47 62; 50 15; 51 33; 52 11; 
53 23; 55 36; 56 2; 57 4; 59 49; 
60 4; 61 58; 62 15; 63 35; 64 8; 
65 12; 66 4; 67 16; 69 155; 70 12; 
73 7; 74 24; 75 75; 76 62; 77 153; 
78 25; 79 2; 81 2; 85 2; 86 8; 
87 19; 88 31; 89 94; 90 16; 91 5; 
93 2; 94 5; 98 7; 99 8; 101 142; 
102 160; 103 46; 104 7; 107 13; 109 4; 
110 2; 113 44; 114 43; 115 110; 116 168; 
117 35; 118 4; 119 6; 121 29; 122 6; 
123 3; 126 215; 127 999; 128 311; 129 155; 
130 87; 131 9; 133 9; 134 8; 135 7; 
136 4; 137 5; 138 5; 139 26; 140 11; 
142 182; 144 289; 145 36; 146 7; 147 5; 
148 7; 149 4; 150 9; 151 12; 152 13; 
153 7; 155 331; 156 63; 157 10; 158 11; 
161 4; 162 3; 163 13; 164 8; 165 8; 
167 139; 168 29; 169 7; 170 23; 171 5; 
172 4; 173 3; 174 10; 175 6; 176 20; 
177 5; 180 4; 181 4; 182 7; 184 10; 
186 6; 187 25; 188 10; 189 22; 190 9; 
191 3; 196 3; 198 4; 199 3; 200 9; 
201 8; 202 14; 203 5; 204 9; 205 2; 
208 4; 209 3; 210 2; 211 14; 212 60; 
213 87; 214 45; 215 61; 216 15; 217 8; 
218 3; 222 2; 223 5; 224 10; 225 17; 
226 46; 227 30; 228 30; 229 13; 230 7; 
232 653; 233 106; 234 5; 236 2; 237 2; 
238 16; 239 32; 240 91; 241 198; 242 70; 
243 22; 244 7; 247 2; 251 14; 252 24; 
254 194; 255 93; 256 98; 257 23; 258 2; 
263 2; 265 12; 266 47; 267 46; 268 51; 
269 104; 270 303; 271 58; 272 6; 277 2; 
278 5; 279 5; 280 19; 282 75; 284 580; 
285 147; 286 18; 287 3; 291 3; 292 3; 
294 4; 296 21; 297 5; 298 6; 299 2; 
302 4; 307 2; 308 2; 310 46; 311 13; 
312 4; 320 2; 322 26; 323 9; 324 7; 
326 2; 330 5; 331 11; 332 5; 339 119; 
340 37; 342 427; 343 117; 344 19; 345 2; 
358 404; 359 764; 360 204; 361 31; 362 3; 
