Name: JW 642
Synon: 1,1,1,3,3,3-hexafluoropropan-2-yl-4-(3-phenoxybenzyl)piperazine-1-carboxylate
InChIKey: AVSCNEOUWSVZEY-UHFFFAOYSA-N
Formula: C21H20F6N2O3
MW: 462
ExactMass: 462.137812
CASNO: 0
ID: 3294
Comment: Provided by www.caymanchem.com/app/template/landing%2CForensic.vm / Item #11789  Lot #0440226
Num Peaks: 142
40 2; 41 10; 42 62; 43 5; 44 4; 
45 1; 47 5; 50 9; 51 39; 52 6; 
53 5; 54 12; 55 25; 56 133; 57 10; 
58 7; 62 2; 63 15; 64 9; 65 14; 
66 2; 67 2; 69 71; 70 12; 71 2; 
72 2; 74 2; 75 3; 77 100; 78 72; 
79 12; 80 2; 81 4; 82 5; 83 21; 
84 6; 85 2; 86 2; 89 67; 90 58; 
91 76; 93 2; 94 3; 96 1; 97 8; 
98 5; 99 3; 100 4; 101 2; 102 3; 
103 5; 104 7; 105 12; 106 34; 107 15; 
108 1; 110 1; 111 7; 112 3; 113 7; 
115 43; 116 10; 117 24; 118 9; 119 18; 
125 2; 126 4; 127 30; 128 47; 129 36; 
130 11; 131 7; 132 4; 133 3; 134 3; 
139 10; 140 4; 141 19; 142 11; 143 2; 
144 4; 145 3; 146 5; 148 4; 151 37; 
152 30; 153 63; 154 39; 155 39; 156 14; 
157 3; 160 1; 161 1; 162 2; 165 50; 
166 11; 167 8; 168 61; 169 19; 170 2; 
178 1; 179 1; 181 62; 183 396; 184 999; 
185 140; 186 11; 195 26; 196 15; 197 11; 
198 2; 208 1; 209 3; 210 20; 211 4; 
212 2; 217 2; 222 3; 224 18; 225 3; 
226 1; 231 1; 237 2; 238 15; 239 2; 
250 1; 252 12; 253 1; 259 1; 265 2; 
267 4; 277 1; 279 90; 280 9; 281 1; 
293 37; 294 4; 295 15; 296 2; 443 1; 
461 2; 462 2; 
