Name: JWH-309 5'-isomer
Synon: Naphthalen-1-yl(2-(naphthalen-1-yl)-1-pentyl-1H-pyrrol-3-yl)methanone
InChIKey: AZMVCVZHAUGHHL-UHFFFAOYSA-N
Formula: C30H27NO
MW: 417
ExactMass: 417.209265
CASNO: 0
ID: 3296
Comment: Provided by www.caymanchem.com/app/template/landing%2CForensic.vm / Item #11483  Lot #0439939
Num Peaks: 165
41 166; 43 345; 44 14; 50 8; 51 17; 
53 6; 55 45; 63 8; 65 6; 67 11; 
69 8; 71 15; 73 1; 74 15; 75 20; 
76 13; 77 75; 78 7; 87 8; 88 8; 
89 17; 91 7; 100 9; 101 47; 102 22; 
105 7; 113 6; 115 37; 125 16; 126 148; 
127 855; 128 227; 129 18; 138 14; 139 41; 
140 12; 141 29; 144 7; 145 8; 147 10; 
150 28; 151 55; 152 59; 153 40; 154 77; 
155 582; 156 66; 158 26; 160 6; 163 131; 
164 148; 165 267; 166 61; 167 13; 168 6; 
169 6; 170 10; 171 11; 172 30; 173 37; 
174 12; 175 19; 176 87; 177 55; 178 60; 
179 33; 180 30; 181 33; 189 36; 190 108; 
191 195; 192 71; 193 26; 194 9; 195 6; 
201 10; 202 18; 203 31; 204 105; 205 60; 
206 206; 207 36; 209 46; 215 9; 216 17; 
217 38; 218 40; 219 97; 220 355; 221 61; 
222 8; 224 12; 232 76; 233 20; 234 18; 
235 6; 241 10; 244 11; 245 6; 246 35; 
247 12; 250 7; 252 11; 253 6; 257 7; 
258 6; 261 9; 262 49; 263 23; 265 54; 
266 14; 267 9; 274 11; 276 26; 277 16; 
278 6; 280 8; 281 11; 287 31; 289 126; 
290 528; 291 133; 292 15; 293 8; 300 19; 
301 16; 302 54; 303 24; 304 16; 305 9; 
312 6; 314 19; 315 42; 316 49; 317 54; 
318 75; 319 47; 320 10; 326 11; 327 11; 
328 25; 329 22; 330 30; 331 31; 332 52; 
333 16; 334 6; 341 9; 342 13; 344 56; 
346 264; 347 93; 358 12; 360 63; 361 34; 
362 8; 374 15; 388 30; 389 21; 400 54; 
402 8; 416 507; 417 999; 418 324; 420 7; 
