Name: KML29
Synon: 1,1,1,3,3,3-hexafluoropropan-2-yl-4-(bi(benzo[d][1,3]dioxol-5-yl)(hydroxy)methyl)piperidine-1-carboxylate
InChIKey: SXHQLPHDBLTFPM-UHFFFAOYSA-N
Formula: C24H21F6NO7
MW: 549
ExactMass: 549.122223
CASNO: 0
ID: 3298
Comment: Provided by www.caymanchem.com/app/template/landing%2CForensic.vm / Item #11777  Lot #0440224
Num Peaks: 243
40 3; 41 14; 42 50; 43 10; 44 6; 
45 1; 50 8; 51 16; 52 3; 53 18; 
54 18; 55 100; 56 25; 57 3; 61 3; 
62 9; 63 36; 64 15; 65 108; 66 8; 
67 16; 69 116; 70 3; 73 1; 74 5; 
75 9; 76 10; 77 21; 78 4; 79 8; 
80 9; 81 3; 82 29; 83 14; 84 9; 
85 2; 86 2; 87 4; 88 8; 89 11; 
91 37; 92 16; 93 7; 94 5; 95 6; 
96 2; 97 3; 98 2; 99 2; 100 4; 
101 10; 102 9; 103 9; 104 3; 105 5; 
106 1; 107 1; 108 3; 109 2; 110 7; 
111 4; 112 4; 113 9; 114 3; 115 17; 
116 5; 117 6; 118 3; 119 39; 121 180; 
122 33; 123 4; 124 4; 126 22; 127 31; 
128 29; 129 10; 130 3; 131 5; 132 3; 
133 2; 135 47; 136 6; 137 7; 138 7; 
139 25; 140 6; 141 4; 142 1; 143 5; 
144 2; 145 7; 146 3; 147 9; 149 999; 
150 91; 151 48; 152 15; 153 6; 154 7; 
155 12; 156 5; 157 5; 158 2; 159 6; 
160 3; 161 3; 162 3; 163 12; 164 7; 
165 22; 166 4; 167 6; 168 2; 169 2; 
170 1; 171 2; 172 5; 173 7; 174 1; 
175 2; 176 9; 177 9; 178 9; 179 3; 
180 1; 181 3; 183 4; 184 7; 185 15; 
186 3; 187 4; 188 3; 189 10; 190 8; 
191 12; 192 7; 193 4; 195 11; 196 4; 
197 4; 199 8; 200 2; 201 2; 202 3; 
203 2; 204 4; 205 10; 206 5; 207 4; 
208 2; 209 4; 210 3; 211 3; 212 12; 
213 8; 214 3; 215 2; 216 1; 217 2; 
219 12; 220 4; 221 3; 222 6; 223 6; 
224 13; 225 6; 226 1; 228 1; 229 1; 
230 1; 231 3; 232 2; 233 7; 234 2; 
235 10; 236 3; 237 6; 238 10; 240 9; 
242 29; 243 4; 244 1; 246 1; 247 6; 
248 3; 249 6; 250 7; 251 4; 252 1; 
253 3; 255 44; 256 7; 257 1; 258 2; 
259 2; 260 2; 261 2; 262 4; 263 12; 
264 4; 265 2; 266 1; 267 6; 268 6; 
271 736; 272 126; 273 16; 274 3; 275 2; 
276 3; 277 9; 278 24; 279 10; 280 3; 
281 1; 282 1; 283 1; 289 4; 290 1; 
291 2; 293 11; 294 3; 295 2; 305 1; 
306 2; 307 4; 308 1; 321 1; 336 2; 
338 1; 350 1; 364 2; 365 1; 380 1; 
382 2; 390 2; 512 4; 529 1; 531 60; 
532 15; 533 3; 549 1; 
