Name: MAM2201 N-(4-fluoropentyl) isomer
Synon: (1-(4-fluoropentyl)-1H-indol-3-yl)(4-methylnaphthalen-1-yl)methanone
InChIKey: UIDBGAPPHLZBPM-UHFFFAOYSA-N
Formula: C25H24FNO
MW: 373
ExactMass: 373.184193
CASNO: 0
ID: 3299
Comment: Provided by www.caymanchem.com/app/template/landing%2CForensic.vm / Item #11782  Lot #0439334
Num Peaks: 255
41 281; 42 15; 43 79; 44 1; 45 3; 
47 174; 50 9; 51 23; 52 8; 53 14; 
54 3; 55 28; 58 1; 59 18; 61 19; 
62 9; 63 42; 64 6; 65 18; 67 11; 
69 114; 70 7; 71 1; 73 7; 74 11; 
75 32; 76 27; 77 46; 78 13; 79 3; 
82 2; 84 4; 85 3; 86 4; 87 17; 
88 32; 89 139; 90 18; 91 33; 92 3; 
93 2; 94 7; 95 5; 96 4; 98 6; 
99 5; 100 16; 101 63; 102 147; 103 40; 
104 6; 105 2; 107 15; 108 6; 109 8; 
111 4; 112 8; 113 53; 114 89; 115 751; 
116 361; 117 62; 120 29; 121 65; 122 1; 
123 2; 125 4; 126 47; 127 209; 128 207; 
129 154; 130 95; 131 20; 134 112; 135 120; 
137 13; 139 281; 140 121; 141 847; 144 717; 
145 91; 146 9; 147 15; 149 409; 151 18; 
152 28; 153 43; 154 45; 155 68; 156 55; 
157 17; 158 27; 159 15; 161 4; 162 9; 
163 13; 164 9; 165 26; 166 11; 167 23; 
169 715; 170 128; 171 11; 172 2; 173 4; 
174 11; 175 7; 176 24; 177 24; 178 8; 
179 4; 181 496; 182 86; 184 55; 185 10; 
187 21; 188 14; 189 13; 190 7; 191 6; 
192 3; 193 1; 194 6; 195 15; 196 6; 
197 8; 198 5; 199 5; 200 18; 201 16; 
202 35; 203 12; 204 16; 205 6; 209 4; 
210 12; 212 162; 213 90; 214 51; 215 36; 
216 9; 217 3; 218 4; 219 2; 221 3; 
222 3; 223 2; 224 21; 225 31; 226 104; 
227 54; 228 65; 229 29; 230 13; 232 999; 
233 171; 234 16; 235 1; 236 1; 237 15; 
238 19; 239 54; 240 109; 241 212; 242 55; 
243 14; 244 2; 245 2; 247 1; 249 5; 
250 7; 251 25; 252 32; 253 73; 254 301; 
255 161; 256 59; 257 22; 258 8; 259 1; 
260 1; 263 3; 264 11; 265 19; 266 43; 
267 62; 268 153; 269 139; 270 148; 271 30; 
272 5; 273 2; 274 2; 276 1; 277 3; 
278 3; 279 9; 280 52; 281 65; 282 89; 
283 110; 284 267; 285 67; 286 13; 287 1; 
291 4; 292 6; 293 1; 294 18; 296 64; 
298 718; 299 169; 300 20; 301 2; 308 6; 
310 26; 311 10; 312 9; 313 3; 316 2; 
318 1; 320 1; 321 1; 322 1; 323 1; 
324 9; 325 2; 327 5; 329 3; 330 1; 
331 2; 334 1; 336 14; 337 6; 338 10; 
339 5; 340 14; 341 6; 342 3; 344 15; 
345 7; 346 5; 348 2; 352 21; 353 71; 
354 23; 356 226; 357 61; 358 76; 359 18; 
361 1; 372 163; 373 366; 374 94; 375 12; 
