Name: MAM2201 N-(2-fluoropentyl) isomer
Synon: (1-(2-fluoropentyl)-1H-indol-3-yl)(4-methylnaphthalen-1-yl)methanone
InChIKey: GKGOOBXNSBWSAR-UHFFFAOYSA-N
Formula: C25H24FNO
MW: 373
ExactMass: 373.184193
CASNO: 0
ID: 3301
Comment: Provided by www.caymanchem.com/app/template/landing%2CForensic.vm / Item #11780  Lot #0440236
Num Peaks: 180
41 354; 42 26; 43 123; 46 11; 47 164; 
50 14; 51 29; 52 16; 53 26; 55 92; 
59 49; 61 24; 62 29; 63 67; 64 11; 
65 33; 67 27; 68 9; 69 133; 70 13; 
73 17; 74 27; 75 58; 76 80; 77 61; 
78 23; 79 9; 86 9; 87 16; 88 66; 
89 162; 90 27; 91 39; 99 13; 100 15; 
101 106; 102 268; 103 90; 104 9; 107 30; 
113 68; 115 999; 116 307; 117 52; 118 11; 
119 21; 120 42; 122 12; 126 59; 127 193; 
128 260; 129 234; 130 116; 131 15; 132 28; 
134 124; 137 16; 139 387; 140 161; 141 966; 
143 86; 144 482; 145 31; 146 12; 147 16; 
149 213; 151 18; 152 41; 153 78; 154 63; 
155 76; 156 31; 157 15; 158 22; 161 14; 
163 23; 164 13; 165 18; 166 12; 167 24; 
169 624; 170 90; 172 12; 174 12; 175 10; 
176 16; 177 12; 181 502; 182 91; 183 21; 
184 19; 187 32; 188 26; 189 18; 190 13; 
200 21; 201 28; 202 46; 203 15; 204 20; 
205 10; 207 14; 211 13; 212 62; 213 63; 
214 37; 215 26; 216 14; 224 26; 225 24; 
226 106; 227 63; 228 59; 229 33; 230 25; 
232 932; 233 128; 234 20; 237 17; 238 23; 
239 59; 240 86; 241 198; 242 48; 243 13; 
251 20; 252 37; 253 114; 254 338; 255 168; 
256 73; 257 18; 264 14; 265 30; 266 45; 
267 84; 268 177; 269 148; 270 192; 271 41; 
278 14; 279 15; 280 64; 281 60; 282 96; 
283 126; 284 347; 285 80; 286 17; 293 12; 
294 30; 296 78; 298 627; 299 162; 300 13; 
306 12; 308 15; 310 44; 311 17; 324 454; 
325 123; 326 21; 336 85; 337 34; 338 26; 
339 14; 340 10; 344 17; 345 18; 352 42; 
353 42; 354 18; 356 257; 357 70; 358 106; 
359 32; 372 256; 373 769; 374 164; 375 32; 
