Name: SER-601
Synon: 1,4-dihydro-6-(1-methylethyl)-4-oxo-1-pentyl-N-tricyclo[3.3.1.13,7]dec-1-yl-3-quinolinecarboxamide
InChIKey: KUMKLUDNETVLDS-UHFFFAOYSA-N
Formula: C28H38N2O2
MW: 434
ExactMass: 434.29333
CASNO: 1048038909
ID: 3302
Comment: Provided by www.caymanchem.com/app/template/landing%2CForensic.vm / Item #11743  Lot #0441236
Num Peaks: 199
40 8; 41 93; 42 21; 43 187; 44 11; 
53 12; 54 5; 55 48; 56 15; 57 9; 
58 4; 65 17; 66 9; 67 53; 68 14; 
69 16; 71 8; 77 65; 78 23; 79 94; 
80 21; 81 27; 82 12; 90 5; 91 97; 
92 64; 93 195; 94 70; 95 20; 96 10; 
102 5; 103 22; 104 15; 105 20; 106 19; 
107 30; 108 20; 109 8; 114 5; 115 41; 
116 17; 117 22; 118 9; 119 10; 120 11; 
121 4; 122 6; 127 10; 128 24; 129 8; 
130 37; 131 10; 132 6; 133 18; 134 12; 
135 80; 136 20; 137 6; 140 4; 141 8; 
142 21; 143 62; 144 36; 145 7; 146 12; 
147 9; 149 27; 150 201; 151 23; 152 6; 
154 15; 155 6; 156 41; 157 16; 158 11; 
162 6; 166 5; 167 6; 168 5; 169 7; 
170 27; 171 39; 172 117; 173 11; 174 10; 
175 5; 177 5; 179 6; 181 9; 184 37; 
185 13; 186 29; 187 9; 188 7; 189 7; 
193 5; 195 4; 196 6; 197 15; 198 78; 
199 33; 200 19; 201 26; 207 14; 209 4; 
210 6; 212 26; 214 261; 215 39; 216 8; 
217 8; 218 5; 225 5; 226 9; 227 35; 
228 47; 229 9; 230 12; 231 5; 240 27; 
241 10; 242 25; 243 9; 244 7; 252 5; 
253 11; 254 14; 256 24; 257 170; 258 102; 
259 16; 265 5; 266 7; 267 17; 268 24; 
269 21; 270 19; 271 102; 272 22; 273 7; 
281 8; 282 54; 284 999; 285 214; 286 52; 
287 12; 288 4; 294 5; 295 9; 296 26; 
297 9; 300 10; 301 5; 307 11; 309 6; 
310 4; 311 8; 312 14; 319 11; 320 6; 
321 6; 327 5; 333 9; 334 8; 335 5; 
336 13; 339 4; 340 12; 341 8; 343 4; 
346 8; 347 6; 348 11; 349 31; 350 41; 
351 8; 359 12; 360 5; 363 13; 364 5; 
365 4; 374 12; 377 70; 378 19; 387 4; 
389 158; 390 69; 391 34; 392 5; 393 4; 
402 4; 405 28; 406 78; 407 33; 417 35; 
418 10; 434 105; 435 31; 436 6; 
