Name: RCS-4 N-(5-hydroxypentyl) metabolite
Synon: (1-(5-hydroxypentyl)-1H-indol-3-yl)(4-methoxyphenyl)methanone
InChIKey: NIQWYBPFQLBKGZ-UHFFFAOYSA-N
Formula: C21H23NO3
MW: 337
ExactMass: 337.167793
CASNO: 0
ID: 3309
Comment: Provided by www.caymanchem.com/app/template/landing%2CForensic.vm / Item #10935  Lot #0429353
Num Peaks: 198
41 150; 42 10; 43 32; 44 4; 45 11; 
50 10; 51 16; 52 5; 53 14; 54 2; 
55 23; 56 2; 57 16; 62 10; 63 39; 
64 45; 65 17; 67 13; 69 57; 70 3; 
74 8; 75 32; 76 37; 77 215; 78 27; 
79 10; 81 3; 82 4; 84 3; 85 16; 
86 4; 87 6; 88 22; 89 46; 90 10; 
91 8; 92 134; 93 12; 94 2; 95 5; 
98 2; 99 2; 101 31; 102 74; 103 34; 
104 18; 105 11; 106 10; 107 106; 108 24; 
111 7; 112 3; 114 20; 115 80; 116 102; 
117 19; 119 28; 120 2; 121 16; 123 2; 
125 49; 126 9; 127 12; 128 66; 129 78; 
130 76; 132 24; 133 3; 135 999; 136 78; 
137 13; 139 12; 140 9; 141 9; 142 9; 
143 41; 144 273; 145 30; 147 1; 150 8; 
151 29; 152 40; 153 12; 154 23; 155 6; 
156 30; 157 9; 158 24; 159 4; 160 2; 
163 15; 164 14; 165 29; 166 8; 167 16; 
168 9; 170 35; 172 304; 173 42; 174 11; 
175 3; 176 7; 178 46; 179 36; 180 19; 
181 5; 183 3; 184 49; 185 6; 186 3; 
187 5; 189 2; 190 22; 191 31; 192 35; 
193 26; 194 6; 195 5; 196 3; 197 2; 
198 9; 200 23; 202 165; 203 30; 204 19; 
205 9; 206 18; 207 37; 208 21; 209 4; 
210 2; 212 4; 217 5; 218 3; 219 6; 
220 26; 222 155; 223 32; 224 8; 228 9; 
230 245; 231 35; 232 11; 233 23; 234 20; 
235 9; 236 16; 237 6; 238 3; 241 2; 
246 6; 247 3; 248 9; 249 18; 250 31; 
251 49; 253 3; 260 3; 262 10; 264 522; 
265 159; 266 30; 267 8; 270 2; 274 2; 
276 17; 277 3; 278 29; 279 5; 280 3; 
281 10; 283 4; 288 3; 290 37; 291 11; 
292 23; 293 7; 294 8; 298 2; 302 2; 
304 4; 305 9; 306 41; 307 23; 308 5; 
316 2; 318 9; 319 8; 320 13; 321 6; 
322 3; 323 3; 328 2; 335 23; 337 505; 
338 109; 339 15; 341 3; 
