Name: JWH-145 2-phenyl isomer
Synon: Naphthalen-1-yl(1-pentyl-2-phenyl-1H-pyrrol-3-yl)methanone
InChIKey: VMSOEUHEBCVAPI-UHFFFAOYSA-N
Formula: C26H25NO
MW: 367
ExactMass: 367.193615
CASNO: 0
ID: 3312
Comment: Provided by www.caymanchem.com/app/template/landing%2CForensic.vm / Item #11623  Lot #0442277
Num Peaks: 199
41 246; 42 29; 43 352; 44 23; 50 10; 
51 21; 52 10; 53 23; 54 5; 55 61; 
56 6; 62 6; 63 33; 64 7; 65 22; 
66 14; 67 25; 68 4; 69 16; 71 11; 
73 3; 74 22; 75 44; 76 35; 77 153; 
78 34; 79 6; 86 8; 87 18; 88 23; 
89 35; 90 10; 91 20; 96 5; 98 9; 
99 5; 100 18; 101 78; 102 62; 103 18; 
104 90; 105 15; 106 4; 107 4; 112 4; 
113 29; 114 93; 115 304; 116 53; 117 10; 
118 11; 119 11; 120 11; 125 24; 126 208; 
127 999; 128 314; 129 54; 130 10; 132 4; 
133 13; 134 9; 135 4; 137 7; 138 4; 
139 40; 140 56; 141 63; 142 62; 143 12; 
144 6; 146 14; 147 22; 149 14; 150 13; 
151 12; 152 25; 153 41; 155 788; 156 184; 
157 13; 161 5; 162 10; 163 60; 164 61; 
165 129; 166 27; 167 49; 168 34; 169 80; 
170 530; 171 66; 172 7; 174 27; 175 10; 
176 17; 177 4; 178 7; 179 8; 180 8; 
182 78; 184 74; 185 5; 186 5; 187 8; 
188 6; 190 36; 191 18; 192 11; 193 6; 
194 17; 195 5; 196 27; 197 4; 198 9; 
200 4; 202 11; 203 11; 204 9; 205 8; 
206 7; 207 1; 209 5; 210 12; 211 7; 
212 63; 213 20; 214 9; 215 29; 216 8; 
217 5; 218 9; 219 19; 220 32; 221 9; 
224 13; 225 5; 226 21; 227 8; 228 11; 
229 4; 230 6; 232 12; 233 6; 234 10; 
235 5; 236 6; 237 24; 240 737; 241 177; 
242 22; 243 8; 250 16; 251 13; 252 54; 
253 32; 254 21; 255 13; 256 5; 262 4; 
264 18; 265 37; 266 45; 267 82; 268 91; 
269 38; 270 16; 278 22; 279 12; 280 31; 
281 28; 282 98; 283 43; 284 9; 290 129; 
291 34; 292 12; 293 16; 294 49; 296 297; 
297 77; 298 14; 308 11; 310 192; 311 59; 
312 12; 313 5; 322 4; 324 30; 325 7; 
338 23; 339 16; 350 35; 352 6; 366 437; 
367 665; 368 161; 369 27; 370 4; 
