Name: JWH-250 N-(5-hydroxypentyl) metabolite
Synon: 1-(1-(5-hydroxypentyl)-1H-indol-3-yl)-2-(2-methoxyphenyl)ethanone
InChIKey: BEAGHVHOGRTTHK-UHFFFAOYSA-N
Formula: C22H25NO3
MW: 351
ExactMass: 351.183443
CASNO: 0
ID: 3313
Comment: Provided by www.caymanchem.com/app/template/landing%2CForensic.vm / Item #9000767  Lot #0427513
Num Peaks: 145
41 53; 42 3; 43 9; 44 1; 45 5; 
50 3; 51 8; 52 6; 53 4; 55 7; 
56 1; 57 8; 58 1; 61 1; 62 3; 
63 10; 64 4; 65 32; 66 2; 67 7; 
69 37; 70 2; 74 2; 75 7; 76 8; 
77 25; 78 37; 79 3; 85 3; 87 3; 
88 8; 89 39; 91 169; 92 14; 93 11; 
94 2; 96 1; 101 11; 102 36; 103 15; 
104 1; 105 3; 106 2; 107 2; 108 1; 
114 9; 115 41; 116 77; 117 14; 118 5; 
119 4; 121 66; 122 8; 126 1; 128 23; 
129 48; 130 33; 131 6; 132 2; 133 2; 
134 1; 135 1; 137 1; 139 2; 140 2; 
141 4; 143 51; 144 280; 145 30; 146 6; 
150 1; 151 1; 152 2; 153 1; 154 4; 
155 2; 156 9; 157 9; 158 4; 159 1; 
163 1; 164 1; 165 4; 166 1; 167 3; 
168 4; 170 16; 171 6; 172 3; 174 1; 
175 1; 176 4; 177 1; 178 3; 179 1; 
180 1; 182 1; 184 4; 185 1; 186 1; 
188 1; 189 1; 191 3; 192 2; 195 1; 
198 14; 199 4; 200 12; 201 1; 202 1; 
203 3; 204 6; 205 3; 208 1; 212 8; 
213 2; 214 3; 216 4; 217 3; 218 2; 
219 1; 220 2; 221 1; 223 1; 224 1; 
225 1; 226 1; 228 50; 230 999; 231 147; 
232 16; 233 2; 234 3; 235 1; 245 1; 
246 2; 247 1; 278 3; 319 1; 321 1; 
327 1; 335 1; 349 1; 351 13; 352 3; 
