Name: JWH-250 N-(4-hydroxypentyl) metabolite
Synon: 1-(1-(4-hydroxypentyl)-1H-indol-3-yl)-2-(2-methoxyphenyl)ethanone
InChIKey: GMXLLEJMDHWZNM-UHFFFAOYSA-N
Formula: C22H25NO3
MW: 351
ExactMass: 351.183443
CASNO: 0
ID: 3314
Comment: Provided by www.caymanchem.com/app/template/landing%2CForensic.vm / Item #10939  Lot #0432679
Num Peaks: 164
41 49; 42 4; 43 51; 45 95; 46 2; 
50 4; 51 15; 52 9; 53 4; 54 1; 
55 4; 57 4; 58 2; 59 1; 62 4; 
63 10; 64 5; 65 44; 66 4; 67 5; 
69 107; 70 6; 71 8; 74 2; 75 9; 
76 11; 77 33; 78 42; 79 5; 80 1; 
85 26; 86 2; 87 7; 88 8; 89 47; 
91 214; 92 18; 93 16; 94 1; 101 17; 
102 55; 103 21; 104 4; 105 5; 106 2; 
107 4; 108 1; 109 2; 113 1; 114 11; 
115 51; 116 96; 117 16; 118 10; 119 4; 
121 101; 122 10; 123 1; 126 1; 127 5; 
128 39; 129 91; 130 50; 131 6; 132 2; 
133 1; 134 1; 135 3; 139 4; 140 3; 
141 3; 142 7; 143 57; 144 458; 145 48; 
146 6; 147 2; 148 1; 150 1; 151 2; 
152 3; 153 2; 154 9; 155 4; 156 17; 
157 26; 158 8; 159 3; 163 3; 164 2; 
165 5; 166 2; 167 5; 168 5; 169 2; 
170 14; 171 2; 172 1; 174 2; 175 1; 
176 3; 177 2; 178 4; 179 1; 180 1; 
181 1; 182 2; 183 2; 184 18; 185 8; 
186 10; 187 3; 188 1; 189 2; 190 3; 
191 3; 192 1; 194 1; 197 1; 198 1; 
201 1; 202 1; 203 4; 204 7; 205 3; 
206 3; 210 2; 212 31; 213 5; 214 9; 
215 2; 216 4; 217 8; 218 5; 219 2; 
220 6; 221 1; 222 1; 224 1; 226 1; 
228 35; 230 999; 231 158; 232 16; 233 4; 
234 4; 235 1; 246 2; 247 1; 248 1; 
249 1; 250 1; 261 1; 262 1; 278 6; 
279 2; 322 1; 333 1; 334 1; 335 2; 
336 3; 349 1; 351 19; 352 4; 
