Name: JWH-250 5-hydroxyindole metabolite
Synon: 1-(5-hydroxy-1-pentyl-1H-indol-3-yl)-2-(2-methoxyphenyl)ethanone
InChIKey: BZBRKUXWVBPICN-UHFFFAOYSA-N
Formula: C22H25NO3
MW: 351
ExactMass: 351.183443
CASNO: 1379604677
ID: 3315
Comment: Provided by www.caymanchem.com/app/template/landing%2CForensic.vm / Item #9000766  Lot #0427512
Num Peaks: 149
41 30; 43 47; 50 3; 51 8; 52 6; 
53 4; 55 9; 56 1; 57 1; 62 2; 
63 8; 64 3; 65 30; 66 2; 67 2; 
69 4; 71 2; 73 2; 74 1; 75 3; 
76 15; 77 23; 78 29; 79 4; 80 6; 
81 2; 83 1; 87 1; 89 26; 90 22; 
91 157; 92 14; 93 10; 94 2; 95 1; 
101 1; 102 6; 103 14; 104 7; 105 16; 
106 3; 107 1; 108 1; 113 1; 114 1; 
115 4; 116 11; 117 18; 118 9; 119 4; 
120 4; 121 49; 122 6; 127 2; 128 3; 
130 7; 131 13; 132 56; 133 6; 134 2; 
135 1; 139 1; 140 2; 142 2; 144 12; 
145 27; 146 24; 147 4; 151 1; 152 2; 
153 1; 154 1; 155 1; 156 1; 158 7; 
159 37; 160 181; 161 15; 162 1; 163 2; 
164 1; 165 2; 166 1; 167 1; 170 2; 
171 1; 172 5; 173 10; 174 8; 175 2; 
176 1; 177 1; 178 1; 179 1; 180 1; 
181 1; 183 1; 184 1; 185 1; 186 7; 
187 1; 188 1; 189 1; 190 1; 191 2; 
193 1; 200 3; 201 1; 202 3; 203 1; 
204 2; 205 1; 214 1; 216 2; 217 1; 
219 1; 220 4; 221 1; 222 1; 223 1; 
224 1; 225 1; 226 1; 227 1; 228 8; 
230 999; 231 147; 232 19; 233 3; 234 3; 
235 1; 236 2; 237 1; 238 1; 246 1; 
248 1; 249 2; 250 2; 251 1; 252 1; 
262 1; 266 1; 267 1; 282 1; 294 4; 
322 5; 323 1; 351 31; 352 7; 
