Name: JWH-398 N-(4-hydroxypentyl) metabolite
Synon: (4-Chloronaphthalen-1-yl)(1-(4-hydroxypentyl)-1H-indol-3-yl)methanone
InChIKey: KDHNVFXZDOAZAI-UHFFFAOYSA-N
Formula: C24H22ClNO2
MW: 391
ExactMass: 391.133907
CASNO: 0
ID: 3316
Comment: Provided by www.caymanchem.com/app/template/landing%2CForensic.vm / Item #10943  Lot #0440325
Num Peaks: 174
41 304; 42 26; 43 453; 44 25; 45 556; 
50 24; 51 48; 55 34; 57 32; 58 32; 
63 49; 66 24; 67 20; 69 358; 71 23; 
74 78; 75 113; 76 81; 77 98; 78 25; 
81 23; 85 549; 86 45; 87 43; 88 27; 
89 150; 90 29; 91 22; 93 24; 98 27; 
99 62; 100 25; 101 137; 102 287; 103 69; 
106 104; 112 25; 113 56; 114 64; 115 172; 
116 231; 117 87; 118 106; 121 41; 125 147; 
126 693; 127 215; 128 296; 129 251; 130 229; 
132 29; 133 56; 134 38; 135 42; 141 94; 
142 118; 143 87; 144 983; 145 139; 147 28; 
148 28; 149 41; 153 38; 154 61; 155 42; 
156 86; 157 39; 158 178; 159 156; 160 66; 
161 768; 162 176; 163 295; 164 80; 167 33; 
168 24; 169 20; 170 76; 171 34; 173 29; 
175 81; 177 62; 184 134; 186 63; 187 66; 
189 999; 190 152; 191 353; 192 58; 200 23; 
201 125; 202 197; 203 61; 208 22; 210 31; 
211 32; 212 64; 213 113; 214 102; 215 48; 
224 46; 225 29; 226 87; 227 31; 228 70; 
230 365; 231 55; 238 55; 240 159; 241 196; 
242 78; 249 34; 251 28; 253 142; 254 308; 
255 164; 256 53; 265 29; 266 38; 267 73; 
269 216; 270 145; 271 37; 274 37; 275 39; 
276 28; 278 27; 281 44; 282 91; 283 76; 
284 38; 288 235; 289 100; 290 112; 291 58; 
292 44; 293 24; 296 39; 300 30; 301 40; 
302 74; 304 827; 305 209; 306 421; 307 115; 
308 76; 314 70; 316 173; 318 404; 319 171; 
320 246; 321 60; 322 29; 323 23; 330 202; 
331 76; 332 90; 333 25; 341 24; 344 24; 
345 30; 346 36; 347 24; 358 34; 372 26; 
373 72; 374 65; 375 30; 376 30; 389 84; 
391 648; 392 138; 393 179; 394 36; 
