Name: JWH-018 N-(4-hydroxypentyl) metabolite
Synon: (1-(4-hydroxypentyl)-1H-indol-3-yl)(naphthalen-1-yl)methanone
InChIKey: LLFBQQHYZJTRAS-UHFFFAOYSA-N
Formula: C24H23NO2
MW: 357
ExactMass: 357.172878
CASNO: 1320363470
ID: 3319
Comment: Provided by www.caymanchem.com/app/template/landing%2CForensic.vm / Item #10796  Lot #0438136
Num Peaks: 167
40 2; 41 184; 43 248; 44 16; 45 286; 
50 13; 51 31; 52 13; 53 10; 54 8; 
55 25; 57 17; 62 12; 63 34; 67 14; 
69 180; 70 12; 71 23; 73 18; 74 19; 
75 65; 76 44; 77 122; 78 15; 85 271; 
86 21; 87 20; 88 30; 89 83; 90 18; 
91 8; 98 10; 100 20; 101 94; 102 130; 
103 47; 104 7; 106 49; 112 10; 113 31; 
114 34; 115 116; 116 147; 117 38; 118 58; 
119 12; 121 21; 125 19; 126 155; 127 999; 
128 337; 129 156; 130 96; 131 16; 132 13; 
134 29; 135 14; 139 52; 142 227; 144 623; 
145 56; 146 13; 148 8; 150 9; 151 11; 
152 15; 153 20; 155 670; 156 123; 157 25; 
158 98; 161 9; 163 12; 164 9; 165 13; 
167 122; 168 26; 170 42; 171 15; 177 8; 
179 8; 184 70; 186 14; 187 25; 188 17; 
189 17; 191 4; 197 11; 198 10; 200 14; 
202 95; 203 19; 208 15; 209 1; 211 8; 
212 46; 213 71; 214 42; 215 63; 216 11; 
217 9; 224 12; 225 20; 226 46; 227 31; 
228 43; 229 26; 230 239; 231 51; 232 9; 
238 19; 239 38; 240 76; 241 179; 242 78; 
243 29; 244 17; 250 8; 251 21; 252 16; 
253 68; 254 323; 255 130; 256 98; 258 10; 
264 9; 266 54; 267 59; 268 91; 269 147; 
270 778; 271 194; 272 167; 273 30; 278 10; 
280 42; 281 16; 282 131; 283 102; 284 534; 
285 135; 286 88; 287 17; 294 20; 296 196; 
297 69; 298 20; 299 8; 306 8; 310 26; 
311 21; 312 42; 313 20; 322 20; 323 9; 
324 32; 326 7; 327 8; 338 51; 339 102; 
340 73; 341 29; 342 15; 355 78; 357 592; 
358 136; 359 19; 
