Name: JWH-018 N-(3-hydroxypentyl) metabolite
Synon: (1-(3-hydroxypentyl)-1H-indol-3-yl)(naphthalen-1-yl)methanone
InChIKey: VSFMJFFDYLVSBU-UHFFFAOYSA-N
Formula: C24H23NO2
MW: 357
ExactMass: 357.172878
CASNO: 0
ID: 3320
Comment: Provided by www.caymanchem.com/app/template/landing%2CForensic.vm / Item #11118  Lot #0433143
Num Peaks: 181
41 149; 42 14; 43 58; 44 20; 45 48; 
50 11; 51 25; 52 7; 53 16; 55 37; 
57 81; 58 10; 59 119; 60 6; 62 15; 
63 31; 64 7; 65 6; 67 5; 69 70; 
71 7; 73 9; 74 20; 75 66; 76 43; 
77 126; 78 21; 85 10; 86 6; 87 14; 
88 27; 89 98; 90 16; 91 10; 94 5; 
96 5; 98 8; 99 7; 101 120; 102 151; 
103 44; 104 9; 106 19; 108 9; 113 44; 
114 43; 115 139; 116 163; 117 63; 118 13; 
119 11; 121 29; 126 189; 127 999; 128 336; 
129 160; 130 499; 131 56; 132 11; 133 13; 
134 17; 135 7; 138 4; 139 38; 140 19; 
141 173; 143 61; 144 314; 145 42; 146 18; 
147 6; 148 9; 149 7; 150 5; 151 12; 
152 9; 153 6; 155 897; 156 127; 157 28; 
158 160; 159 17; 161 6; 163 15; 164 6; 
165 9; 167 59; 168 23; 170 28; 171 7; 
172 6; 174 7; 175 9; 176 8; 177 6; 
180 6; 181 5; 182 5; 184 15; 186 5; 
187 18; 188 9; 189 18; 193 2; 198 16; 
200 43; 201 20; 202 36; 208 9; 209 8; 
211 12; 212 15; 213 78; 214 48; 215 73; 
216 14; 217 5; 224 10; 225 16; 226 54; 
227 24; 228 68; 230 292; 231 55; 238 27; 
239 34; 240 105; 241 199; 242 62; 243 17; 
244 8; 251 18; 252 16; 253 56; 254 235; 
255 110; 256 140; 257 38; 258 16; 265 19; 
266 77; 267 69; 268 173; 269 177; 270 596; 
271 160; 272 43; 273 12; 274 6; 278 6; 
280 15; 281 21; 282 204; 283 266; 284 432; 
285 686; 286 172; 287 21; 296 12; 297 9; 
298 44; 299 35; 300 7; 310 12; 311 9; 
322 10; 324 10; 328 144; 329 35; 330 12; 
337 8; 338 23; 339 22; 340 41; 341 14; 
354 5; 355 35; 357 566; 358 144; 359 14; 
360 5; 
