Name: JWH-018 N-(2-hydroxypentyl) metabolite
Synon: (1-(2-hydroxypentyl)-1H-indol-3-yl)(naphthalen-1-yl)methanone
InChIKey: ICOUPJBNCNTOKV-UHFFFAOYSA-N
Formula: C24H23NO2
MW: 357
ExactMass: 357.172878
CASNO: 0
ID: 3321
Comment: Provided by www.caymanchem.com/app/template/landing%2CForensic.vm / Item #11119  Lot #0433523
Num Peaks: 169
41 98; 42 11; 43 143; 44 13; 45 46; 
50 8; 51 25; 52 5; 53 10; 55 188; 
56 8; 57 7; 58 4; 62 5; 63 31; 
64 6; 65 4; 67 4; 69 32; 71 6; 
73 13; 74 16; 75 49; 76 48; 77 113; 
78 16; 85 4; 87 11; 88 17; 89 41; 
90 8; 91 4; 98 4; 99 5; 100 9; 
101 88; 102 150; 103 56; 104 10; 106 8; 
108 3; 112 5; 113 11; 114 18; 115 34; 
116 67; 117 30; 118 6; 119 5; 120 3; 
121 3; 125 12; 126 120; 127 852; 128 256; 
129 210; 130 227; 131 24; 133 7; 135 4; 
139 26; 140 11; 142 70; 143 16; 144 133; 
145 10; 147 3; 149 3; 150 10; 151 10; 
152 14; 153 9; 155 570; 156 82; 157 32; 
158 56; 159 7; 163 9; 165 9; 167 69; 
168 28; 169 4; 170 6; 174 4; 176 6; 
177 4; 178 3; 180 4; 184 6; 185 3; 
186 6; 187 11; 188 3; 189 11; 190 5; 
191 4; 200 18; 201 4; 202 22; 203 3; 
208 5; 209 2; 211 7; 212 6; 213 36; 
214 27; 215 23; 216 4; 217 3; 222 3; 
224 15; 225 14; 226 60; 227 33; 228 30; 
230 158; 231 25; 232 4; 238 8; 239 27; 
240 53; 241 90; 242 32; 243 13; 244 3; 
249 3; 250 3; 251 14; 252 17; 253 46; 
254 214; 255 129; 256 128; 257 40; 258 7; 
264 6; 265 24; 266 65; 267 76; 268 245; 
269 194; 270 293; 271 65; 272 10; 278 3; 
280 5; 281 15; 282 56; 284 999; 285 364; 
286 63; 287 6; 296 16; 297 5; 298 3; 
310 19; 311 3; 314 28; 315 5; 322 10; 
327 3; 338 52; 339 24; 340 41; 341 18; 
342 4; 357 422; 358 104; 359 14; 
