Name: JWH-019 5-hydroxyindole metabolite
Synon: (1-hexyl-5-hydroxy-1H-indol-3-yl)(naphthalen-1-yl)-methanone
InChIKey: VEOUPNIXKBJMFF-UHFFFAOYSA-N
Formula: C25H25NO2
MW: 371
ExactMass: 371.18853
CASNO: 1379604702
ID: 3323
Comment: Provided by www.caymanchem.com/app/template/landing%2CForensic.vm / Item #9000764  Lot #0427510
Num Peaks: 174
41 229; 42 37; 43 419; 44 32; 50 8; 
51 22; 52 13; 53 22; 54 9; 55 83; 
56 10; 57 47; 63 24; 65 22; 73 4; 
74 14; 75 34; 76 46; 77 97; 78 22; 
79 10; 80 23; 81 10; 86 9; 87 8; 
88 10; 89 68; 90 53; 91 19; 92 9; 
94 8; 100 10; 101 48; 102 20; 103 65; 
104 29; 105 31; 106 19; 113 16; 114 19; 
115 17; 116 19; 117 47; 118 28; 119 13; 
120 40; 121 15; 122 12; 125 13; 126 136; 
127 843; 128 160; 129 20; 130 40; 131 19; 
132 145; 133 65; 134 12; 135 45; 137 62; 
139 25; 140 12; 141 37; 142 18; 144 82; 
145 69; 146 101; 147 28; 148 12; 150 53; 
152 19; 153 15; 155 496; 156 71; 157 18; 
158 11; 159 93; 160 356; 161 34; 165 13; 
167 124; 168 18; 172 38; 173 10; 174 22; 
176 16; 177 9; 178 9; 179 10; 183 8; 
186 43; 187 17; 188 14; 189 24; 190 12; 
191 17; 193 2; 200 39; 201 42; 202 65; 
203 36; 204 11; 213 35; 214 29; 215 30; 
216 54; 217 9; 225 12; 226 16; 227 47; 
228 86; 229 44; 230 34; 231 26; 239 15; 
240 87; 241 81; 242 62; 244 738; 245 130; 
246 12; 249 9; 251 10; 253 24; 254 47; 
255 47; 256 62; 257 112; 258 84; 259 35; 
265 11; 267 12; 268 25; 270 161; 271 85; 
272 92; 273 30; 274 10; 280 9; 281 7; 
282 130; 283 100; 284 89; 285 140; 286 406; 
287 102; 288 27; 295 8; 296 20; 297 13; 
298 44; 300 999; 301 265; 302 37; 310 21; 
312 13; 314 31; 315 10; 324 9; 327 11; 
328 19; 336 10; 339 10; 341 12; 342 35; 
343 16; 344 10; 352 23; 354 352; 355 82; 
356 22; 371 921; 372 226; 373 50; 
