Name: JWH-073 N-(4-hydroxybutyl) metabolite
Synon: (1-(4-hydroxybutyl)-1H-indol-3-yl)(naphthalen-1-yl)methanone
InChIKey: FIBVDFAPDNJBNI-UHFFFAOYSA-N
Formula: C23H21NO2
MW: 343
ExactMass: 343.157228
CASNO: 335161143
ID: 3324
Comment: Provided by www.caymanchem.com/app/template/landing%2CForensic.vm / Item #9000865  Lot #0420526
Num Peaks: 182
40 10; 41 79; 42 11; 43 113; 44 7; 
45 22; 50 12; 51 32; 52 14; 53 18; 
55 192; 56 7; 57 4; 62 16; 63 37; 
64 5; 65 11; 71 50; 73 19; 74 30; 
75 61; 76 42; 77 142; 78 23; 85 6; 
86 4; 87 25; 88 33; 89 123; 90 15; 
91 14; 94 7; 98 9; 99 9; 100 19; 
101 122; 102 151; 103 45; 104 5; 106 21; 
107 11; 111 5; 112 6; 113 31; 114 43; 
115 116; 116 240; 117 55; 118 25; 119 9; 
121 32; 126 186; 127 999; 128 319; 129 140; 
130 78; 131 15; 132 18; 133 11; 134 11; 
135 7; 139 33; 140 19; 142 253; 144 695; 
145 70; 146 10; 149 7; 150 8; 151 16; 
152 18; 155 477; 156 93; 157 31; 158 75; 
159 16; 160 9; 163 15; 164 9; 165 7; 
167 132; 168 37; 169 6; 170 79; 171 15; 
172 5; 174 6; 175 4; 176 13; 177 10; 
178 6; 181 4; 183 4; 184 21; 185 6; 
186 35; 187 26; 188 75; 189 28; 190 6; 
191 8; 194 4; 196 5; 198 7; 199 5; 
200 13; 201 5; 202 13; 203 4; 205 4; 
208 2; 211 10; 212 19; 213 103; 214 77; 
215 88; 216 467; 217 62; 218 11; 224 19; 
225 16; 226 50; 227 37; 228 37; 229 21; 
230 5; 231 5; 237 7; 238 25; 239 41; 
240 102; 241 240; 242 102; 243 35; 244 12; 
250 5; 251 15; 252 22; 253 59; 254 286; 
255 111; 256 114; 257 27; 264 8; 266 57; 
267 51; 268 67; 270 783; 271 178; 272 131; 
273 25; 280 25; 281 11; 282 65; 284 452; 
285 128; 286 31; 287 6; 294 11; 296 81; 
297 34; 298 23; 299 8; 308 34; 310 11; 
312 51; 313 29; 314 11; 315 8; 323 4; 
324 39; 325 36; 326 163; 327 37; 328 7; 
329 4; 340 7; 342 200; 343 720; 344 163; 
345 26; 346 4; 
