Name: JWH-073 N-(3-hydroxybutyl) metabolite
Synon: (1-(3-hydroxybutyl)-1H-indol-3-yl)(naphthalen-1-yl)methanone
InChIKey: YPRJGJFJMZOUSH-UHFFFAOYSA-N
Formula: C23H21NO2
MW: 343
ExactMass: 343.157228
CASNO: 1320363481
ID: 3325
Comment: Provided by www.caymanchem.com/app/template/landing%2CForensic.vm / Item #10795  Lot #0429376
Num Peaks: 192
40 5; 41 24; 43 123; 44 16; 45 289; 
46 11; 50 11; 51 28; 52 8; 53 15; 
54 6; 55 139; 56 7; 57 15; 58 15; 
59 4; 61 3; 62 16; 63 31; 64 7; 
65 8; 71 14; 73 7; 74 22; 75 70; 
76 41; 77 131; 78 22; 79 3; 86 3; 
87 22; 88 37; 89 105; 90 19; 91 6; 
94 7; 95 11; 96 3; 98 8; 99 9; 
100 23; 101 120; 102 116; 103 45; 104 8; 
106 15; 107 12; 113 39; 114 45; 115 143; 
116 192; 117 57; 118 15; 119 7; 121 33; 
125 19; 126 193; 127 999; 128 313; 129 139; 
130 432; 131 53; 132 16; 133 4; 134 5; 
135 7; 136 8; 137 3; 139 39; 140 21; 
142 164; 143 60; 144 325; 145 36; 146 15; 
147 6; 148 4; 149 4; 150 8; 151 4; 
152 18; 153 9; 155 665; 156 94; 157 25; 
158 134; 159 13; 162 7; 163 16; 164 10; 
165 6; 167 71; 168 25; 169 7; 170 38; 
171 9; 172 7; 173 4; 174 4; 175 4; 
176 10; 177 8; 179 3; 180 3; 181 4; 
182 3; 184 3; 186 7; 187 28; 188 31; 
189 34; 190 4; 191 1; 193 4; 196 4; 
198 25; 199 6; 200 28; 201 12; 202 12; 
203 2; 208 2; 211 13; 212 12; 213 93; 
214 100; 215 75; 216 331; 217 50; 218 5; 
224 16; 225 11; 226 46; 227 28; 228 36; 
229 14; 230 7; 238 24; 239 33; 240 105; 
241 190; 242 67; 243 22; 244 13; 249 4; 
251 15; 252 14; 254 213; 255 94; 256 105; 
257 39; 258 10; 265 13; 266 61; 267 72; 
268 140; 269 143; 270 696; 271 154; 272 27; 
273 4; 274 2; 276 3; 278 5; 280 21; 
282 193; 283 222; 284 299; 285 401; 286 96; 
287 6; 293 3; 294 4; 295 6; 296 10; 
298 33; 299 41; 300 9; 308 17; 309 6; 
310 9; 324 29; 325 34; 326 67; 327 28; 
328 44; 329 14; 339 2; 341 42; 343 620; 
344 154; 345 25; 
