Name: JWH-122 N-(4-hydroxypentyl) metabolite
Synon: (1-(4-hydroxypentyl)-1H-indol-3-yl)(4-methylnaphthalen-1-yl)methanone
InChIKey: CLPJTHSXFZPIBP-UHFFFAOYSA-N
Formula: C25H25NO2
MW: 371
ExactMass: 371.18853
CASNO: 0
ID: 3328
Comment: Provided by www.caymanchem.com/app/template/landing%2CForensic.vm / Item #11784  Lot #0438482
Num Peaks: 192
40 13; 41 195; 42 15; 43 200; 45 372; 
46 9; 50 6; 51 15; 52 9; 53 11; 
55 26; 57 23; 58 12; 62 6; 63 35; 
64 10; 65 19; 67 8; 69 221; 70 16; 
71 15; 73 11; 74 12; 75 40; 76 40; 
77 45; 78 19; 85 295; 86 19; 87 18; 
88 28; 89 120; 90 18; 91 30; 98 5; 
99 8; 100 11; 101 56; 102 164; 103 44; 
104 12; 105 8; 106 25; 107 14; 108 10; 
113 39; 115 664; 116 243; 117 46; 118 62; 
119 35; 121 35; 126 29; 127 109; 128 172; 
129 143; 130 151; 131 24; 132 20; 133 27; 
134 57; 135 48; 137 7; 139 222; 140 113; 
141 609; 142 182; 144 667; 145 65; 146 6; 
149 249; 151 14; 152 16; 153 44; 154 39; 
155 103; 156 74; 157 26; 158 122; 159 17; 
163 10; 165 19; 166 9; 167 20; 169 710; 
170 157; 171 22; 176 10; 177 22; 181 179; 
182 35; 183 18; 184 77; 186 29; 187 8; 
188 7; 189 15; 190 5; 191 7; 193 12; 
194 6; 195 6; 197 7; 198 10; 200 15; 
201 23; 202 128; 203 28; 211 8; 212 44; 
213 47; 214 33; 215 21; 216 17; 224 16; 
226 71; 227 42; 228 60; 230 312; 231 38; 
232 9; 237 14; 238 17; 239 51; 240 72; 
241 170; 242 63; 243 19; 244 8; 249 6; 
251 26; 252 32; 253 60; 254 298; 255 136; 
256 54; 257 27; 258 16; 259 6; 264 8; 
265 18; 266 49; 267 84; 268 268; 269 158; 
270 184; 271 41; 272 29; 278 7; 279 16; 
280 51; 281 8; 282 118; 284 999; 285 230; 
286 236; 287 47; 292 7; 294 40; 296 154; 
297 89; 298 438; 299 113; 300 52; 301 15; 
308 24; 310 183; 311 42; 312 19; 313 6; 
320 6; 322 8; 324 26; 325 21; 326 55; 
327 28; 336 15; 337 17; 338 46; 339 12; 
341 6; 342 11; 343 11; 352 42; 353 65; 
354 98; 356 50; 357 16; 368 12; 369 61; 
371 652; 372 164; 
