Name: JWH-200 4-hydroxyindole metabolite
Synon: 4-Hydroxyl[1-[2-(4-morpholinyl)ethyl]-1H-indol-3-yl]-1-naphthalenyl-methanone
InChIKey: BZFDQRQHYLPNHW-UHFFFAOYSA-N
Formula: C25H24N2O3
MW: 400
ExactMass: 400.178692
CASNO: 0
ID: 3332
Comment: Provided by www.caymanchem.com/app/template/landing%2CForensic.vm / Item #10744  Lot #0427149
Num Peaks: 153
41 8; 42 26; 43 5; 44 9; 45 2; 
50 2; 51 3; 53 2; 54 7; 55 15; 
56 78; 57 6; 58 1; 62 1; 63 4; 
64 1; 65 1; 68 2; 70 44; 71 5; 
72 18; 74 2; 75 5; 76 7; 77 17; 
78 2; 82 2; 83 1; 84 2; 85 2; 
86 1; 87 1; 88 2; 89 15; 90 10; 
91 3; 95 1; 98 18; 100 999; 101 67; 
102 11; 103 8; 104 5; 105 1; 107 2; 
112 3; 113 3; 114 3; 115 5; 116 15; 
117 14; 118 3; 119 1; 121 1; 125 1; 
126 18; 127 95; 128 34; 129 6; 130 6; 
131 3; 132 1; 133 2; 135 2; 136 4; 
137 1; 139 1; 141 2; 142 1; 143 1; 
144 6; 145 9; 146 2; 147 1; 150 2; 
151 2; 152 3; 153 1; 155 42; 156 4; 
157 1; 158 2; 159 7; 160 2; 161 1; 
163 2; 164 1; 165 1; 172 4; 173 2; 
174 2; 175 1; 176 2; 177 1; 184 1; 
185 3; 186 5; 187 4; 188 1; 189 2; 
190 1; 199 1; 200 4; 201 2; 202 5; 
203 2; 207 1; 211 1; 213 6; 214 3; 
215 4; 216 1; 225 1; 226 3; 227 3; 
228 5; 229 2; 230 1; 238 1; 239 1; 
240 5; 241 5; 242 4; 243 2; 244 2; 
245 1; 251 1; 253 3; 254 7; 255 4; 
256 3; 257 5; 258 2; 267 1; 269 3; 
270 9; 271 4; 272 2; 280 1; 282 2; 
283 2; 284 1; 285 2; 286 2; 287 1; 
288 1; 298 2; 300 20; 301 4; 313 1; 
398 1; 400 45; 401 14; 
