Name: JWH-210 N-(5-hydroxypentyl) metabolite
Synon: (4-Ethylnaphthalen-1-yl)(1-(5-hydroxypentyl)-1H-indol-3-yl)methanone
InChIKey: YKJSXHMELGMWOB-UHFFFAOYSA-N
Formula: C26H27NO2
MW: 385
ExactMass: 385.20418
CASNO: 0
ID: 3333
Comment: Provided by www.caymanchem.com/app/template/landing%2CForensic.vm / Item #9000772  Lot #0427517
Num Peaks: 242
41 265; 42 16; 43 44; 44 4; 45 23; 
50 6; 51 14; 52 6; 53 15; 54 3; 
55 37; 56 3; 57 26; 58 2; 61 2; 
62 9; 63 22; 64 3; 65 9; 67 24; 
69 110; 70 6; 74 10; 75 26; 76 17; 
77 49; 78 12; 79 3; 81 2; 83 2; 
85 22; 86 7; 87 11; 88 17; 89 74; 
90 13; 91 9; 93 4; 94 4; 95 3; 
98 4; 99 4; 100 7; 101 38; 102 88; 
103 33; 104 6; 105 2; 106 3; 107 8; 
109 3; 113 22; 114 34; 115 182; 116 140; 
117 40; 118 10; 119 8; 120 11; 121 20; 
122 2; 125 7; 126 38; 127 126; 128 183; 
129 195; 130 87; 131 15; 132 15; 133 14; 
134 31; 135 11; 137 3; 138 8; 139 179; 
140 111; 141 90; 144 431; 145 37; 146 8; 
148 23; 149 24; 150 12; 151 36; 152 147; 
153 214; 154 143; 155 169; 157 16; 158 12; 
159 3; 161 3; 162 3; 163 4; 164 7; 
165 15; 166 8; 167 26; 168 20; 169 23; 
170 43; 171 22; 172 86; 173 16; 174 6; 
175 3; 176 6; 177 4; 178 5; 179 4; 
180 7; 181 23; 183 323; 184 67; 185 8; 
186 3; 187 7; 188 4; 189 5; 190 4; 
192 2; 193 1; 195 179; 196 32; 197 6; 
198 12; 199 4; 200 19; 201 16; 202 64; 
203 12; 204 3; 209 2; 210 2; 211 4; 
212 8; 213 24; 214 21; 215 32; 216 4; 
217 5; 218 2; 221 2; 224 8; 226 50; 
227 28; 228 50; 230 310; 231 49; 232 5; 
236 2; 237 10; 238 13; 239 31; 240 47; 
241 128; 242 38; 243 9; 244 3; 250 7; 
251 11; 252 22; 253 64; 254 248; 255 115; 
256 47; 257 11; 258 1; 262 2; 263 3; 
264 9; 266 45; 267 73; 268 71; 269 93; 
270 135; 271 20; 272 37; 273 6; 274 2; 
275 2; 278 14; 280 29; 282 177; 283 149; 
284 77; 285 21; 286 4; 290 1; 292 7; 
293 6; 294 27; 295 28; 296 41; 298 282; 
299 81; 300 91; 301 21; 302 5; 306 2; 
308 14; 309 12; 310 42; 312 303; 313 75; 
314 14; 320 4; 322 10; 323 5; 324 25; 
325 8; 326 16; 327 7; 328 2; 329 2; 
334 2; 335 1; 336 5; 338 63; 339 17; 
340 15; 342 24; 343 8; 349 3; 350 18; 
351 10; 352 7; 354 24; 356 145; 357 53; 
358 7; 364 2; 366 42; 368 325; 369 96; 
371 4; 382 14; 384 389; 385 999; 386 265; 
387 47; 388 6; 
