Name: RCS-4 M11 metabolite
Synon: RCS-4 N-(4-oxo-pentyl)phenol metabolite
Synon: 5-(3-(4-hydroxybenozyl)-1H-indol-1-yl)pentan-2-one
InChIKey: PAMVOBREECCUAM-UHFFFAOYSA-N
Formula: C20H19NO3
MW: 321
ExactMass: 321.136494
CASNO: 0
ID: 3346
Comment: Provided by www.caymanchem.com/app/template/landing%2CForensic.vm / Item #11979  Lot #0444113
Num Peaks: 176
40 8; 41 52; 43 958; 44 23; 45 5; 
50 11; 51 20; 52 6; 53 18; 54 3; 
55 20; 58 30; 59 3; 61 3; 62 14; 
63 60; 64 28; 65 255; 66 27; 67 3; 
68 3; 69 6; 70 3; 71 3; 73 5; 
74 17; 75 51; 76 43; 77 65; 78 23; 
82 4; 83 10; 85 795; 86 49; 87 22; 
88 33; 89 63; 90 19; 91 10; 92 26; 
93 264; 94 35; 96 7; 97 3; 98 3; 
99 4; 100 4; 101 57; 102 151; 103 54; 
104 6; 105 5; 107 6; 112 17; 113 11; 
114 30; 115 109; 116 110; 117 28; 119 7; 
121 935; 122 81; 123 9; 125 5; 126 15; 
127 28; 128 147; 129 151; 130 119; 131 21; 
133 5; 135 5; 138 3; 139 12; 140 9; 
141 11; 142 11; 143 35; 144 211; 145 28; 
147 21; 150 12; 151 27; 152 56; 153 29; 
154 32; 155 7; 156 40; 157 13; 158 15; 
159 3; 161 3; 163 13; 164 11; 165 47; 
166 19; 167 23; 168 6; 170 185; 171 23; 
172 3; 174 4; 175 3; 176 9; 177 11; 
178 22; 179 9; 180 22; 181 15; 182 15; 
183 2; 184 31; 185 3; 190 18; 191 33; 
192 33; 193 24; 194 15; 195 3; 200 11; 
201 7; 202 3; 203 7; 204 28; 205 11; 
206 10; 207 16; 208 164; 209 41; 210 11; 
212 6; 217 3; 218 3; 219 4; 220 46; 
221 15; 222 32; 223 6; 224 3; 228 126; 
229 19; 232 11; 233 11; 234 31; 235 26; 
236 77; 237 66; 238 16; 246 22; 247 7; 
248 15; 250 640; 251 136; 252 14; 253 7; 
260 5; 262 67; 263 309; 264 87; 265 9; 
267 3; 276 7; 277 10; 278 12; 281 4; 
282 2; 283 3; 292 24; 293 8; 304 6; 
317 4; 321 999; 322 224; 323 33; 324 4; 
341 3; 
