Name: MMAI
Synon: 2,3-Dihydro-5-methoxy-6-methyl-1H-inden-2-amine
InChIKey: JLESVLCTIOAHPT-UHFFFAOYSA-N
Formula: C11H15NO
MW: 177
ExactMass: 177.115364
CASNO: 132980177
ID: 3350
Comment: Provided by www.caymanchem.com/app/template/landing%2CForensic.vm / Item #13895  Lot #0445450
Num Peaks: 103
40 19; 41 40; 42 43; 43 40; 44 5; 
45 1; 47 1; 50 17; 51 43; 52 27; 
53 34; 54 18; 55 10; 56 6; 57 3; 
59 12; 60 14; 61 2; 62 18; 63 60; 
65 123; 66 46; 67 47; 68 14; 69 4; 
70 4; 72 18; 74 22; 75 18; 76 20; 
77 148; 78 51; 79 80; 80 39; 82 3; 
85 2; 86 6; 87 6; 89 60; 91 256; 
92 51; 93 31; 94 26; 95 5; 96 2; 
97 1; 98 2; 99 1; 100 1; 101 7; 
102 38; 103 79; 104 49; 105 95; 106 36; 
107 36; 108 8; 109 2; 110 1; 111 1; 
113 3; 115 192; 116 53; 117 148; 118 95; 
119 62; 120 22; 121 12; 122 2; 123 4; 
125 1; 127 24; 128 41; 129 37; 130 106; 
131 84; 132 59; 133 33; 134 72; 135 303; 
136 30; 137 3; 141 2; 142 5; 143 16; 
144 59; 145 367; 146 146; 147 100; 149 483; 
150 97; 151 9; 152 1; 157 2; 160 999; 
161 182; 162 489; 163 53; 164 6; 172 1; 
174 29; 177 842; 178 112; 
