Name: 2,3-MDA
Synon: 2,3-Methylenedioxyamphetamine
Synon: .alpha.-Methyl-1,3-benzodioxole-4-ethanamine
InChIKey: XOOVOZRNDZPGLF-UHFFFAOYSA-N
Formula: C10H13NO2
MW: 179
ExactMass: 179.094628
CASNO: 86029483
ID: 3352
Comment: Provided by www.caymanchem.com/app/template/landing%2CForensic.vm / Item #13969  Lot #0444081
Num Peaks: 44
41 10; 42 47; 44 999; 45 30; 50 32; 
51 101; 52 24; 53 18; 54 5; 55 4; 
56 5; 62 13; 63 29; 64 8; 65 23; 
66 7; 67 6; 74 16; 75 11; 76 15; 
77 153; 78 70; 79 43; 80 12; 81 20; 
89 10; 91 10; 92 4; 93 5; 102 4; 
103 14; 104 13; 105 37; 106 22; 107 11; 
118 6; 130 4; 131 7; 135 98; 136 52; 
137 5; 164 12; 179 27; 180 8; 
