Name: 6-IT
Synon: 6-API
Synon: 6-(2-Aminopropyl)indole
Synon: .alpha.-Methyl-1H-indole-6-ethanamine
InChIKey: QCFIFKAOUKPFPU-UHFFFAOYSA-N
Formula: C11H14N2
MW: 174
ExactMass: 174.115699
CASNO: 21005630
ID: 3353
Comment: Provided by www.caymanchem.com/app/template/landing%2CForensic.vm / Item #13938  Lot #0445439
Num Peaks: 82
40 4; 41 13; 42 44; 44 679; 45 20; 
50 9; 51 24; 52 13; 53 5; 54 3; 
56 2; 57 1; 58 1; 61 2; 62 13; 
63 35; 64 12; 65 14; 66 6; 67 1; 
69 1; 71 3; 73 1; 74 10; 75 26; 
76 31; 77 178; 78 35; 79 22; 83 1; 
85 2; 86 6; 87 7; 88 6; 89 27; 
90 12; 91 8; 92 2; 98 2; 99 1; 
100 4; 101 21; 102 80; 103 109; 104 24; 
105 3; 113 2; 114 5; 115 14; 116 8; 
117 23; 118 5; 121 1; 126 3; 127 8; 
128 56; 130 622; 131 999; 132 97; 133 6; 
134 1; 140 2; 141 5; 142 4; 143 5; 
144 3; 145 1; 150 1; 153 1; 154 8; 
155 7; 156 15; 157 13; 158 7; 159 9; 
168 1; 169 1; 170 1; 171 2; 172 4; 
174 26; 175 3; 
