Name: 5F-NNEI 2'-naphthyl isomer
Synon: .beta.-naphthyl 5F-NNEI analogue
Synon: 1-(5-Fluoropentyl)-N-(naphthalen-2-yl)-1H-indole-3-carboxamide
InChIKey: NQVUCORTOJUJIB-UHFFFAOYSA-N
Formula: C24H23FN2O
MW: 374
ExactMass: 374.179441
CASNO: 0
ID: 3367
Comment: Provided by www.caymanchem.com/app/template/landing%2CForensic.vm / Item #14147  Lot #0446577
Num Peaks: 179
41 39; 42 4; 43 14; 44 3; 45 2; 
47 7; 50 3; 51 4; 52 1; 53 2; 
54 2; 55 4; 57 1; 59 4; 61 3; 
62 3; 63 11; 64 1; 65 5; 67 2; 
68 1; 69 12; 70 2; 71 1; 72 2; 
73 4; 74 5; 75 4; 76 7; 77 7; 
78 5; 80 1; 81 1; 82 1; 84 1; 
86 1; 87 2; 88 9; 89 33; 90 3; 
91 2; 94 1; 95 1; 97 2; 100 1; 
101 9; 102 26; 103 10; 104 2; 105 1; 
109 1; 111 1; 113 5; 115 214; 116 106; 
117 13; 118 3; 120 2; 121 1; 122 1; 
123 1; 126 4; 127 11; 128 21; 129 56; 
130 27; 131 5; 133 1; 134 1; 135 6; 
136 1; 139 2; 140 15; 141 8; 142 41; 
143 56; 144 193; 145 23; 146 2; 147 2; 
148 1; 149 8; 150 5; 151 1; 152 1; 
153 1; 154 5; 155 11; 156 12; 157 11; 
158 8; 166 1; 167 3; 168 3; 169 7; 
170 9; 171 4; 172 2; 174 1; 176 2; 
178 1; 179 1; 181 1; 182 3; 184 5; 
185 2; 186 1; 187 4; 189 1; 190 1; 
192 2; 193 1; 194 1; 195 1; 196 1; 
197 2; 198 4; 199 1; 202 1; 204 3; 
205 3; 207 9; 209 2; 210 4; 212 51; 
213 8; 216 1; 218 1; 219 1; 224 1; 
225 1; 226 1; 227 2; 228 2; 230 13; 
232 999; 233 154; 234 14; 235 1; 240 1; 
241 1; 243 1; 248 1; 249 1; 250 1; 
252 1; 253 4; 254 1; 255 3; 256 4; 
257 2; 258 1; 261 1; 267 2; 268 3; 
269 1; 270 1; 276 1; 281 2; 282 1; 
283 3; 284 3; 285 4; 286 1; 297 1; 
301 1; 311 1; 320 1; 331 1; 333 1; 
345 3; 346 1; 354 6; 355 2; 358 1; 
372 1; 374 70; 375 17; 377 1; 
