Name: 5-APDI
Synon: IAP
Synon: Indanylaminopropane
Synon: 5-(2-Aminopropyl)-2,3-dihydro-1H-indene
InChIKey: QYVNZHBQYJRLEX-UHFFFAOYSA-N
Formula: C12H17N
MW: 175
ExactMass: 175.1361
CASNO: 152623955
ID: 3369
Comment: Provided by www.caymanchem.com/app/template/landing%2CForensic.vm / Item #13899  Lot #0445434
Num Peaks: 100
40 5; 41 15; 42 42; 44 999; 45 26; 
46 1; 47 1; 50 8; 51 15; 52 8; 
53 10; 54 1; 56 2; 57 6; 61 2; 
62 5; 63 21; 64 9; 65 29; 66 6; 
67 5; 68 2; 70 1; 71 2; 72 4; 
73 5; 74 8; 75 9; 76 10; 77 55; 
78 27; 79 9; 80 6; 83 1; 86 2; 
87 3; 88 1; 89 14; 91 90; 92 8; 
93 2; 94 1; 95 1; 96 1; 97 1; 
101 4; 102 18; 103 25; 104 15; 105 12; 
106 2; 107 1; 111 1; 112 1; 113 4; 
115 158; 116 78; 117 135; 118 15; 119 3; 
121 1; 122 1; 126 6; 127 38; 128 83; 
129 79; 130 39; 131 104; 132 61; 133 10; 
135 1; 138 1; 139 2; 140 2; 141 7; 
142 5; 143 8; 144 3; 145 1; 146 1; 
147 1; 148 1; 151 1; 152 2; 153 1; 
154 2; 155 1; 156 4; 157 3; 158 5; 
159 3; 160 7; 165 2; 168 2; 172 1; 
173 3; 174 5; 175 5; 176 2; 178 1; 
