Name: 4-Methyl-.alpha.-ethyltryptamine
Synon: 4-Methyl-AET
Synon: .alpha.-Ethyl-4-methyl-1H-indole-3-ethanamine
InChIKey: XKHCIOVNXOVPIK-UHFFFAOYSA-N
Formula: C13H18N2
MW: 202
ExactMass: 202.146998
CASNO: 28289307
ID: 3371
Comment: Provided by www.caymanchem.com/app/template/landing%2CForensic.vm / Item #13886  Lot #0442643
Num Peaks: 77
41 64; 42 22; 43 24; 44 6; 50 9; 
51 17; 52 12; 53 4; 54 7; 55 2; 
56 30; 58 743; 59 30; 62 7; 63 26; 
64 9; 65 22; 66 5; 70 4; 72 10; 
74 7; 75 14; 76 12; 77 42; 78 18; 
79 24; 85 12; 87 30; 88 9; 89 33; 
90 12; 91 49; 92 4; 101 7; 102 21; 
103 24; 104 8; 113 10; 115 188; 116 50; 
117 36; 118 8; 126 5; 127 18; 128 36; 
129 35; 130 90; 131 25; 132 5; 139 2; 
140 7; 141 16; 142 94; 143 176; 144 676; 
145 999; 146 121; 147 10; 153 2; 154 21; 
155 8; 156 13; 157 7; 158 4; 167 3; 
168 6; 169 5; 170 5; 171 4; 172 7; 
173 13; 174 2; 184 3; 185 5; 200 3; 
202 14; 203 2; 
