Name: 5-Methoxy-.alpha.-Ethyltryptamine
Synon: 5-Methoxy-AET
Synon: .alpha.-Ethyl-5-methoxy-1H-indole-3-ethanamine
InChIKey: JHTPCKWBFLMJMQ-UHFFFAOYSA-N
Formula: C13H18N2O
MW: 218
ExactMass: 218.141913
CASNO: 4765100
ID: 3372
Comment: Provided by www.caymanchem.com/app/template/landing%2CForensic.vm / Item #14172  Lot #0445975
Num Peaks: 98
41 61; 42 18; 43 21; 44 2; 50 4; 
51 10; 52 8; 53 3; 54 5; 56 21; 
58 610; 59 26; 61 1; 62 8; 63 25; 
64 10; 65 15; 66 4; 67 2; 70 2; 
73 16; 74 7; 75 12; 76 14; 77 24; 
78 13; 79 6; 80 5; 81 1; 87 20; 
89 64; 90 63; 91 25; 92 6; 93 1; 
95 15; 98 1; 99 1; 100 2; 101 9; 
102 22; 103 17; 104 14; 105 3; 106 1; 
113 1; 114 3; 115 11; 116 41; 117 201; 
118 64; 119 8; 120 1; 127 3; 128 22; 
129 17; 130 47; 131 11; 132 12; 133 4; 
140 1; 141 2; 142 4; 143 8; 145 179; 
146 171; 147 30; 148 3; 154 4; 155 8; 
156 9; 157 6; 158 9; 160 470; 161 999; 
162 121; 163 8; 168 1; 169 1; 170 2; 
171 3; 172 4; 173 8; 174 5; 175 1; 
184 1; 185 1; 186 3; 187 2; 188 8; 
189 22; 190 3; 200 1; 201 3; 202 2; 
216 1; 218 17; 219 2; 
