Name: .alpha.-Pyrrolidinopentiophenone metabolite
Synon: .alpha.-PVP metabolite
Synon: 1-Phenyl-2-(pyrrolidin-1-yl)pentan-1-ol
InChIKey: MSYYSRJQHJQEQA-UHFFFAOYSA-N
Formula: C15H23NO
MW: 233
ExactMass: 233.177964
CASNO: 0
ID: 3374
Comment: Provided by www.caymanchem.com/app/template/landing%2CForensic.vm / Item #14093  Lot #0445642
Num Peaks: 83
41 42; 42 39; 43 15; 44 2; 50 9; 
51 20; 52 6; 53 10; 54 19; 55 35; 
56 15; 57 4; 61 1; 62 1; 63 5; 
64 1; 65 6; 66 2; 67 7; 68 21; 
69 35; 70 33; 71 3; 72 4; 73 2; 
74 4; 75 3; 77 137; 78 34; 79 74; 
80 12; 81 6; 82 10; 84 59; 85 4; 
86 1; 89 5; 91 30; 92 3; 93 1; 
94 7; 96 84; 97 41; 98 17; 99 1; 
102 3; 103 6; 105 50; 106 24; 107 16; 
108 5; 110 72; 111 6; 112 1; 115 14; 
116 4; 117 14; 118 3; 119 1; 120 1; 
122 1; 124 24; 126 999; 127 86; 128 6; 
129 3; 130 3; 131 1; 132 1; 133 1; 
143 1; 144 1; 145 1; 146 4; 160 4; 
170 1; 172 1; 173 2; 186 4; 187 1; 
188 1; 190 7; 215 1; 
