Name: JWH-193
Synon: (4-Methyl-1-naphthalenyl)[1-[2-(4-morpholinyl)ethyl]-1H-indol-3-yl]-methanone
InChIKey: ICKWPPYMDARCKJ-UHFFFAOYSA-N
Formula: C26H26N2O2
MW: 398
ExactMass: 398.199429
CASNO: 133438581
ID: 3379
Comment: Provided by www.caymanchem.com/app/template/landing%2CForensic.vm / Item #13980  Lot #0443018
Num Peaks: 129
41 6; 42 23; 43 2; 44 8; 45 2; 
50 1; 51 2; 54 5; 55 11; 56 70; 
57 4; 58 1; 62 1; 63 3; 64 1; 
65 1; 68 1; 69 2; 70 38; 71 3; 
72 15; 74 1; 75 4; 76 2; 77 2; 
78 1; 82 2; 83 1; 84 1; 85 1; 
86 1; 87 1; 88 2; 89 6; 90 1; 
91 2; 98 14; 100 999; 101 68; 102 16; 
103 4; 106 1; 112 2; 113 4; 115 53; 
116 6; 117 1; 118 1; 119 1; 120 1; 
126 1; 127 4; 128 14; 129 17; 130 4; 
134 2; 135 1; 139 21; 140 9; 141 57; 
142 10; 143 3; 144 2; 148 1; 152 2; 
153 1; 154 1; 155 2; 156 1; 157 1; 
158 1; 165 2; 169 48; 170 9; 171 1; 
181 1; 187 1; 190 1; 199 1; 200 1; 
202 1; 209 1; 213 2; 214 1; 215 1; 
224 1; 225 1; 226 4; 227 2; 228 2; 
229 2; 238 1; 239 3; 240 3; 241 6; 
242 2; 250 1; 251 1; 253 5; 254 14; 
255 6; 256 1; 264 1; 265 1; 266 2; 
267 4; 268 7; 269 4; 270 3; 271 1; 
280 2; 281 2; 282 3; 283 4; 284 4; 
294 1; 295 1; 296 2; 297 4; 298 11; 
299 3; 310 1; 311 1; 353 3; 354 1; 
396 1; 398 34; 399 9; 400 1; 
