Name: JWH-116
Synon: (2-Ethyl-1-pentyl-1H-indol-3-yl)-1-naphthalenyl-methanone
InChIKey: AQHPTHKEKSWGPO-UHFFFAOYSA-N
Formula: C26H27NO
MW: 369
ExactMass: 369.209265
CASNO: 619294643
ID: 3380
Comment: Provided by www.caymanchem.com/app/template/landing%2CForensic.vm / Item #13977  Lot #0443313
Num Peaks: 201
40 8; 41 177; 42 20; 43 350; 44 7; 
51 20; 52 4; 53 13; 54 4; 55 50; 
56 6; 62 3; 63 15; 65 11; 67 3; 
69 7; 71 5; 73 2; 74 7; 75 27; 
76 15; 77 89; 78 25; 86 4; 87 11; 
88 8; 89 33; 90 12; 91 16; 95 4; 
98 4; 99 4; 100 9; 101 71; 102 37; 
103 19; 104 9; 105 3; 107 7; 109 3; 
112 4; 113 19; 114 23; 115 154; 116 50; 
117 43; 118 18; 119 16; 120 8; 121 4; 
125 19; 126 144; 127 999; 128 337; 129 141; 
130 60; 131 10; 134 31; 135 23; 137 4; 
138 6; 139 26; 140 30; 141 89; 142 60; 
143 104; 144 84; 145 10; 146 11; 147 11; 
148 6; 149 25; 150 6; 151 9; 152 22; 
153 26; 155 733; 156 153; 157 106; 158 65; 
159 7; 163 10; 164 3; 165 14; 167 25; 
168 27; 169 13; 170 47; 171 84; 172 192; 
173 27; 174 5; 175 5; 176 4; 177 4; 
178 4; 180 4; 181 8; 182 21; 183 7; 
184 49; 185 35; 186 34; 187 16; 188 5; 
189 22; 190 6; 191 4; 195 6; 196 4; 
197 4; 198 30; 199 9; 200 15; 201 9; 
202 9; 205 3; 207 1; 208 5; 212 68; 
213 72; 214 67; 215 57; 216 12; 224 7; 
225 13; 226 34; 227 16; 228 36; 229 13; 
237 4; 238 9; 239 22; 240 35; 241 86; 
242 201; 243 39; 244 4; 250 6; 251 13; 
252 23; 253 46; 254 150; 255 55; 256 28; 
257 6; 263 5; 264 6; 265 17; 266 31; 
267 69; 268 68; 269 105; 270 239; 271 57; 
272 6; 277 3; 278 16; 279 11; 280 36; 
281 34; 282 97; 283 86; 284 85; 285 27; 
286 4; 291 3; 292 5; 293 8; 294 7; 
296 108; 297 62; 298 154; 299 34; 300 6; 
307 4; 308 4; 309 3; 310 12; 312 129; 
313 62; 314 5; 324 7; 326 51; 327 14; 
337 16; 338 9; 340 533; 341 140; 342 23; 
343 5; 352 154; 353 87; 354 207; 355 60; 
356 10; 368 292; 369 632; 370 144; 371 22; 
372 3; 
