Name: JWH-018 N-(4-oxo-pentyl) metabolite
Synon: JWH-018 4-keto metabolite
Synon: 5-(3-(1-naphthoyl)-1H-indol-1-yl)pentan-2-one
InChIKey: XOOFWSKEHUVEJD-UHFFFAOYSA-N
Formula: C24H21NO2
MW: 355
ExactMass: 355.157228
CASNO: 0
ID: 3382
Comment: Provided by www.caymanchem.com/app/template/landing%2CForensic.vm / Item #13889  Lot #0445167
Num Peaks: 220
40 4; 41 36; 43 673; 44 15; 45 3; 
50 8; 51 16; 52 4; 53 3; 54 1; 
55 9; 57 1; 58 33; 59 2; 61 2; 
62 10; 63 23; 64 6; 65 7; 66 2; 
67 7; 68 2; 69 4; 71 16; 73 4; 
74 17; 75 48; 76 40; 77 101; 78 16; 
79 2; 80 1; 81 2; 82 1; 83 3; 
85 499; 86 34; 87 17; 88 19; 89 57; 
90 10; 91 2; 93 2; 95 4; 97 1; 
98 4; 99 6; 100 13; 101 98; 102 126; 
103 30; 104 5; 107 7; 108 4; 110 1; 
111 1; 113 22; 114 29; 115 81; 116 84; 
117 29; 118 5; 119 4; 121 13; 122 2; 
123 2; 124 1; 126 154; 127 754; 128 223; 
129 119; 130 68; 131 8; 132 5; 134 10; 
135 8; 137 1; 139 25; 140 10; 141 35; 
142 34; 143 30; 144 244; 145 26; 146 2; 
148 3; 149 6; 150 5; 151 8; 152 14; 
153 11; 155 266; 156 66; 157 14; 158 4; 
161 3; 162 2; 163 9; 164 4; 165 6; 
167 91; 168 16; 170 74; 171 10; 172 1; 
174 3; 175 3; 176 7; 177 2; 178 2; 
180 3; 181 3; 182 3; 184 26; 185 5; 
186 4; 187 13; 188 11; 189 17; 190 4; 
191 3; 193 2; 194 1; 196 1; 197 1; 
198 2; 199 3; 200 16; 201 9; 202 8; 
203 3; 204 1; 205 1; 207 4; 208 1; 
209 2; 210 2; 211 9; 213 63; 214 37; 
215 49; 216 9; 217 1; 218 1; 219 1; 
221 1; 224 11; 225 12; 226 41; 228 179; 
229 31; 230 4; 237 3; 238 14; 239 24; 
240 67; 241 129; 242 56; 243 21; 244 5; 
245 1; 246 1; 249 1; 250 2; 251 11; 
252 14; 254 172; 255 75; 256 55; 257 11; 
258 1; 263 1; 264 2; 266 30; 267 34; 
268 46; 270 999; 271 210; 272 29; 273 3; 
277 1; 278 4; 280 69; 281 21; 282 32; 
284 270; 285 65; 286 8; 292 2; 293 2; 
294 14; 296 100; 297 39; 298 19; 299 2; 
300 1; 308 2; 309 1; 310 8; 311 5; 
312 6; 313 2; 315 1; 320 1; 321 1; 
322 2; 324 2; 326 1; 327 2; 336 3; 
338 44; 339 12; 340 2; 341 1; 342 1; 
346 1; 355 480; 356 129; 357 19; 358 1; 
