Name: PCMPA
Synon: N-(3-methoxypropyl)-1-phenyl-cyclohexanamine
InChIKey: OWOACIUDSBGLMN-UHFFFAOYSA-N
Formula: C16H25NO
MW: 247
ExactMass: 247.193614
CASNO: 1934630
ID: 3390
Comment: Provided by www.caymanchem.com/app/template/landing%2CForensic.vm / Item #9001363  Lot #0446281
Num Peaks: 133
41 54; 42 15; 43 14; 45 105; 46 2; 
50 6; 51 19; 52 6; 53 11; 54 10; 
55 27; 56 20; 57 4; 58 10; 59 3; 
60 1; 62 2; 63 11; 64 4; 65 22; 
66 5; 67 20; 68 8; 69 5; 70 5; 
71 8; 72 6; 73 12; 74 6; 75 7; 
76 15; 77 106; 78 36; 79 34; 80 14; 
81 41; 82 8; 83 4; 84 1; 86 2; 
87 3; 88 17; 89 15; 91 375; 92 30; 
93 3; 94 2; 96 4; 98 2; 101 2; 
102 23; 103 87; 104 112; 105 28; 106 10; 
107 1; 108 1; 110 7; 111 1; 112 4; 
113 2; 115 126; 116 31; 117 176; 118 38; 
119 15; 120 4; 124 2; 127 20; 128 61; 
129 97; 130 85; 131 30; 132 157; 133 68; 
134 9; 136 1; 138 12; 139 3; 141 12; 
142 11; 143 58; 144 70; 145 20; 146 67; 
147 8; 148 1; 151 1; 152 3; 153 4; 
154 4; 155 4; 156 10; 157 14; 158 100; 
159 86; 160 59; 161 9; 162 1; 168 1; 
170 57; 172 85; 173 14; 174 54; 176 61; 
177 7; 178 3; 184 2; 186 9; 188 52; 
189 35; 190 9; 191 4; 198 1; 200 1; 
202 46; 204 999; 205 149; 206 12; 207 1; 
212 1; 213 2; 214 7; 215 11; 216 20; 
218 26; 219 5; 232 23; 233 4; 246 38; 
247 128; 248 21; 249 1; 
