Name: AM2201 N-(3-chloropentyl) analog
Synon: (1-(3-chloropentyl)-1H-indol-3-yl)(naphthalen-1-yl)methanone
InChIKey: QCNUSOJQZULYQA-UHFFFAOYSA-N
Formula: C24H22ClNO
MW: 375
ExactMass: 375.138992
CASNO: 0
ID: 3391
Comment: Provided by www.caymanchem.com/app/template/landing%2CForensic.vm / Item #14429  Lot #0447157
Num Peaks: 242
41 214; 42 11; 43 13; 49 5; 50 8; 
51 19; 52 7; 53 18; 55 46; 56 5; 
57 1; 61 2; 62 12; 63 43; 64 7; 
65 14; 66 2; 67 18; 69 181; 70 10; 
73 3; 74 19; 75 58; 76 47; 77 113; 
78 19; 79 4; 84 1; 86 5; 87 14; 
88 22; 89 57; 90 10; 91 4; 92 1; 
95 5; 98 5; 99 8; 101 110; 102 141; 
103 36; 104 6; 105 1; 107 9; 108 3; 
110 1; 111 1; 113 42; 114 34; 115 82; 
116 101; 117 25; 118 3; 120 6; 121 21; 
123 1; 126 180; 127 999; 128 328; 129 149; 
130 91; 131 11; 133 11; 134 10; 135 6; 
137 1; 139 34; 142 212; 143 36; 144 286; 
145 32; 147 3; 148 2; 149 3; 150 8; 
151 10; 152 13; 153 14; 155 502; 156 86; 
157 15; 158 8; 160 3; 161 4; 162 6; 
163 12; 164 10; 165 10; 167 142; 168 32; 
170 29; 171 4; 172 2; 174 4; 175 3; 
176 7; 177 5; 178 4; 179 2; 180 4; 
181 6; 182 13; 183 7; 184 20; 185 6; 
186 9; 187 20; 188 14; 189 19; 190 7; 
191 3; 192 5; 193 3; 194 3; 195 1; 
196 8; 197 2; 198 5; 199 3; 200 13; 
201 8; 202 13; 203 4; 204 1; 205 1; 
207 4; 208 1; 209 2; 210 5; 212 131; 
213 101; 214 57; 215 67; 216 14; 217 8; 
218 3; 220 4; 221 2; 222 2; 223 2; 
224 13; 225 16; 226 55; 227 26; 228 31; 
229 13; 230 4; 231 1; 236 1; 237 4; 
238 16; 239 29; 240 94; 241 171; 242 72; 
243 20; 244 6; 245 2; 246 3; 248 396; 
249 56; 250 115; 251 33; 252 20; 253 43; 
254 209; 255 99; 256 113; 257 23; 258 3; 
263 1; 264 4; 265 11; 266 50; 267 55; 
268 64; 269 105; 270 302; 271 62; 272 29; 
273 4; 278 6; 279 2; 280 14; 281 16; 
282 75; 284 692; 285 172; 286 22; 287 1; 
290 1; 291 4; 292 7; 293 4; 294 5; 
295 2; 296 20; 297 5; 298 12; 299 3; 
300 1; 302 1; 304 1; 305 1; 306 1; 
307 1; 308 3; 310 65; 311 27; 312 9; 
313 2; 318 3; 319 1; 320 3; 322 45; 
323 15; 324 30; 325 9; 326 2; 336 1; 
338 46; 339 133; 340 73; 341 20; 342 3; 
346 4; 347 5; 348 2; 349 1; 350 1; 
356 2; 358 210; 359 57; 360 70; 361 19; 
362 2; 374 184; 375 421; 376 157; 377 146; 
378 31; 379 4; 
