Name: Escaline
Synon: 4-Ethoxy-mescaline
Synon: 4-Ethoxy-3,5-dimethoxybenzeneethanamine
InChIKey: RHOGRSKNWDNCDN-UHFFFAOYSA-N
Formula: C12H19NO3
MW: 225
ExactMass: 225.136494
CASNO: 3166823
ID: 3397
Comment: Provided by www.caymanchem.com/app/template/landing%2CForensic.vm / Item #14107  Lot #0447227 / SWGDRUG Monograph available
Num Peaks: 117
40 4; 41 6; 42 7; 43 12; 44 3; 
45 3; 47 1; 49 1; 50 5; 51 14; 
52 18; 53 24; 54 2; 55 5; 57 2; 
59 1; 61 1; 63 15; 64 21; 65 36; 
66 33; 67 18; 68 8; 69 8; 70 3; 
71 2; 73 2; 74 1; 75 6; 76 9; 
77 48; 78 53; 79 36; 80 27; 81 19; 
82 10; 83 3; 85 6; 89 13; 90 12; 
91 24; 92 26; 93 16; 94 19; 95 20; 
96 6; 97 1; 98 1; 102 1; 103 3; 
104 7; 105 17; 106 41; 107 37; 108 10; 
109 16; 110 14; 111 3; 116 1; 117 2; 
118 4; 119 4; 120 21; 121 21; 122 54; 
123 60; 124 26; 125 32; 126 2; 131 1; 
132 4; 133 5; 134 16; 135 13; 136 39; 
137 42; 138 10; 139 27; 140 4; 144 1; 
146 1; 148 28; 149 11; 150 7; 151 37; 
152 17; 153 79; 154 9; 155 2; 161 2; 
162 1; 163 2; 165 40; 167 999; 168 417; 
169 42; 170 4; 178 3; 179 6; 180 9; 
181 7; 182 2; 191 1; 193 5; 194 10; 
196 559; 197 66; 198 8; 207 3; 208 2; 
209 1; 220 1; 221 1; 223 3; 225 173; 
226 24; 227 2; 
