Name: 2,3-Dichlorophenylpiperazine
Synon: 2,3-DCPP
Synon: 1-(2,3-dichlorophenyl)-piperazine
InChIKey: UDQMXYJSNNCRAS-UHFFFAOYSA-N
Formula: C10H12Cl2N2
MW: 230
ExactMass: 230.037754
CASNO: 119532262
ID: 3398
Comment: Provided by www.caymanchem.com/app/template/landing%2CForensic.vm / Item #14296  Lot #0446497
Num Peaks: 156
40 6; 41 20; 42 61; 43 27; 44 6; 
47 1; 49 4; 50 16; 51 17; 52 6; 
53 4; 54 17; 55 16; 56 173; 57 106; 
58 6; 60 2; 61 8; 62 12; 63 23; 
64 7; 65 7; 66 2; 67 1; 68 8; 
69 3; 70 1; 71 1; 72 5; 73 24; 
74 60; 75 113; 76 34; 77 25; 78 9; 
79 3; 81 6; 82 3; 83 9; 84 22; 
85 24; 86 14; 87 8; 88 7; 89 21; 
90 11; 91 5; 97 13; 98 4; 99 9; 
100 9; 101 7; 102 30; 103 13; 104 7; 
105 4; 107 2; 108 3; 109 76; 110 22; 
111 72; 112 16; 113 17; 114 5; 115 10; 
116 12; 117 24; 118 9; 119 3; 121 1; 
122 1; 123 10; 124 8; 125 14; 126 6; 
127 3; 128 4; 129 3; 130 14; 131 14; 
132 2; 133 6; 135 4; 136 10; 137 7; 
138 38; 139 14; 140 14; 141 4; 142 3; 
143 2; 145 99; 146 18; 147 69; 148 12; 
149 13; 150 2; 151 8; 152 16; 153 19; 
154 11; 155 7; 156 2; 157 2; 159 59; 
160 9; 161 39; 162 4; 163 6; 164 12; 
165 13; 166 81; 167 13; 168 26; 169 4; 
172 200; 173 158; 174 170; 175 116; 176 56; 
177 27; 178 7; 179 8; 180 1; 181 2; 
184 1; 186 4; 188 999; 190 701; 191 67; 
192 120; 193 15; 194 30; 195 159; 196 26; 
197 49; 198 8; 199 2; 200 5; 201 2; 
202 5; 203 2; 204 2; 207 1; 213 1; 
215 2; 220 1; 223 1; 226 1; 227 1; 
228 8; 230 146; 232 94; 234 16; 235 1; 
236 1; 
