Name: 5-Fluoropentyl-3-pyridinoylindole
Synon: (1-(5-Fluoropentyl)-1H-indol-3-yl)(pyridin-3-yl)methanone
InChIKey: CNMQLCYLJPWHEW-UHFFFAOYSA-N
Formula: C19H19FN2O
MW: 310
ExactMass: 310.148142
CASNO: 0
ID: 3399
Comment: Provided by www.caymanchem.com/app/template/landing%2CForensic.vm / Item #14295  Lot #0447487 / SWGDRUG Monograph available
Num Peaks: 204
41 158; 42 11; 43 54; 45 3; 46 6; 
47 47; 48 1; 50 29; 51 113; 52 19; 
53 19; 54 4; 55 16; 56 2; 57 1; 
59 28; 61 11; 62 15; 63 31; 64 8; 
65 9; 66 2; 67 8; 69 30; 70 2; 
71 1; 72 1; 73 4; 74 17; 75 35; 
76 40; 78 520; 79 55; 80 4; 81 1; 
83 2; 84 1; 85 2; 86 9; 87 17; 
88 41; 89 104; 90 22; 91 5; 92 3; 
93 1; 96 1; 97 1; 98 3; 99 3; 
101 51; 102 112; 103 81; 104 70; 106 353; 
107 25; 108 2; 109 1; 110 3; 111 4; 
112 3; 113 15; 114 47; 115 143; 116 206; 
117 69; 118 17; 119 1; 123 1; 124 10; 
125 5; 126 9; 127 20; 128 94; 129 115; 
130 167; 131 19; 132 2; 133 3; 134 1; 
135 1; 136 2; 137 8; 138 13; 139 43; 
140 43; 141 11; 143 88; 144 421; 145 45; 
146 4; 147 1; 148 2; 149 2; 150 8; 
151 19; 152 25; 153 11; 154 24; 155 8; 
156 16; 157 14; 158 12; 159 2; 161 1; 
162 1; 163 3; 164 22; 165 19; 166 82; 
167 26; 168 11; 170 29; 171 7; 172 2; 
174 1; 176 6; 177 11; 178 19; 179 16; 
180 27; 181 5; 182 5; 184 19; 185 3; 
186 1; 188 1; 189 2; 190 11; 191 16; 
192 61; 193 119; 194 38; 195 8; 196 2; 
197 2; 198 2; 200 1; 202 2; 204 67; 
205 70; 206 58; 207 79; 208 23; 209 6; 
210 2; 212 11; 214 1; 216 3; 217 12; 
218 20; 219 19; 220 19; 221 103; 222 137; 
223 25; 224 3; 228 1; 229 2; 230 5; 
232 932; 233 174; 235 999; 236 236; 237 31; 
238 3; 245 2; 246 2; 247 13; 249 40; 
250 8; 251 2; 253 4; 254 1; 255 1; 
259 2; 260 1; 261 9; 262 3; 263 16; 
264 3; 269 1; 273 1; 275 2; 277 10; 
278 2; 281 12; 282 4; 283 1; 287 2; 
288 2; 289 6; 290 9; 291 2; 293 27; 
294 7; 295 1; 296 1; 304 1; 306 1; 
310 997; 311 221; 312 25; 313 2; 
