Name: 2,3-Dimethylethcathinone
Synon: 2,3-DMEC
Synon: 1-(2,3-Dimethylphenyl)-2-(ethylamino)propan-1-one
InChIKey: MXBQQSYOKGUCTH-UHFFFAOYSA-N
Formula: C13H19NO
MW: 205
ExactMass: 205.146665
CASNO: 0
ID: 3400
Comment: Provided by www.caymanchem.com/app/template/landing%2CForensic.vm / Item #11227  Lot #0447371
Num Peaks: 76
40 3; 41 8; 42 48; 44 125; 45 3; 
50 3; 51 11; 52 4; 53 6; 54 2; 
55 3; 56 23; 57 5; 62 3; 63 10; 
64 3; 65 11; 66 2; 68 3; 70 76; 
72 999; 73 50; 74 3; 75 3; 77 74; 
78 34; 79 46; 80 3; 87 1; 89 8; 
90 2; 91 19; 92 2; 101 1; 102 10; 
103 49; 104 20; 105 54; 106 7; 107 1; 
115 10; 116 4; 117 7; 118 2; 119 8; 
120 1; 127 1; 128 4; 129 3; 130 2; 
131 4; 133 48; 134 7; 141 1; 142 1; 
143 1; 144 1; 145 4; 146 2; 147 1; 
157 1; 158 2; 159 1; 160 4; 161 1; 
162 2; 172 1; 173 1; 174 2; 175 1; 
187 1; 188 5; 189 1; 190 1; 201 1; 
203 1; 
