Name: A-834,735 degradant
Synon: 3,3,4-Trimethyl-1-(1-((tetrahydro-2H-pyran-4-yl)methyl)-1H-indol-3-yl)pent-4-en-1-one
InChIKey: SHMFIOCKSMJXSG-UHFFFAOYSA-N
Formula: C22H29NO2
MW: 339
ExactMass: 339.21983
CASNO: 0
ID: 3401
Comment: Provided by www.caymanchem.com/app/template/landing%2CForensic.vm / Item #14165  Lot #0447339
Num Peaks: 223
41 430; 42 27; 43 134; 44 3; 45 5; 
48 1; 50 5; 51 14; 52 6; 53 57; 
55 327; 56 26; 57 56; 58 2; 59 3; 
62 4; 63 11; 64 4; 65 28; 67 159; 
69 347; 70 26; 71 14; 72 1; 73 8; 
74 4; 75 14; 76 18; 77 50; 78 14; 
79 41; 81 101; 82 44; 83 200; 84 17; 
85 3; 86 1; 87 5; 88 18; 89 53; 
90 14; 91 17; 92 3; 93 2; 94 1; 
95 6; 97 56; 99 144; 100 11; 101 30; 
102 110; 103 49; 104 12; 105 2; 106 3; 
107 2; 108 1; 109 30; 110 4; 111 3; 
113 3; 115 123; 116 111; 117 67; 118 16; 
119 3; 120 1; 121 2; 123 1; 125 4; 
126 4; 127 29; 128 104; 129 181; 130 302; 
131 52; 132 50; 133 7; 135 1; 136 1; 
137 2; 138 1; 139 6; 140 10; 141 12; 
142 48; 143 169; 144 352; 145 49; 146 11; 
147 4; 152 10; 154 76; 155 33; 156 73; 
157 41; 158 42; 159 20; 160 16; 161 2; 
162 1; 164 1; 165 5; 166 14; 167 61; 
168 77; 169 21; 170 62; 172 335; 173 60; 
174 70; 175 8; 176 1; 177 1; 178 4; 
179 5; 180 29; 181 28; 182 58; 183 25; 
184 71; 185 15; 186 9; 187 1; 189 1; 
191 3; 192 4; 193 6; 194 21; 196 65; 
197 24; 198 58; 199 23; 200 8; 201 3; 
204 3; 205 2; 207 26; 208 14; 209 5; 
210 31; 211 11; 212 50; 213 18; 214 59; 
215 132; 216 29; 217 4; 218 2; 219 1; 
220 4; 222 10; 224 13; 225 5; 226 27; 
228 95; 229 24; 230 5; 232 2; 234 3; 
236 7; 237 3; 238 12; 240 60; 242 955; 
243 169; 244 20; 245 2; 246 1; 248 2; 
250 4; 252 3; 254 115; 255 46; 257 999; 
258 192; 259 20; 264 1; 265 2; 266 18; 
267 6; 268 4; 269 3; 270 2; 271 2; 
278 5; 279 2; 281 15; 282 38; 283 36; 
284 27; 285 4; 288 1; 292 1; 294 3; 
296 50; 297 15; 298 6; 299 1; 306 5; 
307 2; 308 9; 309 5; 310 7; 311 17; 
312 5; 316 1; 319 2; 321 12; 322 44; 
324 703; 325 169; 326 25; 327 3; 328 1; 
329 1; 331 2; 332 1; 334 1; 339 332; 
340 78; 341 12; 342 1; 
