Name: .alpha.-Ethylaminopentiophenone
Synon: 2-(ethylamino)-1-phenyl-1-pentanone
InChIKey: QQAHEGDXEXIQPR-UHFFFAOYSA-N
Formula: C13H19NO
MW: 205
ExactMass: 205.146665
CASNO: 18268161
ID: 3402
Comment: Provided by www.caymanchem.com/app/template/landing%2CForensic.vm / Item #14280  Lot #0446282
Num Peaks: 69
40 2; 41 18; 42 15; 43 19; 44 18; 
46 1; 50 12; 51 44; 52 4; 53 3; 
54 6; 55 19; 56 43; 58 94; 59 3; 
62 1; 63 2; 65 3; 66 1; 67 1; 
68 7; 70 64; 71 21; 72 15; 73 1; 
74 5; 75 5; 77 223; 78 22; 79 8; 
80 1; 82 1; 84 12; 85 1; 89 3; 
90 1; 91 13; 92 1; 98 56; 100 999; 
101 71; 102 3; 103 4; 105 82; 106 10; 
107 1; 115 4; 116 2; 117 3; 118 3; 
120 1; 128 1; 130 1; 131 1; 132 2; 
133 4; 134 7; 143 1; 144 1; 145 1; 
146 3; 148 1; 160 2; 162 14; 163 2; 
172 1; 173 1; 174 1; 203 1; 
