Name: Pentylone-HFBA Derivative
InChIKey: FYOCUBJOKGKXQO-UHFFFAOYSA-N
Formula: C17H16F7NO4
MW: 431
ExactMass: 431.096756
CASNO: 0
ID: 3407
Comment: Broward Sheriff Office Drug Library
Num Peaks: 120
38 2; 39 20; 40 4; 41 13; 42 83; 
43 10; 44 6; 50 5; 51 15; 52 2; 
53 9; 54 4; 55 142; 56 15; 57 27; 
58 14; 59 1; 61 1; 62 13; 63 59; 
64 7; 65 110; 66 8; 67 1; 68 8; 
69 52; 70 11; 71 1; 74 2; 75 1; 
76 1; 77 5; 78 3; 79 5; 82 3; 
83 1; 84 12; 85 2; 86 2; 87 1; 
89 3; 90 1; 91 31; 92 4; 93 4; 
100 7; 101 1; 102 1; 103 3; 104 1; 
105 1; 109 3; 112 4; 115 3; 116 1; 
117 4; 118 1; 119 19; 120 8; 121 109; 
122 11; 123 1; 128 1; 129 1; 131 5; 
133 1; 135 11; 136 1; 145 2; 146 2; 
147 4; 149 999; 150 93; 151 9; 152 1; 
159 1; 160 2; 161 1; 162 3; 163 1; 
164 2; 169 46; 170 2; 174 1; 175 6; 
176 1; 177 3; 178 1; 180 2; 188 7; 
189 1; 190 1; 191 4; 197 1; 203 1; 
204 1; 205 1; 206 2; 207 1; 208 1; 
210 30; 211 2; 212 4; 218 5; 219 1; 
220 2; 226 1; 228 26; 229 1; 232 1; 
240 117; 241 5; 252 1; 261 1; 262 1; 
281 1; 282 94; 283 9; 431 10; 432 2; 
