Name: Methedrone-HFBA Derivative
InChIKey: MYUKEVLKTCTHGF-UHFFFAOYSA-N
Formula: C15H14F7NO3
MW: 389
ExactMass: 389.086191
CASNO: 0
ID: 3409
Comment: Broward Sheriff Office Drug Library
Num Peaks: 88
38 3; 39 4; 40 1; 41 3; 42 58; 
43 2; 47 1; 50 12; 51 10; 52 1; 
53 4; 54 4; 55 8; 56 39; 57 20; 
58 11; 59 1; 62 6; 63 37; 64 60; 
65 9; 66 3; 69 76; 70 2; 73 1; 
74 5; 75 8; 76 22; 77 156; 78 19; 
79 11; 80 1; 81 1; 84 1; 89 3; 
90 1; 91 13; 92 135; 93 11; 94 1; 
100 11; 101 1; 102 1; 103 6; 104 8; 
105 7; 106 4; 107 73; 108 7; 109 7; 
115 1; 117 1; 118 1; 119 17; 120 5; 
121 4; 122 1; 130 1; 131 4; 132 2; 
133 4; 135 999; 136 89; 137 7; 145 1; 
146 3; 147 1; 148 1; 160 2; 161 5; 
162 1; 163 3; 164 1; 169 64; 170 2; 
176 23; 177 3; 180 2; 192 1; 204 2; 
210 71; 211 3; 220 3; 235 1; 254 112; 
255 7; 285 1; 389 1; 
