Name: Isopentedrone-HFBA Derivative
InChIKey: WLXRPXMTERVWND-UHFFFAOYSA-N
Formula: C16H16F7NO2
MW: 387
ExactMass: 387.106926
CASNO: 0
ID: 3410
Comment: Broward Sheriff Office Drug Library
Num Peaks: 129
38 3; 39 40; 40 9; 41 111; 42 74; 
43 186; 44 7; 50 11; 51 24; 52 4; 
53 2; 55 5; 56 5; 57 2; 58 8; 
60 1; 61 1; 62 6; 63 24; 64 8; 
65 31; 66 3; 67 1; 69 102; 71 273; 
72 13; 73 1; 74 3; 75 6; 76 14; 
77 111; 78 48; 79 12; 81 3; 86 1; 
87 1; 88 4; 89 75; 90 58; 91 253; 
92 21; 93 3; 100 22; 101 2; 102 6; 
103 27; 104 21; 105 12; 106 1; 107 4; 
108 1; 109 12; 113 1; 114 2; 115 15; 
116 12; 117 28; 118 454; 119 84; 120 14; 
121 2; 122 4; 127 5; 128 7; 129 3; 
130 2; 131 16; 132 10; 133 5; 134 1; 
139 2; 140 17; 141 4; 142 1; 143 1; 
144 2; 145 1; 146 7; 147 16; 148 32; 
149 4; 150 5; 151 2; 159 2; 160 3; 
161 19; 162 2; 168 8; 169 95; 170 3; 
171 2; 172 2; 174 5; 175 1; 177 2; 
178 4; 179 1; 180 5; 181 1; 182 3; 
183 1; 188 1; 190 1; 196 3; 197 1; 
198 1; 210 999; 211 52; 212 1; 218 5; 
240 1; 255 1; 282 3; 296 3; 297 1; 
298 6; 299 8; 300 1; 301 1; 302 15; 
303 2; 312 1; 314 1; 316 487; 317 96; 
318 9; 326 1; 368 1; 387 2; 
