Name: Mephedrone-HFBA Derivative
Synon: 4-MMC-HFBA Derivative
Synon: 4-Methylmethcathinone-HFBA Derivative
InChIKey: BNUSKZVOJKGZIX-UHFFFAOYSA-N
Formula: C15H14F7NO2
MW: 373
ExactMass: 373.091276
CASNO: 0
ID: 3414
Comment: Broward Sheriff Office Drug Library
Num Peaks: 94
38 2; 39 26; 40 4; 41 13; 42 102; 
43 2; 45 1; 47 2; 50 10; 51 18; 
52 5; 53 3; 54 6; 55 14; 56 66; 
57 30; 58 11; 61 2; 62 10; 63 43; 
64 15; 65 177; 66 10; 69 108; 70 3; 
74 4; 75 5; 76 4; 77 12; 78 9; 
79 2; 81 2; 82 1; 84 2; 86 2; 
87 2; 88 3; 89 63; 90 34; 91 373; 
92 30; 93 5; 100 18; 101 1; 102 3; 
103 6; 104 5; 105 7; 106 1; 107 2; 
109 9; 115 10; 116 3; 117 9; 119 999; 
120 81; 121 5; 127 1; 128 2; 129 1; 
130 2; 131 6; 132 2; 133 3; 135 1; 
142 1; 144 3; 145 12; 146 2; 147 3; 
148 5; 150 1; 151 1; 158 1; 159 3; 
160 42; 161 7; 162 1; 166 1; 169 84; 
170 4; 176 1; 180 2; 192 1; 204 3; 
210 112; 211 7; 220 3; 226 1; 252 1; 
254 253; 255 20; 256 1; 373 1; 
