Name: DOC-HFBA Derivative
Synon: 4-Chloro-2,5 dimethoxyamphetamine-HFBA Derivative
InChIKey: IZHIZVVFZHMNBK-UHFFFAOYSA-N
Formula: C15H15ClF7NO3
MW: 425
ExactMass: 425.062868
CASNO: 0
ID: 3417
Comment: Broward Sheriff Office Drug Library
Num Peaks: 152
36 5; 38 9; 39 40; 40 11; 41 15; 
42 60; 43 58; 44 68; 45 64; 47 32; 
50 24; 51 64; 52 11; 53 56; 54 5; 
55 11; 56 5; 57 11; 59 8; 60 9; 
62 13; 63 55; 64 21; 65 64; 66 7; 
67 19; 69 324; 70 23; 73 26; 74 19; 
75 47; 76 17; 77 215; 78 32; 79 58; 
81 5; 82 7; 84 5; 85 12; 86 6; 
87 12; 88 19; 89 92; 90 26; 91 139; 
92 64; 93 30; 95 4; 96 6; 97 6; 
98 6; 99 89; 100 31; 101 35; 102 26; 
103 31; 104 16; 105 119; 106 19; 107 22; 
108 18; 109 27; 111 18; 112 64; 113 33; 
114 27; 115 26; 116 10; 117 10; 118 14; 
119 66; 120 28; 121 24; 122 41; 123 19; 
124 10; 125 114; 126 22; 127 55; 128 15; 
129 12; 131 29; 132 15; 133 17; 134 20; 
135 27; 136 4; 137 8; 139 14; 140 22; 
141 27; 142 77; 143 28; 144 20; 145 8; 
146 13; 147 26; 148 8; 149 18; 150 9; 
151 10; 152 9; 153 7; 154 22; 155 338; 
156 39; 157 135; 158 18; 159 24; 160 5; 
161 24; 162 50; 163 15; 166 9; 167 7; 
168 8; 169 204; 170 41; 171 93; 172 22; 
173 24; 176 12; 177 27; 178 17; 181 7; 
182 9; 183 47; 184 15; 185 999; 186 136; 
187 355; 188 50; 192 28; 193 8; 194 7; 
195 5; 196 24; 197 55; 198 25; 199 15; 
200 5; 212 609; 213 142; 214 213; 215 46; 
216 6; 240 240; 241 24; 425 133; 426 17; 
427 40; 428 8; 
