Name: 3-Methylmethcathinone-HFBA Derivative
Synon: 3-MMC-HFBA Derivative
InChIKey: UWLAYNIRUCHETD-UHFFFAOYSA-N
Formula: C15H14F7NO2
MW: 373
ExactMass: 373.091276
CASNO: 0
ID: 3418
Comment: Broward Sheriff Office Drug Library
Num Peaks: 98
37 1; 38 4; 39 30; 40 4; 41 15; 
42 124; 43 5; 45 1; 47 2; 50 10; 
51 19; 52 6; 53 4; 54 8; 55 13; 
56 87; 57 37; 58 15; 59 1; 61 2; 
62 11; 63 51; 64 18; 65 212; 66 12; 
67 1; 69 129; 70 3; 74 5; 75 7; 
76 4; 77 12; 78 12; 79 3; 80 1; 
81 2; 82 1; 84 4; 86 3; 87 4; 
89 74; 90 40; 91 449; 92 38; 93 4; 
100 22; 102 2; 103 8; 104 4; 105 6; 
107 2; 108 1; 109 14; 113 1; 115 11; 
116 4; 117 10; 119 999; 120 79; 121 6; 
127 1; 128 4; 129 1; 130 2; 131 6; 
132 2; 133 3; 134 1; 135 2; 144 6; 
145 17; 146 5; 147 2; 148 6; 150 1; 
158 3; 159 5; 160 43; 161 7; 162 1; 
166 1; 169 114; 170 3; 174 1; 176 2; 
180 1; 192 2; 203 1; 204 5; 210 175; 
211 8; 220 2; 235 2; 252 1; 254 428; 
255 32; 256 2; 373 3; 
