Name: 25C-NBOMe-HFBA Derivative
InChIKey: MCXANTKWHBLTEI-UHFFFAOYSA-N
Synon: 25C-NB2OMe-HFBA Derivative
Synon: 2C-C-NB2OMe-HFBA Derivative
Synon: 2C-C-NBOMe-HFBA Derivative
Formula: C22H21ClF7NO4
MW: 531
ExactMass: 531.104733
CASNO: 0
ID: 3421
Comment: Broward Sheriff Office Drug Library
Num Peaks: 194
38 2; 39 14; 40 2; 41 5; 42 7; 
43 4; 45 2; 50 10; 51 27; 52 12; 
53 16; 54 1; 55 3; 56 7; 57 1; 
59 1; 60 1; 61 3; 62 4; 63 25; 
64 13; 65 114; 66 13; 67 4; 69 48; 
70 1; 72 1; 73 5; 74 2; 75 20; 
76 15; 77 169; 78 103; 79 42; 80 1; 
81 2; 82 1; 83 1; 84 1; 85 1; 
86 2; 87 4; 88 6; 89 57; 90 40; 
91 858; 92 79; 93 90; 94 13; 95 3; 
97 3; 98 1; 99 32; 100 9; 101 17; 
102 9; 103 17; 104 23; 105 66; 106 19; 
107 98; 108 19; 109 21; 110 2; 111 13; 
112 34; 113 21; 114 10; 115 8; 116 4; 
117 9; 118 15; 119 36; 121 999; 122 110; 
123 12; 124 6; 125 47; 126 14; 127 35; 
128 8; 129 7; 130 2; 131 4; 132 13; 
133 16; 134 25; 135 17; 136 9; 137 16; 
138 5; 139 9; 140 15; 141 15; 142 44; 
143 6; 144 9; 145 3; 146 5; 147 6; 
148 41; 149 15; 150 9; 151 6; 152 5; 
153 7; 154 15; 155 145; 156 17; 157 61; 
158 5; 159 4; 160 2; 161 2; 162 4; 
163 1; 164 22; 165 6; 166 3; 167 8; 
168 10; 169 72; 170 16; 171 18; 172 5; 
173 4; 174 1; 175 1; 177 1; 178 4; 
179 2; 180 3; 181 4; 182 8; 183 75; 
184 60; 185 268; 186 49; 187 85; 188 7; 
190 2; 193 1; 194 2; 195 2; 196 6; 
198 669; 199 98; 200 212; 201 26; 202 3; 
205 1; 206 1; 207 2; 208 2; 209 2; 
210 3; 211 2; 212 1; 213 1; 215 1; 
221 1; 222 1; 225 3; 226 5; 227 2; 
237 1; 240 1; 241 5; 243 1; 248 1; 
251 1; 252 1; 257 2; 288 1; 303 7; 
304 1; 305 2; 306 1; 332 24; 333 3; 
334 4; 346 2; 357 1; 358 1; 359 1; 
374 1; 410 2; 422 1; 464 1; 531 112; 
532 23; 533 39; 534 10; 535 1; 
