Name: 2-Methylmethcatinone-HFBA Derivative
Synon: 2-MMC-HFBA Derivative
InChIKey: DMJSGVINASFRMZ-UHFFFAOYSA-N
Formula: C15H14F7NO2
MW: 373
ExactMass: 373.091276
CASNO: 0
ID: 3422
Comment: Broward Sheriff Office Drug Library
Num Peaks: 96
38 3; 39 30; 40 5; 41 15; 42 106; 
43 4; 44 1; 45 1; 47 1; 50 8; 
51 18; 52 5; 53 2; 54 4; 55 10; 
56 68; 57 31; 58 16; 59 1; 61 2; 
62 10; 63 44; 64 15; 65 192; 66 11; 
67 1; 69 115; 70 3; 71 1; 74 4; 
75 5; 76 5; 77 12; 78 9; 79 3; 
81 2; 84 3; 86 2; 87 3; 88 2; 
89 69; 90 40; 91 457; 92 37; 93 3; 
100 18; 101 2; 102 2; 103 7; 104 4; 
105 6; 106 1; 107 1; 109 11; 113 1; 
115 18; 116 4; 117 14; 119 999; 120 90; 
121 5; 122 1; 127 2; 128 4; 129 2; 
130 3; 131 12; 132 3; 133 1; 135 2; 
143 1; 144 3; 145 18; 146 6; 147 4; 
150 1; 151 1; 158 3; 159 2; 160 32; 
161 5; 169 91; 170 3; 174 1; 176 1; 
180 1; 192 2; 204 4; 210 127; 211 7; 
220 2; 235 1; 252 1; 254 274; 255 20; 
256 1; 
