Name: 2,3 Pentylone-HFBA Derivative
InChIKey: XOFBZMPZNBQQFL-UHFFFAOYSA-N
Formula: C17H16F7NO4
MW: 431
ExactMass: 431.096756
CASNO: 0
ID: 3425
Comment: Broward Sheriff Office Drug Library
Num Peaks: 172
37 6; 38 3; 39 58; 40 5; 41 29; 
42 163; 43 15; 44 5; 50 11; 51 22; 
52 2; 53 28; 54 8; 55 204; 56 27; 
57 49; 58 34; 60 1; 61 6; 62 30; 
63 125; 64 30; 65 378; 66 32; 67 5; 
68 16; 69 157; 70 29; 71 4; 73 1; 
74 11; 75 8; 76 6; 77 23; 78 10; 
79 8; 80 5; 81 6; 82 7; 83 5; 
84 38; 85 7; 86 8; 87 2; 88 2; 
89 8; 90 9; 91 98; 92 31; 93 16; 
94 3; 95 1; 96 1; 98 2; 100 21; 
101 5; 102 5; 103 7; 104 5; 105 8; 
106 4; 107 11; 108 2; 109 8; 110 1; 
112 14; 113 3; 114 1; 115 12; 116 4; 
117 10; 118 7; 119 56; 120 19; 121 79; 
122 9; 123 1; 124 1; 127 2; 128 4; 
129 1; 130 3; 131 17; 132 1; 133 5; 
134 5; 135 24; 136 5; 137 1; 139 1; 
143 2; 144 3; 145 8; 146 5; 147 12; 
149 999; 150 115; 151 13; 152 1; 157 1; 
159 5; 160 12; 161 2; 162 9; 163 1; 
164 3; 165 1; 169 185; 170 6; 173 2; 
174 2; 175 11; 176 4; 177 10; 178 5; 
179 1; 180 8; 185 1; 187 1; 188 34; 
189 4; 190 5; 191 3; 192 1; 197 2; 
203 2; 204 2; 205 2; 206 19; 207 4; 
208 6; 210 130; 211 7; 212 19; 213 1; 
218 6; 219 1; 220 6; 226 2; 228 102; 
229 6; 231 1; 232 7; 233 2; 234 3; 
240 608; 241 48; 242 3; 246 1; 248 4; 
252 9; 253 3; 254 3; 261 3; 262 8; 
263 2; 266 3; 281 6; 282 704; 283 66; 
284 5; 299 1; 356 1; 358 5; 369 1; 
388 1; 389 1; 402 1; 412 1; 431 73; 
432 15; 433 1; 
