Name: 2C-E HFBA Derivative
InChIKey: BACTYDZUSSZGSG-UHFFFAOYSA-N
Formula: C16H18F7NO3
MW: 405
ExactMass: 405.11749
CASNO: 0
ID: 3426
Comment: Broward Sheriff Office Drug Library
Num Peaks: 150
38 3; 39 37; 40 7; 41 36; 42 4; 
43 17; 44 33; 45 11; 47 2; 50 9; 
51 36; 52 19; 53 51; 54 8; 55 29; 
56 10; 57 12; 58 4; 59 6; 61 2; 
62 2; 63 28; 64 12; 65 57; 66 18; 
67 32; 68 3; 69 177; 70 2; 71 4; 
72 2; 73 6; 74 4; 75 12; 76 5; 
77 143; 78 68; 79 81; 80 17; 81 18; 
82 5; 83 2; 87 3; 88 6; 89 66; 
90 17; 91 350; 92 38; 93 44; 94 10; 
95 12; 96 4; 97 30; 98 2; 100 19; 
101 4; 102 12; 103 82; 104 51; 105 103; 
106 22; 107 35; 108 21; 109 31; 110 4; 
113 2; 115 131; 116 47; 117 149; 118 47; 
119 126; 120 30; 121 101; 122 30; 123 31; 
124 5; 127 6; 128 24; 129 11; 130 10; 
131 38; 132 25; 133 58; 134 120; 135 60; 
136 22; 137 11; 138 2; 143 3; 144 7; 
145 14; 146 15; 147 49; 148 37; 149 263; 
150 39; 151 46; 152 6; 158 3; 159 12; 
160 13; 161 31; 162 40; 163 68; 164 25; 
165 38; 166 11; 168 2; 169 201; 170 4; 
174 2; 175 7; 176 40; 177 303; 178 108; 
179 999; 180 117; 181 9; 189 1; 190 8; 
191 45; 192 902; 193 218; 194 23; 195 3; 
197 7; 198 2; 207 11; 208 2; 220 2; 
226 95; 227 6; 235 5; 236 2; 238 2; 
281 2; 326 2; 329 2; 338 6; 346 3; 
354 2; 358 2; 366 2; 373 1; 376 3; 
389 1; 390 3; 405 580; 406 105; 407 12; 
