Name: 2C-H HFBA Derivative
InChIKey: MTMZAQKYILLOHQ-UHFFFAOYSA-N
Formula: C14H14F7NO3
MW: 377
ExactMass: 377.086191
CASNO: 0
ID: 3428
Comment: Broward Sheriff Office Drug Library
Num Peaks: 154
38 2; 39 21; 40 2; 41 4; 42 1; 
43 5; 44 26; 45 1; 49 1; 50 9; 
51 35; 52 12; 53 26; 54 6; 55 12; 
56 11; 57 1; 59 4; 61 4; 62 8; 
63 35; 64 28; 65 142; 66 26; 67 12; 
68 5; 69 224; 70 7; 73 2; 74 3; 
75 13; 76 28; 77 274; 78 174; 79 110; 
80 12; 81 13; 82 26; 83 4; 85 1; 
86 1; 87 1; 88 5; 89 47; 90 39; 
91 292; 92 41; 93 48; 94 24; 95 14; 
96 4; 97 1; 98 3; 99 1; 100 57; 
101 1; 102 3; 103 22; 104 24; 105 49; 
106 40; 107 55; 108 100; 109 60; 110 6; 
112 2; 113 1; 116 4; 117 8; 118 22; 
119 55; 120 26; 121 612; 122 64; 123 85; 
124 5; 125 3; 128 16; 129 1; 131 16; 
132 12; 133 21; 134 45; 135 108; 136 34; 
137 68; 138 7; 139 3; 143 1; 144 1; 
146 1; 147 4; 148 49; 149 315; 150 143; 
151 420; 152 52; 153 7; 154 1; 158 3; 
159 3; 160 1; 161 4; 162 6; 164 999; 
165 200; 166 24; 167 4; 168 1; 169 226; 
170 7; 176 3; 177 1; 178 19; 179 9; 
180 1; 183 1; 190 1; 191 2; 192 4; 
195 2; 197 8; 198 1; 207 6; 208 3; 
210 7; 211 1; 214 1; 225 8; 226 125; 
227 9; 255 1; 260 1; 276 1; 295 1; 
298 1; 306 2; 307 1; 310 11; 311 5; 
318 5; 319 2; 326 5; 327 2; 329 2; 
330 3; 331 1; 346 1; 358 2; 362 1; 
375 1; 377 403; 378 73; 379 6; 
