Name: 2C-C HFBA Derivative
InChIKey: MOORFYWERWTTKQ-UHFFFAOYSA-N
Formula: C14H13ClF7NO3
MW: 411
ExactMass: 411.047218
CASNO: 0
ID: 3430
Comment: Broward Sheriff Office Drug Library
Num Peaks: 210
38 3; 39 14; 40 2; 41 2; 42 2; 
43 7; 44 21; 46 1; 47 1; 49 2; 
50 15; 51 29; 52 6; 53 26; 54 2; 
55 4; 56 12; 57 1; 58 2; 59 1; 
60 7; 61 6; 62 15; 63 57; 64 21; 
65 45; 66 11; 67 18; 69 305; 70 6; 
71 1; 72 3; 73 26; 74 17; 75 69; 
76 27; 77 262; 78 58; 79 64; 80 6; 
81 10; 82 3; 83 1; 84 3; 85 13; 
86 10; 87 24; 88 16; 89 110; 90 47; 
91 158; 92 51; 93 27; 94 6; 95 4; 
96 3; 97 11; 98 10; 99 117; 100 73; 
101 44; 102 19; 103 28; 104 24; 105 138; 
106 17; 107 23; 108 21; 109 42; 110 11; 
111 34; 112 79; 113 56; 114 26; 115 18; 
116 8; 117 14; 118 19; 119 86; 120 28; 
121 34; 122 58; 123 11; 124 13; 125 112; 
126 25; 127 76; 128 39; 129 18; 130 6; 
131 18; 132 20; 133 28; 134 18; 135 28; 
136 5; 137 5; 138 11; 139 12; 140 37; 
141 33; 142 74; 143 27; 144 26; 145 8; 
146 7; 147 18; 148 91; 149 30; 150 14; 
151 13; 152 9; 153 14; 154 23; 155 418; 
156 48; 157 169; 158 17; 159 17; 160 3; 
161 4; 162 8; 163 18; 164 21; 165 4; 
166 7; 167 17; 168 28; 169 450; 170 43; 
171 58; 172 13; 173 12; 174 3; 175 1; 
176 1; 177 1; 178 24; 179 5; 180 1; 
181 5; 182 26; 183 311; 184 130; 185 754; 
186 109; 187 221; 188 25; 189 1; 190 1; 
192 1; 194 2; 195 2; 196 7; 197 34; 
198 999; 199 218; 200 324; 201 80; 202 7; 
203 1; 205 1; 207 1; 208 1; 209 1; 
210 3; 212 1; 213 3; 214 2; 215 1; 
224 1; 226 213; 227 16; 241 4; 243 2; 
244 1; 263 1; 287 1; 303 1; 314 1; 
318 1; 325 1; 328 1; 332 1; 343 2; 
344 4; 345 2; 346 4; 347 1; 352 1; 
357 4; 358 1; 360 2; 361 2; 362 2; 
364 1; 372 1; 374 1; 375 4; 376 1; 
377 1; 379 1; 395 1; 396 1; 398 1; 
411 292; 412 43; 413 106; 414 17; 415 2; 
