Name: 2C-P HFBA Derivative
InChIKey: SEAWOTAFFKJMFT-UHFFFAOYSA-N
Formula: C17H20F7NO3
MW: 419
ExactMass: 419.13314
CASNO: 0
ID: 3431
Comment: Broward Sheriff Office Drug Library
Num Peaks: 218
37 1; 38 1; 39 15; 41 13; 42 5; 
43 17; 44 10; 45 2; 50 4; 51 13; 
52 7; 53 17; 54 3; 55 9; 56 14; 
57 3; 58 1; 59 6; 60 1; 61 2; 
62 5; 63 20; 64 11; 65 69; 66 17; 
67 45; 68 9; 69 229; 70 1; 71 6; 
72 3; 73 7; 74 6; 75 10; 76 14; 
77 160; 78 93; 79 103; 80 17; 81 9; 
82 5; 83 2; 85 3; 86 1; 87 5; 
88 5; 89 44; 90 24; 91 362; 92 56; 
93 41; 94 12; 95 5; 96 1; 97 1; 
98 3; 100 28; 101 4; 102 21; 103 124; 
104 101; 105 169; 106 35; 107 47; 108 19; 
109 45; 110 10; 111 2; 112 1; 113 2; 
114 1; 115 109; 116 67; 117 113; 118 41; 
119 115; 120 62; 121 223; 122 87; 123 52; 
124 3; 125 1; 126 1; 127 16; 128 56; 
129 39; 130 18; 131 88; 132 56; 133 89; 
134 128; 135 233; 136 32; 137 20; 138 5; 
139 1; 140 1; 141 4; 142 4; 143 3; 
144 10; 145 18; 146 30; 147 146; 148 89; 
149 113; 150 31; 151 28; 152 8; 153 2; 
154 1; 155 1; 156 2; 157 5; 158 6; 
159 14; 160 14; 161 35; 162 22; 163 187; 
164 41; 165 37; 166 11; 167 2; 169 403; 
170 11; 171 1; 172 1; 173 3; 174 7; 
175 24; 176 32; 177 529; 178 133; 179 27; 
180 13; 181 1; 185 3; 186 1; 187 1; 
188 1; 189 5; 190 31; 191 87; 192 59; 
193 999; 194 147; 195 16; 196 1; 197 19; 
198 3; 199 1; 200 1; 204 6; 205 37; 
206 913; 207 217; 208 36; 209 2; 210 1; 
214 3; 219 1; 220 5; 221 2; 222 1; 
224 2; 225 3; 226 326; 227 18; 228 1; 
233 1; 234 1; 236 1; 238 1; 240 3; 
241 1; 249 9; 250 2; 252 2; 281 1; 
297 2; 310 3; 318 2; 320 1; 326 2; 
328 2; 329 1; 338 1; 340 2; 343 1; 
344 6; 345 1; 348 1; 352 5; 353 1; 
358 3; 360 5; 361 2; 362 3; 363 1; 
368 1; 372 3; 375 1; 376 5; 377 3; 
378 1; 380 3; 387 2; 389 2; 390 9; 
391 1; 401 1; 403 2; 404 2; 419 613; 
420 131; 421 16; 422 1; 
