Name: 2C-T-7 HFBA Derivative
InChIKey: UJWBVIVHXHRALM-UHFFFAOYSA-N
Formula: C17H20F7NO3S
MW: 451
ExactMass: 451.105211
CASNO: 0
ID: 3434
Comment: Broward Sheriff Office Drug Library
Num Peaks: 208
38 1; 39 26; 40 5; 41 67; 42 10; 
43 62; 44 8; 45 14; 46 3; 47 7; 
50 3; 51 7; 52 2; 53 10; 55 5; 
56 6; 57 2; 58 4; 59 6; 62 2; 
63 8; 64 5; 65 21; 66 10; 67 9; 
69 107; 70 5; 71 8; 72 2; 73 6; 
74 2; 75 8; 76 5; 77 48; 78 34; 
79 50; 80 5; 81 6; 82 6; 83 6; 
84 7; 85 24; 86 1; 87 3; 89 11; 
90 17; 91 75; 92 21; 93 17; 94 10; 
95 13; 96 15; 97 29; 98 7; 99 3; 
100 17; 101 2; 102 3; 103 12; 104 10; 
105 32; 106 12; 107 24; 108 29; 109 52; 
110 46; 111 24; 112 7; 113 3; 115 4; 
116 3; 117 7; 118 13; 119 40; 120 19; 
121 78; 122 48; 123 43; 124 16; 125 29; 
126 6; 127 4; 128 19; 129 2; 130 2; 
131 11; 132 9; 133 25; 134 44; 135 46; 
136 23; 137 39; 138 55; 139 31; 140 28; 
141 5; 142 1; 143 1; 144 1; 145 4; 
146 6; 147 16; 148 44; 149 72; 150 35; 
151 58; 152 40; 153 237; 154 28; 155 26; 
156 2; 158 1; 159 4; 160 4; 161 5; 
162 10; 163 18; 164 26; 165 22; 166 19; 
167 48; 168 17; 169 293; 170 11; 171 1; 
174 1; 175 3; 176 1; 177 8; 178 28; 
179 19; 180 29; 181 175; 182 31; 183 140; 
184 14; 185 8; 188 1; 189 1; 190 1; 
191 3; 192 2; 193 7; 194 23; 195 112; 
196 51; 197 35; 198 7; 199 3; 205 1; 
206 1; 207 6; 208 6; 209 9; 210 3; 
211 3; 212 2; 213 1; 214 1; 222 3; 
223 21; 225 999; 226 371; 227 66; 228 8; 
229 1; 236 1; 238 294; 239 105; 240 26; 
241 7; 242 1; 266 1; 281 6; 282 3; 
284 1; 314 1; 318 1; 332 3; 333 1; 
334 1; 337 1; 342 1; 357 9; 358 2; 
360 1; 361 1; 362 6; 363 3; 364 1; 
374 1; 375 7; 376 2; 377 1; 389 1; 
392 1; 406 1; 407 5; 408 1; 409 2; 
412 1; 419 1; 422 3; 449 1; 451 594; 
452 117; 453 40; 454 5; 
