Name: Isocyanatocyclohexane
InChIKey: KQWGXHWJMSMDJJ-UHFFFAOYSA-N
Formula: C7H11NO
MW: 125
ExactMass: 125.084064
CASNO: 0
ID: 3438
Comment: DEA SFL1 / breakdown product of URB597
Num Peaks: 68
29 100; 30 11; 34 2; 36 2; 37 12; 
38 36; 39 378; 40 112; 41 807; 42 353; 
43 165; 44 16; 46 8; 47 1; 48 1; 
49 3; 50 31; 51 57; 52 43; 53 125; 
54 575; 55 358; 56 531; 57 23; 58 23; 
59 4; 60 1; 61 1; 62 5; 63 9; 
64 6; 65 26; 66 27; 67 999; 68 177; 
69 599; 70 99; 71 19; 72 1; 74 1; 
75 1; 76 1; 77 23; 78 10; 79 61; 
80 71; 81 116; 82 917; 83 220; 84 28; 
85 15; 86 1; 92 1; 93 1; 94 3; 
95 4; 96 273; 97 950; 98 64; 99 17; 
108 6; 110 44; 111 2; 122 1; 123 1; 
124 61; 125 110; 126 9; 
