Name: 1-(4-fluorobenzyl)piperazine-HFBA Derivative
InChIKey: QRYASNPANBUFTG-UHFFFAOYSA-N
Formula: C15H14F8N2O
MW: 390
ExactMass: 390.09784
CASNO: 0
ID: 3439
Comment: Broward Sheriff Office Drug Library
Num Peaks: 131
38 1; 39 8; 40 2; 41 12; 42 47; 
43 7; 44 1; 50 3; 51 3; 52 1; 
54 14; 55 26; 56 78; 57 23; 58 3; 
59 7; 62 3; 63 16; 64 1; 65 1; 
66 1; 67 2; 68 7; 69 86; 70 12; 
71 6; 72 11; 73 1; 74 1; 75 6; 
76 2; 77 2; 78 4; 80 2; 81 12; 
82 6; 83 116; 84 23; 85 1; 86 1; 
87 1; 88 3; 89 21; 90 5; 91 2; 
92 1; 93 1; 94 1; 95 7; 96 6; 
97 6; 98 1; 99 1; 100 17; 101 3; 
103 5; 105 1; 107 29; 109 999; 110 100; 
111 5; 112 2; 116 1; 119 16; 120 1; 
121 6; 122 18; 123 11; 124 3; 128 2; 
130 1; 131 2; 133 1; 134 1; 135 14; 
136 32; 137 5; 138 2; 146 1; 148 7; 
149 7; 150 46; 151 11; 152 6; 159 1; 
161 1; 162 3; 163 3; 164 78; 165 9; 
166 2; 169 34; 170 1; 176 2; 177 1; 
178 6; 179 2; 191 3; 193 115; 194 11; 
195 1; 206 2; 207 1; 209 1; 210 4; 
219 1; 221 2; 226 6; 239 1; 240 1; 
251 1; 252 1; 253 1; 254 11; 255 1; 
266 3; 267 3; 279 1; 281 99; 282 11; 
283 1; 295 28; 296 3; 348 1; 369 1; 
370 1; 388 1; 389 27; 390 101; 391 20; 
392 2; 
