Name: 1-(p-Fluorophenyl)piperazine-HFBA Derivative
Synon: pFPP-HFBA Derivative
InChIKey: ZGXHNAMURVCBNW-UHFFFAOYSA-N
Formula: C14H12F8N2O
MW: 376
ExactMass: 376.08219
CASNO: 0
ID: 3440
Comment: Broward Sheriff Office Drug Library
Num Peaks: 164
38 3; 39 14; 40 6; 41 35; 42 112; 
43 7; 44 7; 47 1; 49 2; 50 20; 
51 22; 52 5; 53 5; 54 41; 55 46; 
56 587; 57 56; 58 11; 59 6; 62 5; 
63 17; 64 4; 65 6; 66 3; 67 3; 
68 24; 69 508; 70 61; 71 9; 72 1; 
73 4; 74 18; 75 187; 76 27; 77 20; 
78 26; 79 5; 80 1; 81 25; 82 22; 
83 60; 84 28; 85 3; 87 2; 88 2; 
89 8; 90 10; 91 11; 92 7; 93 15; 
94 38; 95 630; 96 104; 97 23; 98 2; 
99 3; 100 106; 101 9; 102 6; 104 59; 
105 4; 106 2; 107 23; 108 20; 109 397; 
110 39; 111 6; 112 4; 113 1; 115 4; 
116 9; 117 3; 118 7; 119 87; 120 6; 
122 999; 123 882; 124 164; 125 15; 126 1; 
128 4; 129 1; 130 5; 131 24; 132 2; 
133 6; 134 11; 135 66; 136 83; 137 193; 
138 121; 139 13; 142 2; 145 2; 146 5; 
147 5; 148 32; 149 40; 150 575; 151 79; 
152 51; 153 6; 158 1; 159 6; 160 5; 
161 9; 162 15; 163 25; 164 13; 165 13; 
166 3; 167 2; 168 2; 169 268; 170 12; 
172 1; 175 8; 176 4; 177 50; 178 73; 
179 811; 180 82; 181 4; 184 1; 185 1; 
189 1; 190 1; 192 1; 193 3; 197 3; 
205 1; 206 8; 207 25; 208 4; 209 2; 
210 6; 220 1; 226 2; 229 1; 234 1; 
238 2; 240 9; 241 4; 252 4; 253 5; 
254 2; 257 1; 264 1; 267 1; 279 4; 
307 4; 334 36; 337 11; 338 1; 355 1; 
356 2; 357 37; 358 6; 361 2; 374 7; 
375 73; 376 686; 377 118; 378 3; 
