Name: 25G-NBOMe
InChIKey: VDAUMFACIMNTDA-UHFFFAOYSA-N
Synon: 2-(2,5-dimethoxy-3,4-dimethylphenyl)-N-(2-methoxybenzyl)ethan-1-amine
Synon: NBOMe-2CG
Synon: 2C-G-NBOMe
Synon: 2,5-Dimethoxy-N-(2-methoxybenzyl)-3,4-dimethylphenethylamine
Synon: 25G-NB2OMe
Synon: 2C-G-NB2OMe
Formula: C20H27NO3
MW: 329
ExactMass: 329.199093
CASNO: 0
ID: 3442
Comment: Provided by www.caymanchem.com/app/template/landing%2CForensic.vm / Item #14065  Lot #0448370
Num Peaks: 108
40 1; 41 6; 42 4; 43 4; 44 1; 
45 1; 50 4; 51 9; 52 5; 53 6; 
54 2; 55 2; 59 1; 62 1; 63 6; 
65 37; 66 4; 67 10; 68 1; 73 3; 
74 1; 75 1; 77 50; 78 35; 79 23; 
80 4; 81 3; 83 1; 89 10; 91 342; 
92 32; 93 47; 94 8; 95 1; 96 2; 
97 1; 102 3; 103 12; 104 11; 105 26; 
106 11; 107 27; 108 5; 109 3; 115 11; 
116 4; 117 16; 118 14; 119 47; 121 999; 
122 89; 123 7; 128 1; 130 2; 131 4; 
132 5; 133 14; 134 39; 135 14; 136 21; 
137 5; 141 1; 142 2; 145 2; 146 4; 
147 6; 148 26; 150 386; 151 37; 152 4; 
154 1; 156 4; 157 1; 158 1; 159 1; 
160 2; 161 5; 162 8; 163 14; 164 14; 
165 24; 166 3; 167 1; 175 1; 176 9; 
177 11; 178 13; 179 28; 180 66; 181 8; 
190 3; 191 4; 192 5; 193 4; 194 1; 
207 6; 208 2; 209 1; 249 1; 253 1; 
265 1; 281 3; 282 1; 296 16; 298 84; 
299 16; 300 2; 327 2; 
