Name: JWH-146
Synon: (1-Heptyl-5-phenyl-1H-pyrrol-3-yl)-1-naphthalenyl-methanone
InChIKey: JDBFNFBWXVCTSA-UHFFFAOYSA-N
Formula: C28H29NO
MW: 395
ExactMass: 395.224915
CASNO: 914458212
ID: 3446
Comment: Provided by www.caymanchem.com/app/template/landing%2CForensic.vm / Item #14232  Lot #0449520
Num Peaks: 273
41 142; 42 14; 43 97; 44 3; 48 1; 
49 1; 50 4; 51 10; 52 9; 53 10; 
54 2; 55 40; 57 85; 58 7; 60 1; 
61 2; 62 2; 63 9; 64 3; 65 6; 
66 3; 67 5; 68 2; 69 10; 70 4; 
71 1; 72 2; 73 4; 74 8; 75 14; 
76 11; 77 58; 78 11; 79 5; 81 2; 
82 1; 83 1; 84 1; 86 3; 87 7; 
88 4; 89 9; 90 4; 91 16; 92 3; 
96 2; 97 3; 98 1; 99 2; 100 3; 
101 25; 102 14; 103 18; 104 61; 105 15; 
106 4; 107 1; 111 1; 112 1; 113 14; 
114 41; 115 144; 116 22; 117 10; 118 9; 
119 4; 120 7; 121 2; 122 1; 124 2; 
127 608; 128 168; 129 39; 130 10; 131 4; 
132 4; 133 9; 135 5; 136 1; 137 1; 
139 23; 140 43; 141 78; 142 46; 143 17; 
144 7; 146 5; 147 4; 148 4; 149 4; 
150 5; 151 9; 152 15; 153 17; 155 999; 
156 233; 157 21; 158 6; 160 2; 161 4; 
163 25; 164 32; 165 75; 166 20; 167 20; 
168 13; 169 43; 170 163; 171 22; 172 2; 
174 1; 175 3; 176 5; 177 3; 178 7; 
179 8; 180 10; 181 9; 182 48; 184 13; 
185 1; 187 2; 188 3; 189 7; 190 23; 
191 14; 192 8; 193 14; 194 26; 195 8; 
196 21; 197 5; 198 10; 200 5; 201 2; 
202 22; 203 6; 204 7; 205 7; 207 40; 
208 9; 209 3; 210 2; 211 2; 212 7; 
213 4; 214 3; 215 3; 216 3; 217 2; 
218 2; 219 14; 220 22; 221 5; 224 5; 
225 3; 226 12; 228 4; 229 1; 231 2; 
232 7; 233 3; 234 5; 235 2; 236 1; 
237 10; 238 9; 239 47; 240 62; 241 20; 
242 5; 248 1; 249 2; 250 13; 251 7; 
252 47; 253 24; 254 11; 255 7; 256 1; 
258 1; 262 2; 263 3; 264 9; 265 13; 
266 22; 267 50; 268 137; 269 41; 270 10; 
271 2; 274 2; 275 1; 276 2; 277 9; 
278 16; 280 34; 281 67; 282 88; 283 18; 
284 7; 285 1; 286 1; 287 1; 289 1; 
290 1; 291 4; 292 8; 293 14; 294 31; 
296 320; 297 75; 298 10; 300 2; 304 5; 
305 2; 306 4; 308 15; 310 253; 311 106; 
312 22; 313 1; 318 35; 319 11; 320 3; 
322 7; 323 5; 324 28; 325 5; 327 2; 
328 2; 331 3; 334 1; 336 6; 337 2; 
338 6; 339 5; 340 1; 341 1; 342 1; 
343 3; 345 1; 347 2; 348 1; 350 7; 
351 2; 352 6; 353 3; 354 1; 355 3; 
356 1; 357 1; 358 1; 364 3; 366 5; 
367 2; 376 1; 378 22; 379 6; 380 4; 
381 3; 382 1; 386 1; 389 1; 390 1; 
391 1; 392 2; 394 279; 395 572; 396 188; 
397 25; 398 2; 399 1; 
