Name: UR-144 N-(5-methylhexyl) analog
Synon: (1-(5-methylhexyl)-1H-indol-3-yl)(2,2,3,3-tetramethylcyclopropyl)methanone
InChIKey: JOVRITWYDROVAQ-UHFFFAOYSA-N
Formula: C23H33NO
MW: 339
ExactMass: 339.256214
CASNO: 0
ID: 3448
Comment: Provided by www.caymanchem.com/app/template/landing%2CForensic.vm / Item #9001439  Lot #0447821
Num Peaks: 166
41 94; 43 112; 44 3; 50 1; 51 3; 
52 2; 53 12; 55 71; 57 50; 58 3; 
59 14; 62 1; 63 3; 65 5; 67 15; 
69 21; 70 2; 74 1; 75 3; 76 4; 
77 12; 78 4; 79 14; 81 31; 83 32; 
84 3; 87 1; 88 4; 89 15; 90 5; 
91 5; 92 1; 93 1; 95 4; 96 6; 
97 23; 98 2; 101 8; 102 22; 103 12; 
104 2; 106 1; 109 23; 110 3; 113 2; 
114 8; 115 41; 116 53; 117 19; 118 9; 
120 5; 125 25; 126 4; 127 8; 128 29; 
129 48; 130 76; 131 14; 132 10; 133 1; 
139 3; 140 4; 141 6; 143 61; 144 206; 
145 23; 146 2; 151 1; 152 6; 153 4; 
154 19; 155 9; 156 17; 157 20; 158 15; 
159 4; 165 4; 167 41; 168 31; 169 9; 
170 35; 171 33; 172 16; 173 4; 174 1; 
178 3; 180 32; 181 25; 182 38; 183 14; 
184 19; 185 4; 186 3; 191 2; 192 2; 
193 5; 194 20; 195 10; 196 46; 197 16; 
198 26; 199 6; 200 5; 201 1; 204 1; 
206 2; 207 3; 208 9; 210 31; 211 9; 
212 9; 213 3; 215 31; 216 23; 217 3; 
220 1; 222 6; 224 23; 225 9; 226 11; 
227 2; 228 5; 229 1; 236 2; 237 2; 
238 8; 239 6; 240 12; 242 999; 243 206; 
244 20; 245 1; 252 3; 254 17; 255 4; 
256 19; 257 65; 258 12; 259 1; 264 1; 
266 60; 267 13; 268 3; 269 1; 270 1; 
271 2; 280 72; 281 53; 282 13; 283 2; 
284 1; 294 1; 296 35; 297 10; 298 16; 
299 3; 308 2; 309 7; 310 2; 322 7; 
324 127; 325 29; 326 3; 339 85; 340 22; 
341 2; 
