Name: 3'-Fluoro-.alpha.-Pyrrolidinopropiophenone
Synon: 3'F-.alpha.-PPP
Synon: 1-(3-Fluorophenyl)-2-(1-pyrrolidinyl)-1-propanone
InChIKey: ULCYWOZDRYWKHX-UHFFFAOYSA-N
Formula: C13H16FNO
MW: 221
ExactMass: 221.1215925
CASNO: 121493990
ID: 3451
Comment: Provided by www.caymanchem.com/app/template/landing%2CForensic.vm / Item #14447  Lot #0448813
Num Peaks: 62
40 5; 41 35; 42 29; 43 6; 44 16; 
45 1; 50 7; 51 6; 52 2; 53 6; 
54 24; 55 45; 56 119; 57 8; 62 1; 
63 2; 65 1; 67 4; 68 21; 69 57; 
70 24; 71 1; 75 78; 76 7; 77 5; 
78 1; 80 2; 81 3; 82 2; 83 3; 
92 1; 93 2; 95 158; 96 46; 98 999; 
99 67; 100 2; 101 3; 102 1; 103 4; 
107 2; 108 1; 109 7; 115 1; 120 1; 
121 2; 123 46; 124 4; 133 3; 134 1; 
135 1; 148 1; 149 1; 150 1; 151 1; 
152 1; 190 1; 204 1; 206 1; 218 1; 
219 2; 220 2; 
