Name: JWH-203 N-(5-hydroxypentyl) metabolite
Synon: 2-(2-Chlorophenyl)-1-(1-(5-hydroxypentyl)-1H-indol-3-yl)ethan-1-one
InChIKey: RFHPYWJZEUWQOM-UHFFFAOYSA-N
Formula: C21H22ClNO2
MW: 355
ExactMass: 355.133907
CASNO: 0
ID: 3452
Comment: Provided by www.caymanchem.com/app/template/landing%2CForensic.vm / Item #14228  Lot #0447613
Num Peaks: 150
41 37; 42 2; 43 6; 44 1; 45 4; 
50 1; 51 3; 53 2; 55 6; 57 4; 
61 1; 62 5; 63 16; 64 4; 65 6; 
67 5; 69 30; 70 2; 71 1; 73 4; 
74 2; 75 10; 76 6; 77 10; 78 4; 
79 1; 85 3; 86 1; 87 4; 88 13; 
89 78; 90 19; 91 9; 92 1; 95 1; 
96 1; 99 13; 100 2; 101 18; 102 32; 
103 11; 104 2; 105 1; 109 2; 114 12; 
115 46; 116 85; 117 12; 118 6; 119 1; 
123 1; 125 143; 126 15; 127 48; 128 32; 
129 52; 130 32; 131 5; 132 2; 133 1; 
134 1; 135 1; 138 1; 139 4; 140 2; 
141 3; 143 58; 144 283; 145 27; 146 6; 
150 2; 151 2; 152 2; 153 1; 154 4; 
155 3; 156 11; 157 11; 158 5; 159 1; 
163 1; 165 1; 167 2; 168 4; 169 3; 
170 18; 171 8; 172 4; 173 1; 174 1; 
176 7; 177 4; 178 3; 179 1; 180 1; 
182 1; 184 6; 185 2; 186 1; 188 1; 
189 4; 190 2; 191 2; 192 1; 193 1; 
195 1; 198 19; 199 7; 200 19; 201 4; 
202 3; 203 4; 204 12; 205 6; 206 3; 
207 5; 208 1; 210 1; 212 10; 213 2; 
214 6; 215 1; 216 4; 217 9; 218 9; 
219 2; 220 1; 226 1; 228 44; 230 999; 
231 158; 232 15; 233 3; 234 1; 238 1; 
240 1; 246 2; 253 1; 266 1; 267 1; 
281 2; 282 3; 284 1; 302 1; 319 1; 
320 3; 339 1; 355 13; 356 3; 357 4; 
