Name: 5-MAPDB
Synon: 1-(2,3-Dihydrobenzofuran-5-yl)-N-methylpropan-2-amine
InChIKey: PLQTZOCLUHHCOI-UHFFFAOYSA-N
Formula: C12H17NO
MW: 191
ExactMass: 191.131014
CASNO: 0
ID: 3453
Comment: Provided by www.caymanchem.com/app/template/landing%2CForensic.vm / Item #14111  Lot #0448104
Num Peaks: 84
40 3; 41 12; 42 30; 43 15; 44 2; 
50 6; 51 20; 52 8; 53 11; 54 5; 
55 9; 56 55; 58 999; 59 41; 62 4; 
63 16; 64 5; 65 22; 66 5; 67 2; 
68 1; 69 1; 70 3; 71 2; 72 1; 
74 7; 75 7; 76 6; 77 77; 78 28; 
79 38; 80 5; 81 1; 86 1; 88 5; 
89 12; 90 8; 91 37; 92 4; 93 1; 
101 2; 102 13; 103 37; 104 18; 105 27; 
106 5; 107 3; 113 1; 115 20; 116 9; 
117 10; 118 6; 119 6; 120 4; 121 2; 
126 1; 127 3; 128 6; 129 3; 130 5; 
131 27; 133 131; 134 111; 135 12; 141 1; 
143 1; 144 4; 145 2; 146 4; 147 1; 
148 1; 157 1; 158 2; 159 6; 160 7; 
161 7; 162 1; 174 3; 175 5; 176 6; 
177 1; 189 4; 190 4; 191 2; 
