Name: BB-22 methylester analogue
Synon: Methyl ester 1-(cyclohexylmethyl)-1H-indole-3-carboxylic acid
Synon: Methyl-1-(cyclohexylmethyl)-1H-indole-3-carboxylate
InChIKey: KNWOMWABRWXHET-UHFFFAOYSA-N
Formula: C17H21NO2
MW: 271
ExactMass: 271.157228
CASNO: 858515829
ID: 3455
Comment: Provided by www.caymanchem.com/app/template/landing%2CForensic.vm / Item #14674  Lot #0449481
Num Peaks: 121
41 97; 42 8; 43 8; 44 1; 45 2; 
50 4; 51 9; 52 4; 53 17; 55 132; 
56 10; 59 25; 61 1; 62 7; 63 11; 
64 3; 65 10; 67 29; 68 3; 69 4; 
74 5; 75 16; 76 16; 77 30; 78 10; 
79 11; 80 3; 81 8; 83 35; 84 2; 
86 1; 87 5; 88 15; 89 31; 90 14; 
91 14; 92 1; 93 2; 95 8; 96 1; 
97 4; 98 1; 101 34; 102 68; 103 42; 
104 8; 105 2; 114 18; 115 63; 116 48; 
117 32; 118 13; 119 1; 128 141; 129 144; 
130 268; 131 37; 132 10; 133 1; 139 1; 
140 3; 141 3; 142 12; 143 62; 144 169; 
145 38; 146 29; 147 3; 152 1; 154 28; 
155 11; 156 30; 157 16; 158 41; 159 7; 
160 9; 161 2; 166 3; 167 14; 168 16; 
169 4; 170 9; 171 1; 172 1; 174 66; 
175 32; 176 10; 177 1; 178 1; 180 4; 
181 2; 182 8; 184 19; 185 2; 188 999; 
189 330; 190 41; 191 3; 194 1; 196 5; 
198 3; 200 1; 201 1; 210 5; 212 69; 
213 13; 214 2; 215 1; 226 1; 228 6; 
229 1; 238 12; 240 102; 241 19; 242 2; 
256 33; 257 5; 271 577; 272 108; 273 12; 
274 1; 
