Name: Methyl 1-(5-fluoropentyl)-1H-indole-3-carboxylate
InChIKey: ZTIFWEBSTLDAMT-UHFFFAOYSA-N
Formula: C15H18FNO2
MW: 263
ExactMass: 263.132156
CASNO: 0
ID: 3456
Comment: Provided by www.caymanchem.com/app/template/landing%2CForensic.vm / Item #14675  Lot #0449482
Num Peaks: 127
41 67; 42 11; 43 15; 44 1; 45 5; 
46 5; 47 25; 50 6; 51 11; 52 4; 
53 7; 54 3; 55 14; 56 1; 57 1; 
59 48; 60 2; 61 6; 62 12; 63 19; 
64 5; 65 6; 66 1; 67 5; 69 8; 
70 1; 72 1; 73 2; 74 10; 75 22; 
76 23; 77 27; 78 8; 81 1; 85 1; 
86 3; 87 12; 88 24; 89 54; 90 16; 
91 14; 95 1; 98 1; 99 1; 101 37; 
102 67; 103 47; 104 11; 105 3; 108 1; 
114 29; 115 103; 116 84; 117 34; 118 11; 
119 1; 128 129; 129 113; 130 218; 131 31; 
132 7; 133 1; 139 1; 140 4; 141 5; 
142 20; 143 103; 144 225; 145 41; 146 51; 
147 5; 148 3; 154 17; 155 8; 156 31; 
157 16; 158 14; 159 4; 160 10; 161 2; 
162 1; 166 1; 167 4; 168 7; 170 44; 
171 9; 172 4; 174 21; 175 11; 176 6; 
177 1; 180 1; 182 5; 184 29; 185 5; 
188 999; 189 191; 190 20; 191 1; 196 1; 
198 3; 200 1; 201 6; 202 6; 204 65; 
205 11; 206 2; 210 3; 212 5; 213 1; 
214 2; 215 2; 216 11; 217 2; 218 1; 
228 2; 230 16; 232 371; 233 58; 234 6; 
242 1; 243 5; 248 9; 249 1; 263 628; 
264 99; 265 10; 
