Name: JWH-203 N-(4-hydroxypentyl) metabolite
Synon: 2-(2-chlorophenyl)-1-(1-(4-hydroxypentyl)-1H-indol-3-yl)ethan-1-one
InChIKey: ALUOSHHIHVCMCU-UHFFFAOYSA-N
Formula: C21H22ClNO2
MW: 355
ExactMass: 355.133907
CASNO: 0
ID: 3458
Comment: Provided by www.caymanchem.com/app/template/landing%2CForensic.vm / Item #14227  Lot #0448681
Num Peaks: 184
41 40; 43 49; 44 4; 45 74; 46 2; 
50 2; 51 5; 52 1; 53 2; 55 3; 
57 4; 58 1; 59 1; 62 6; 63 21; 
64 5; 65 7; 67 3; 69 85; 70 6; 
71 7; 73 6; 74 3; 75 11; 76 10; 
77 14; 78 7; 79 1; 84 1; 85 36; 
86 3; 87 7; 88 11; 89 84; 90 21; 
91 14; 92 1; 95 1; 96 2; 97 1; 
99 18; 101 23; 102 52; 103 17; 104 2; 
108 1; 109 3; 112 1; 113 2; 114 14; 
115 47; 116 88; 117 13; 118 5; 119 1; 
120 1; 123 1; 125 176; 126 15; 127 59; 
128 48; 129 88; 130 37; 131 6; 132 2; 
133 1; 134 1; 135 3; 136 1; 137 1; 
139 4; 140 5; 141 6; 144 462; 145 50; 
146 6; 147 1; 148 1; 149 1; 150 2; 
151 3; 152 3; 153 2; 154 11; 155 4; 
156 18; 157 28; 158 10; 159 1; 160 1; 
163 1; 164 2; 165 2; 166 1; 167 4; 
168 7; 169 3; 170 19; 171 4; 172 1; 
174 3; 175 1; 176 8; 177 5; 178 4; 
179 2; 180 1; 182 3; 184 20; 185 10; 
186 14; 187 3; 188 3; 189 5; 190 2; 
191 2; 192 1; 194 1; 196 1; 197 1; 
198 1; 200 1; 201 3; 202 6; 203 5; 
204 14; 205 6; 206 6; 207 12; 208 3; 
209 1; 210 3; 212 61; 213 9; 214 15; 
215 4; 216 8; 217 17; 218 16; 219 4; 
220 1; 221 1; 226 1; 228 66; 230 999; 
231 160; 232 18; 233 3; 234 1; 240 1; 
242 1; 244 2; 246 6; 247 2; 249 1; 
253 5; 254 3; 255 1; 256 1; 266 3; 
267 1; 268 1; 270 2; 281 3; 282 8; 
283 2; 284 2; 285 1; 310 1; 320 3; 
321 1; 327 1; 331 1; 337 5; 338 2; 
339 3; 340 1; 341 1; 342 1; 353 1; 
355 19; 356 6; 357 6; 358 2; 
