Name: JWH-019 N-(5-hydroxyhexyl) metabolite
Synon: [1-(5-Hydroxyhexyl)-1H-indol-3-yl]-1-naphthalenyl-methanone
InChIKey: OMWLYFDUQMJPOS-UHFFFAOYSA-N
Formula: C25H25NO2
MW: 371
ExactMass: 371.18853
CASNO: 1435934476
ID: 3461
Comment: Provided by www.caymanchem.com/app/template/landing%2CForensic.vm / Item #14814  Lot #0450669
Num Peaks: 258
41 85; 43 194; 44 14; 45 210; 46 3; 
49 2; 50 11; 51 18; 52 5; 53 14; 
55 120; 56 5; 57 15; 58 4; 59 5; 
60 1; 61 2; 62 6; 63 17; 64 5; 
65 8; 66 3; 67 12; 68 4; 69 6; 
71 5; 73 16; 74 15; 75 31; 76 33; 
77 80; 78 18; 79 6; 80 1; 81 7; 
83 19; 85 5; 86 4; 87 10; 88 20; 
89 58; 90 12; 91 7; 93 4; 95 5; 
99 88; 100 15; 101 76; 102 84; 103 29; 
104 8; 105 1; 106 16; 108 5; 109 2; 
113 20; 114 33; 115 111; 116 118; 117 33; 
118 17; 119 7; 121 23; 122 2; 125 13; 
126 139; 127 999; 128 319; 129 112; 130 140; 
131 22; 132 20; 133 11; 134 12; 135 12; 
136 2; 137 2; 139 30; 140 22; 142 198; 
143 74; 144 401; 145 40; 146 6; 147 7; 
148 7; 150 7; 151 8; 152 13; 153 15; 
155 808; 156 150; 157 26; 158 26; 161 5; 
162 4; 163 10; 164 6; 165 10; 167 126; 
168 34; 169 15; 170 70; 171 34; 172 83; 
173 15; 174 20; 175 2; 176 7; 177 8; 
178 4; 180 8; 181 4; 182 10; 183 5; 
184 15; 185 4; 186 5; 187 14; 188 9; 
189 12; 190 4; 191 5; 192 3; 193 8; 
194 4; 195 4; 196 7; 197 10; 198 72; 
199 18; 200 25; 201 11; 202 10; 205 1; 
207 28; 208 9; 209 3; 210 4; 211 8; 
212 10; 213 60; 214 48; 215 72; 216 127; 
217 23; 218 5; 219 1; 220 1; 222 2; 
224 12; 225 13; 226 93; 227 27; 228 32; 
229 12; 230 5; 232 1; 234 1; 236 2; 
238 14; 239 25; 240 87; 241 191; 242 122; 
243 30; 244 163; 245 31; 246 3; 248 1; 
249 4; 250 3; 251 14; 252 17; 253 47; 
254 218; 255 92; 256 76; 257 18; 258 6; 
259 1; 265 15; 266 39; 267 44; 268 57; 
269 127; 270 506; 271 117; 272 83; 273 15; 
274 2; 275 1; 278 5; 280 17; 281 17; 
282 84; 283 88; 284 395; 285 104; 286 36; 
287 8; 288 2; 289 1; 291 2; 292 5; 
293 2; 294 28; 296 83; 297 24; 298 24; 
299 7; 300 2; 301 2; 302 1; 304 2; 
305 1; 306 2; 308 9; 310 80; 311 23; 
312 11; 313 4; 318 1; 320 4; 322 5; 
324 18; 325 21; 326 22; 327 14; 328 3; 
329 2; 330 1; 331 4; 332 1; 334 5; 
336 27; 337 6; 338 14; 339 5; 340 1; 
341 2; 342 3; 343 3; 344 1; 350 3; 
352 83; 353 126; 354 92; 355 37; 356 40; 
357 11; 358 1; 361 1; 366 1; 369 120; 
371 437; 372 119; 373 16; 
