Name: THJ
Synon: 1-Pentyl-N-(quinolin-8-yl)-1H-indazole-3-carboxamide
InChIKey: YAYIQXMTUCPLHG-UHFFFAOYSA-N
Formula: C22H22N4O
MW: 358
ExactMass: 358.179361
CASNO: 0
ID: 3465
Comment: Provided by www.caymanchem.com/app/template/landing%2CForensic.vm / Item #14889  Lot #0451662 / SWGDRUG Monograph available
Num Peaks: 158
40 3; 41 41; 42 6; 43 62; 44 3; 
50 2; 51 7; 52 3; 53 3; 55 12; 
62 6; 63 14; 64 7; 65 5; 67 1; 
69 4; 70 2; 71 3; 73 4; 74 2; 
75 12; 76 21; 77 29; 78 6; 79 2; 
87 6; 88 28; 89 57; 90 80; 91 11; 
92 1; 96 4; 100 1; 101 22; 102 43; 
103 91; 104 18; 105 3; 114 10; 115 22; 
116 113; 117 63; 118 10; 119 3; 120 1; 
123 1; 127 4; 128 30; 129 41; 130 17; 
131 31; 132 7; 133 2; 135 2; 137 10; 
140 1; 141 3; 142 37; 143 70; 144 133; 
145 535; 146 50; 147 5; 150 3; 151 3; 
153 1; 154 2; 155 7; 156 6; 157 6; 
158 7; 159 5; 162 1; 163 1; 169 2; 
171 168; 172 21; 173 3; 176 1; 177 2; 
178 1; 179 6; 185 6; 187 26; 188 4; 
189 1; 191 4; 193 1; 194 1; 195 2; 
196 1; 197 1; 199 3; 200 1; 202 1; 
203 2; 204 2; 205 1; 207 42; 208 12; 
209 4; 213 11; 215 999; 216 151; 217 11; 
218 1; 229 9; 230 12; 231 18; 232 3; 
241 1; 242 1; 243 1; 244 2; 245 1; 
246 1; 249 1; 251 1; 253 10; 254 2; 
255 1; 256 2; 258 5; 259 4; 260 2; 
265 1; 269 2; 271 2; 273 16; 274 3; 
281 7; 282 3; 283 2; 285 1; 287 37; 
288 16; 289 2; 301 42; 302 11; 303 1; 
314 1; 315 3; 316 2; 317 1; 327 1; 
328 1; 330 32; 331 10; 332 1; 341 2; 
342 4; 343 3; 344 1; 346 1; 358 418; 
359 104; 360 14; 361 1; 
