Name: FDU-PB-22
Synon: Naphthalen-1-yl-1-(4-fluorobenzyl)-1H-indole-3-carboxylate
InChIKey: RCEKSVIFQKKFLS-UHFFFAOYSA-N
Formula: C26H18FNO2
MW: 395
ExactMass: 395.132156
CASNO: 0
ID: 3467
Comment: Provided by www.caymanchem.com/app/template/landing%2CForensic.vm / Item #14968  Lot #0451941
Num Peaks: 93
40 1; 50 3; 51 6; 52 1; 57 5; 
58 1; 59 4; 61 1; 62 10; 63 21; 
64 4; 65 8; 70 1; 72 1; 73 2; 
74 5; 75 11; 76 5; 77 5; 78 1; 
81 2; 83 74; 84 4; 85 1; 86 3; 
87 7; 88 16; 89 37; 90 4; 91 1; 
95 1; 96 3; 98 1; 101 8; 102 4; 
103 2; 107 11; 109 999; 110 74; 111 2; 
113 8; 114 24; 115 196; 116 27; 117 1; 
119 1; 126 4; 127 6; 128 18; 129 4; 
133 2; 135 1; 143 85; 144 24; 145 2; 
156 1; 168 1; 169 1; 170 1; 175 3; 
176 2; 177 1; 178 1; 193 1; 194 3; 
195 3; 196 4; 197 1; 201 2; 202 3; 
203 2; 204 2; 207 10; 208 2; 209 1; 
220 1; 221 7; 222 26; 223 9; 224 14; 
225 4; 226 1; 228 1; 233 1; 250 6; 
252 866; 253 157; 254 14; 255 1; 258 1; 
281 2; 395 5; 396 1; 
