Name: MAM2201 N-(5-chloropentyl) analog
Synon: JWH-122 N-(5-chloropentyl) analogue
Synon: (1-(5-Chloropentyl)-1H-indol-3-yl)(4-methylnaphthalen-1-yl)methanone
InChIKey: MGKPPIQCXPTZFK-UHFFFAOYSA-N
Formula: C25H24ClNO
MW: 389
ExactMass: 389.154642
CASNO: 1445578255
ID: 3469
Comment: Provided by www.caymanchem.com/app/template/landing%2CForensic.vm / Item #13103  Lot #0445942
Num Peaks: 286
40 15; 41 278; 42 23; 43 60; 44 3; 
45 3; 46 1; 47 4; 49 16; 50 5; 
51 20; 52 5; 53 35; 55 30; 56 6; 
58 5; 61 2; 62 18; 63 62; 64 6; 
65 25; 66 5; 67 30; 69 148; 70 10; 
71 2; 73 17; 74 11; 75 39; 76 40; 
77 42; 78 25; 79 14; 80 1; 81 1; 
84 3; 85 1; 86 4; 87 12; 88 44; 
89 111; 90 25; 91 34; 92 3; 93 2; 
94 2; 95 4; 97 6; 98 9; 99 1; 
101 75; 102 178; 103 58; 104 11; 105 3; 
107 14; 109 8; 113 58; 115 680; 116 269; 
117 67; 118 2; 119 33; 120 43; 122 5; 
124 1; 125 1; 127 165; 128 212; 129 149; 
130 104; 131 19; 132 9; 134 96; 135 130; 
137 9; 139 309; 140 123; 141 723; 144 550; 
145 66; 147 13; 148 346; 150 18; 151 20; 
152 29; 153 37; 154 61; 155 55; 156 59; 
157 20; 158 26; 159 2; 160 3; 163 20; 
164 8; 165 32; 166 15; 167 23; 169 569; 
170 145; 171 17; 173 2; 174 6; 175 4; 
176 21; 177 24; 178 10; 179 6; 181 318; 
182 67; 183 20; 184 36; 185 30; 186 2; 
187 11; 188 3; 189 11; 190 7; 191 6; 
192 8; 193 12; 194 15; 195 11; 196 4; 
197 10; 198 14; 199 7; 200 22; 201 17; 
202 23; 203 18; 204 5; 205 5; 207 71; 
208 26; 209 2; 210 8; 211 19; 212 67; 
213 52; 214 60; 215 23; 216 5; 217 5; 
219 4; 220 5; 221 7; 222 15; 223 4; 
224 20; 225 23; 226 89; 227 54; 228 55; 
229 18; 230 4; 232 4; 233 3; 234 5; 
235 3; 236 3; 237 9; 238 10; 239 50; 
240 100; 241 208; 242 77; 243 4; 246 7; 
248 590; 249 76; 250 205; 251 59; 252 32; 
253 88; 254 280; 255 138; 256 72; 257 28; 
258 3; 259 2; 261 1; 262 4; 263 2; 
265 32; 266 41; 267 78; 268 144; 269 155; 
270 172; 271 39; 272 8; 274 4; 275 2; 
276 4; 278 5; 280 57; 281 69; 282 83; 
283 151; 284 338; 285 96; 286 22; 287 3; 
288 3; 289 1; 290 1; 291 4; 292 3; 
294 23; 295 13; 296 42; 298 870; 299 186; 
300 26; 302 1; 303 2; 304 4; 305 6; 
306 5; 308 8; 309 12; 310 28; 311 6; 
312 24; 313 6; 314 3; 315 7; 316 1; 
318 2; 320 2; 321 2; 322 2; 324 16; 
325 11; 326 16; 327 15; 329 4; 331 10; 
332 8; 333 4; 334 5; 336 39; 337 24; 
338 52; 339 14; 341 13; 342 10; 343 6; 
344 1; 345 2; 346 8; 348 4; 350 3; 
351 6; 352 67; 353 78; 354 110; 355 36; 
356 26; 357 11; 358 14; 360 20; 361 15; 
362 14; 363 2; 365 1; 367 2; 370 22; 
372 552; 373 170; 374 384; 375 103; 376 79; 
377 18; 383 1; 385 1; 386 2; 388 467; 
389 999; 390 377; 391 369; 392 70; 393 10; 
394 2; 
