Name: XLR12
Synon: (2,2,3,3-Tetramethylcyclopropyl)[1-(4,4,4-trifluorobutyl)-1H-indol-3-yl]-methanone
InChIKey: PEXYKZYTXIEEOB-UHFFFAOYSA-N
Formula: C20H24F3NO
MW: 351
ExactMass: 351.181
CASNO: 895155789
ID: 3477
Comment: Provided by www.caymanchem.com/app/template/landing%2CForensic.vm / Item #14935  Lot #0451176
Num Peaks: 167
41 44; 42 5; 43 18; 47 19; 50 2; 
51 7; 52 2; 53 11; 55 43; 56 3; 
57 8; 59 9; 62 2; 63 6; 64 3; 
65 7; 66 2; 67 11; 69 12; 71 6; 
74 1; 75 6; 76 6; 77 18; 78 4; 
79 13; 81 34; 82 4; 83 26; 87 2; 
88 8; 89 32; 90 8; 91 26; 92 1; 
93 1; 95 3; 96 3; 97 11; 101 14; 
102 27; 103 13; 104 2; 105 2; 109 37; 
110 4; 112 2; 113 2; 114 11; 115 46; 
116 93; 117 19; 118 5; 120 7; 125 15; 
126 4; 127 10; 128 33; 129 49; 130 55; 
131 6; 132 1; 139 5; 140 6; 141 7; 
142 12; 143 50; 144 130; 145 13; 146 1; 
151 2; 152 7; 153 5; 154 20; 155 8; 
156 11; 157 14; 158 5; 159 1; 161 9; 
164 1; 165 5; 166 9; 167 42; 168 36; 
169 6; 170 11; 171 2; 172 5; 177 1; 
178 3; 180 31; 181 24; 182 21; 183 8; 
184 6; 185 3; 186 4; 187 1; 191 2; 
192 3; 193 5; 194 14; 195 7; 196 28; 
197 9; 198 5; 204 2; 205 1; 207 7; 
208 4; 209 3; 210 24; 211 5; 212 4; 
213 1; 214 1; 220 1; 222 1; 224 11; 
225 4; 226 5; 227 21; 228 19; 229 2; 
234 2; 235 1; 236 1; 238 1; 239 2; 
240 9; 241 1; 252 8; 254 999; 255 144; 
256 13; 257 1; 264 2; 266 1; 269 58; 
270 8; 278 75; 279 13; 280 4; 281 1; 
283 1; 292 71; 293 51; 294 12; 295 2; 
306 1; 308 22; 309 5; 310 11; 311 2; 
318 1; 320 2; 321 9; 322 2; 332 2; 
334 4; 336 96; 337 19; 338 2; 351 74; 
352 16; 353 2; 
