Name: JWH-081 N-(4-hydroxypentyl) metabolite
Synon: (1-(4-Hydroxypentyl)-1H-indol-3-yl)(4-methoxynaphthalen-1-yl)methanone
InChIKey: BMDREMSYCUDCJJ-UHFFFAOYSA-N
Formula: C25H25NO3
MW: 387
ExactMass: 387.183443
CASNO: 0
ID: 3483
Comment: Provided by www.caymanchem.com/app/template/landing%2CForensic.vm / Item #14348  Lot #0452819
Num Peaks: 264
41 176; 43 202; 44 21; 45 306; 46 9; 
50 15; 51 16; 52 7; 53 22; 54 7; 
55 17; 56 3; 57 21; 58 14; 61 3; 
62 12; 63 28; 64 10; 65 11; 66 11; 
67 6; 69 204; 70 11; 71 17; 73 50; 
74 14; 75 38; 76 35; 77 47; 78 9; 
81 2; 82 13; 84 5; 85 212; 86 17; 
87 14; 88 48; 89 81; 91 17; 92 3; 
94 5; 95 9; 99 4; 100 11; 101 39; 
102 121; 103 48; 104 6; 105 4; 107 21; 
108 7; 109 6; 111 7; 113 60; 114 355; 
115 171; 116 132; 117 67; 118 45; 119 17; 
121 57; 122 16; 124 4; 126 77; 127 211; 
128 202; 129 151; 130 122; 131 23; 133 68; 
134 8; 135 45; 136 13; 137 7; 138 7; 
139 23; 140 22; 142 155; 143 96; 144 617; 
145 70; 146 11; 147 22; 148 13; 149 57; 
151 11; 152 6; 153 21; 154 46; 155 34; 
157 409; 158 211; 159 40; 160 10; 161 7; 
163 11; 164 1; 165 31; 166 8; 167 24; 
168 23; 169 34; 170 55; 171 133; 172 15; 
173 8; 174 8; 175 14; 176 17; 177 4; 
178 8; 180 7; 181 9; 182 10; 183 50; 
185 999; 186 159; 187 28; 188 11; 189 12; 
191 43; 192 12; 193 37; 194 10; 195 14; 
197 163; 198 34; 199 14; 200 44; 201 46; 
202 203; 203 53; 204 15; 205 1; 207 277; 
208 34; 209 11; 210 12; 211 8; 212 31; 
213 37; 214 27; 215 31; 216 12; 217 12; 
218 3; 221 1; 223 11; 224 9; 225 9; 
226 31; 227 49; 228 146; 229 47; 230 254; 
231 48; 232 5; 233 4; 237 8; 238 16; 
239 12; 240 62; 241 161; 242 68; 243 41; 
244 12; 245 11; 249 10; 251 9; 253 88; 
254 97; 255 35; 256 56; 257 62; 258 50; 
260 3; 264 4; 265 15; 267 8; 268 26; 
269 64; 270 98; 271 62; 272 37; 273 9; 
274 9; 275 3; 278 5; 281 52; 282 53; 
283 30; 284 119; 285 124; 286 68; 287 15; 
288 29; 290 3; 292 5; 293 4; 294 5; 
295 15; 296 22; 297 31; 298 74; 300 428; 
301 113; 302 183; 303 43; 304 5; 309 6; 
310 23; 312 85; 313 38; 314 284; 315 101; 
316 28; 317 11; 320 3; 322 4; 323 4; 
324 11; 325 23; 326 112; 327 44; 328 20; 
329 11; 330 5; 331 20; 332 14; 333 11; 
334 4; 338 9; 339 3; 340 19; 341 8; 
342 46; 343 23; 344 29; 345 10; 346 24; 
349 3; 350 3; 352 15; 353 17; 354 50; 
355 28; 356 10; 357 12; 359 7; 366 4; 
368 44; 369 65; 370 121; 371 41; 372 48; 
373 10; 374 6; 377 5; 379 6; 385 64; 
387 733; 388 215; 389 36; 391 4; 
