Name: JWH-081-N-(cyclohexylmethyl) analog
Synon: [1-(Cyclohexylmethyl)-1H-indol-3-yl](4-methoxy-1-naphthalenyl)-methanone
InChIKey: LMENRXZOUBANKQ-UHFFFAOYSA-N
Formula: C27H27NO2
MW: 397
ExactMass: 397.20418
CASNO: 1373876346
ID: 3484
Comment: Provided by www.caymanchem.com/app/template/landing%2CForensic.vm / Item #14655  Lot #0452813
Num Peaks: 298
41 262; 42 13; 43 43; 44 4; 47 1; 
50 9; 51 12; 52 4; 53 41; 55 652; 
56 28; 57 3; 59 1; 61 6; 62 12; 
63 19; 64 3; 65 17; 66 5; 67 73; 
68 15; 69 37; 70 2; 73 24; 74 8; 
75 16; 76 15; 77 51; 78 14; 79 26; 
80 7; 81 29; 82 13; 83 20; 86 4; 
87 16; 88 29; 89 45; 90 6; 91 19; 
92 2; 93 6; 94 2; 95 18; 96 34; 
97 41; 98 5; 99 3; 100 7; 101 35; 
102 99; 103 37; 104 4; 105 3; 106 2; 
107 10; 108 6; 109 3; 110 1; 111 2; 
114 286; 115 95; 116 64; 117 31; 118 3; 
119 7; 121 21; 123 1; 125 6; 126 54; 
127 181; 128 198; 129 155; 130 83; 131 16; 
132 13; 133 9; 135 23; 136 22; 138 1; 
139 6; 140 10; 142 117; 143 58; 144 326; 
145 35; 146 5; 147 16; 149 9; 150 21; 
151 9; 152 8; 153 12; 154 40; 155 26; 
157 259; 158 81; 159 22; 161 6; 162 5; 
163 17; 164 6; 165 8; 166 10; 167 22; 
168 23; 169 19; 170 32; 171 41; 172 8; 
173 3; 174 3; 175 5; 176 12; 177 8; 
178 5; 179 5; 180 8; 181 5; 182 14; 
183 35; 185 861; 186 123; 187 18; 188 10; 
189 11; 191 28; 192 14; 193 4; 194 3; 
195 9; 197 304; 198 53; 200 34; 201 55; 
202 55; 203 25; 204 5; 205 4; 207 191; 
208 29; 209 29; 210 14; 211 26; 212 52; 
213 45; 214 26; 215 33; 216 13; 217 11; 
218 2; 219 3; 220 1; 221 7; 222 2; 
223 3; 224 4; 225 4; 226 19; 227 43; 
228 119; 229 40; 230 51; 231 12; 233 3; 
235 1; 236 2; 237 5; 238 14; 240 347; 
241 226; 242 114; 243 42; 244 12; 245 8; 
247 2; 249 2; 250 4; 251 4; 253 40; 
254 102; 255 33; 256 53; 257 74; 258 38; 
259 11; 260 3; 263 1; 264 1; 265 9; 
266 9; 267 6; 269 62; 270 150; 271 65; 
272 59; 273 10; 274 2; 275 2; 276 1; 
278 2; 279 4; 281 44; 282 33; 283 52; 
284 124; 285 133; 286 95; 287 22; 288 8; 
289 3; 291 1; 292 1; 294 2; 295 5; 
296 17; 297 19; 298 84; 299 65; 300 250; 
301 59; 302 24; 303 5; 304 1; 305 1; 
307 1; 309 2; 310 2; 311 5; 312 14; 
314 933; 315 233; 316 27; 317 7; 318 1; 
320 1; 321 1; 322 2; 325 4; 326 7; 
327 11; 328 8; 329 2; 331 10; 332 1; 
333 2; 335 1; 336 1; 337 1; 338 1; 
340 5; 341 5; 343 5; 344 4; 346 4; 
347 2; 348 6; 349 4; 350 2; 351 1; 
352 3; 353 2; 354 25; 355 10; 356 3; 
357 2; 360 2; 362 2; 364 5; 365 2; 
366 29; 367 10; 368 5; 369 13; 370 4; 
371 1; 374 1; 375 1; 376 3; 377 2; 
378 17; 380 206; 381 57; 382 87; 383 23; 
384 6; 386 1; 387 1; 388 1; 389 1; 
391 1; 392 2; 394 8; 397 999; 398 284; 
399 44; 400 10; 401 1; 
