Name: Myristicin
Synon: 1,3-Benzodioxole, 4-methoxy-6-(2-propenyl)-
Synon: Myristicine
InChIKey: BNWJOHGLIBDBOB-UHFFFAOYSA-N
Formula: C11H12O3
MW: 192
ExactMass: 192.078644
CASNO: 607910
ID: 3485
Comment: Provided by www.caymanchem.com/app/template/landing%2CForensic.vm / Item #15201  Lot #0452902
Num Peaks: 97
40 11; 41 32; 42 6; 43 7; 45 8; 
50 54; 51 70; 52 28; 53 81; 54 5; 
55 13; 56 1; 57 2; 58 1; 59 3; 
61 12; 62 40; 63 104; 64 61; 65 201; 
66 34; 67 11; 68 3; 69 12; 74 22; 
75 24; 76 32; 77 178; 78 65; 79 108; 
80 11; 81 5; 82 1; 83 1; 84 1; 
85 2; 86 5; 87 7; 89 88; 91 339; 
92 67; 93 30; 94 8; 95 9; 96 2; 
98 2; 99 1; 102 38; 103 114; 104 39; 
105 55; 106 13; 107 27; 108 7; 109 3; 
115 24; 116 31; 117 16; 119 238; 120 56; 
121 35; 122 17; 123 5; 129 3; 131 187; 
132 53; 133 158; 134 60; 135 30; 136 9; 
137 5; 138 1; 143 4; 144 10; 145 11; 
147 138; 148 21; 149 44; 150 12; 151 11; 
152 4; 159 3; 161 195; 162 34; 163 18; 
165 235; 166 26; 167 2; 173 1; 175 5; 
177 64; 178 8; 189 1; 192 999; 193 116; 
194 11; 195 1; 
