Name: Nitracaine
Synon: 3-(Diethylamino)-2,2-dimethylpropyl-4-nitrobenzoate
InChIKey: SPTIETJWCCCJSE-UHFFFAOYSA-N
Formula: C16H24N2O4
MW: 308
ExactMass: 308.173607
CASNO: 0
ID: 3487
Comment: Provided by www.caymanchem.com/app/template/landing%2CForensic.vm / Item #14900  Lot #0450972
Num Peaks: 86
41 97; 42 86; 43 23; 44 37; 45 2; 
46 4; 50 53; 51 13; 52 3; 53 15; 
54 12; 55 64; 56 177; 57 47; 58 253; 
59 9; 61 1; 62 2; 63 12; 64 17; 
65 22; 66 3; 67 4; 68 5; 69 23; 
70 24; 71 11; 72 50; 73 6; 74 21; 
75 48; 76 157; 77 25; 78 3; 79 1; 
80 1; 81 3; 82 9; 84 35; 86 999; 
87 224; 88 5; 89 1; 90 1; 92 58; 
93 7; 94 1; 96 4; 98 26; 99 2; 
100 4; 104 167; 105 17; 106 2; 109 1; 
110 3; 112 17; 113 7; 114 1; 115 1; 
120 33; 121 10; 122 5; 123 3; 124 4; 
126 26; 128 61; 129 6; 134 4; 137 1; 
139 1; 140 3; 142 9; 143 1; 150 149; 
151 13; 152 1; 158 1; 168 1; 236 1; 
277 3; 279 1; 291 3; 293 6; 307 6; 
308 2; 
