Name: ADB-FUBINACA
Synon: N-[1-(Aminocarbonyl)-2,2-dimethylpropyl]-1-[(4-fluorophenyl)methyl]-1H-indazole-3-carboxamide
Synon: N-(1-amino-3,3-dimethyl-1-oxobutan-2-yl)-1-(4-fluorobenzyl)-1H-indazole-3-carboxamide
InChIKey: ZSSGCSINPVBLQD-SFHVURJKSA-N
Formula: C21H23FN4O2
MW: 382
ExactMass: 382.180504
CASNO: 1445583516
ID: 3494
Comment: Provided by www.caymanchem.com/app/template/landing%2CForensic.vm / Item #14292  Lot #0451312 / SWGDRUG Monograph available
Num Peaks: 152
41 39; 42 7; 43 9; 44 38; 45 2; 
50 3; 51 5; 52 2; 53 2; 54 2; 
55 7; 56 10; 57 51; 58 4; 59 5; 
62 6; 63 9; 64 2; 65 1; 67 1; 
68 2; 69 7; 70 14; 71 4; 72 1; 
73 6; 74 2; 75 7; 76 7; 77 6; 
78 2; 81 2; 83 60; 84 10; 85 6; 
86 17; 87 4; 88 27; 89 20; 90 18; 
91 3; 94 1; 95 5; 96 6; 100 1; 
102 15; 103 10; 104 9; 105 10; 106 1; 
107 12; 109 999; 110 79; 111 3; 112 1; 
115 1; 116 2; 117 6; 118 5; 119 2; 
121 1; 122 4; 123 1; 127 1; 129 12; 
130 3; 131 16; 132 2; 133 1; 143 1; 
145 92; 146 8; 147 1; 151 1; 156 1; 
157 1; 158 1; 159 1; 160 1; 161 5; 
162 1; 165 1; 169 3; 170 5; 171 8; 
172 6; 173 5; 174 1; 175 1; 176 1; 
177 3; 178 1; 185 1; 186 3; 187 1; 
191 2; 192 1; 193 1; 194 3; 195 5; 
196 7; 197 6; 198 4; 199 5; 200 18; 
201 2; 205 3; 207 15; 208 4; 209 1; 
210 1; 211 1; 212 1; 214 4; 223 15; 
224 10; 225 19; 226 12; 227 2; 229 4; 
230 1; 237 1; 249 1; 251 6; 253 632; 
254 113; 255 11; 256 1; 265 1; 266 3; 
267 1; 269 1; 270 5; 281 3; 282 4; 
283 1; 291 3; 292 2; 309 51; 310 8; 
311 1; 322 2; 326 13; 327 3; 331 1; 
338 356; 339 81; 340 12; 341 1; 350 3; 
364 1; 367 1; 
