Name: CP 47,497-C6-homolog
Synon: cis-5-(1,1-Dimethylhexyl)-2-(3-hydroxycyclohexyl)-phenol
InChIKey: KQUGQXNYBWYGAI-DOTOQJQBSA-N
Formula: C20H32O2
MW: 304
ExactMass: 304.24023
CASNO: 70435062
ID: 3495
Comment: Provided by www.caymanchem.com/app/template/landing%2CForensic.vm / Item #9001448  Lot #448901
Num Peaks: 162
41 99; 43 120; 44 22; 45 2; 50 1; 
51 5; 52 2; 53 16; 55 53; 57 71; 
58 6; 62 1; 63 4; 64 2; 65 14; 
66 5; 67 16; 69 20; 71 35; 72 3; 
73 1; 75 1; 77 37; 78 11; 79 52; 
81 122; 82 8; 83 3; 84 1; 85 2; 
86 2; 87 1; 88 1; 89 5; 91 75; 
92 9; 93 13; 94 5; 95 12; 96 2; 
97 10; 98 1; 99 1; 100 1; 101 1; 
102 5; 103 20; 104 7; 105 38; 107 85; 
108 9; 109 4; 113 2; 115 51; 116 19; 
117 38; 118 8; 119 20; 120 13; 121 39; 
122 4; 123 3; 127 18; 128 40; 129 27; 
130 9; 131 44; 132 17; 133 90; 134 20; 
135 69; 136 8; 137 1; 139 2; 141 17; 
142 8; 143 11; 144 17; 145 46; 146 18; 
147 102; 148 50; 149 13; 150 3; 151 2; 
152 6; 153 7; 154 5; 155 8; 157 20; 
158 13; 159 37; 161 162; 162 32; 163 4; 
165 4; 166 2; 167 2; 168 2; 169 6; 
171 28; 172 20; 173 59; 174 18; 175 14; 
176 9; 177 2; 178 1; 179 1; 181 2; 
182 1; 183 3; 185 16; 187 57; 188 12; 
189 10; 190 4; 191 3; 195 1; 197 3; 
199 10; 201 32; 202 7; 203 15; 204 3; 
205 5; 206 2; 207 1; 209 2; 211 4; 
213 16; 215 999; 216 254; 217 39; 219 23; 
220 3; 227 1; 228 1; 229 2; 231 78; 
233 609; 234 103; 235 11; 243 7; 244 1; 
245 1; 246 1; 257 3; 258 3; 259 5; 
260 1; 271 4; 272 1; 284 2; 286 78; 
287 17; 288 2; 289 1; 302 10; 304 79; 
305 17; 306 2; 
