Name: Butyryl fentanyl
Synon: NIH 10486
Synon: N-phenyl-N-[1-(2-phenylethyl)-4-piperidinyl]-butanamide
Synon: N-(1-phenethylpiperidin-4-yl)-N-phenylbutyramide
InChIKey: QQOMYEQLWQJRKK-UHFFFAOYSA-N
Formula: C23H30N2O
MW: 350
ExactMass: 350.235813
CASNO: 1443523
ID: 3497
Comment: Provided by www.caymanchem.com/app/template/landing%2CForensic.vm / Item #14728  Lot #0450679 / SWGDRUG Monograph available
Num Peaks: 130
40 8; 41 103; 42 122; 43 227; 44 67; 
45 2; 50 8; 51 24; 52 9; 53 7; 
54 11; 55 30; 56 22; 57 13; 58 2; 
59 1; 61 1; 62 3; 63 15; 64 12; 
65 70; 66 21; 67 23; 68 31; 69 30; 
70 56; 71 136; 72 6; 73 3; 74 3; 
75 3; 77 165; 78 35; 79 55; 80 13; 
81 5; 82 25; 83 6; 84 12; 85 1; 
88 1; 89 11; 91 215; 92 49; 93 276; 
94 50; 95 22; 96 158; 97 21; 98 6; 
100 1; 101 2; 103 50; 104 83; 105 220; 
106 45; 107 4; 108 2; 111 1; 112 1; 
113 1; 115 9; 116 5; 117 34; 118 78; 
119 32; 120 15; 121 1; 127 1; 128 3; 
130 85; 131 58; 132 112; 133 20; 134 12; 
135 3; 139 13; 140 1; 141 1; 142 1; 
143 5; 144 17; 146 586; 147 68; 148 11; 
149 1; 154 1; 156 3; 157 4; 158 31; 
159 13; 160 27; 161 4; 163 41; 164 8; 
165 1; 168 1; 170 1; 171 1; 172 4; 
173 4; 174 1; 182 1; 184 11; 185 7; 
186 29; 187 25; 189 449; 190 63; 191 6; 
200 1; 207 3; 208 1; 216 54; 217 8; 
229 1; 230 5; 231 2; 253 2; 254 1; 
257 2; 259 999; 260 178; 261 17; 262 1; 
279 2; 280 1; 281 1; 348 4; 349 2; 
