Name: NNEI 2'-naphthyl isomer
Synon: MN-24 2'-naphthyl isomer
Synon: N-2-naphthalenyl-1-pentyl-1H-indole-3-carboxamide
InChIKey: LKGPFICOQRIBQC-UHFFFAOYSA-N
Formula: C24H24N2O
MW: 356
ExactMass: 356.188864
CASNO: 1338925124
ID: 3498
Comment: Provided by www.caymanchem.com/app/template/landing%2CForensic.vm / Item #14738  Lot #0450091
Num Peaks: 108
41 24; 43 43; 44 1; 50 1; 51 2; 
52 1; 53 2; 55 7; 62 3; 63 7; 
64 1; 65 4; 69 1; 71 2; 74 2; 
75 5; 76 6; 77 8; 78 3; 86 1; 
87 3; 88 9; 89 32; 90 5; 91 1; 
101 10; 102 26; 103 9; 104 1; 113 8; 
115 203; 116 83; 117 9; 118 1; 126 4; 
127 11; 128 24; 129 51; 130 23; 131 3; 
135 2; 136 1; 140 13; 141 8; 142 38; 
143 60; 144 218; 145 23; 146 1; 150 7; 
153 1; 154 4; 155 7; 156 8; 157 9; 
158 8; 159 1; 167 1; 168 2; 169 5; 
170 10; 171 2; 172 1; 178 5; 182 2; 
183 1; 184 4; 185 1; 186 4; 187 2; 
198 1; 202 1; 207 1; 210 1; 212 24; 
214 999; 215 150; 216 13; 217 1; 227 1; 
228 1; 229 1; 230 1; 240 1; 241 1; 
242 1; 253 1; 254 2; 255 3; 256 3; 
257 2; 266 1; 267 2; 268 1; 269 2; 
270 1; 271 1; 281 1; 284 2; 285 7; 
286 1; 299 2; 327 3; 328 1; 354 2; 
356 106; 357 26; 358 4; 
