Name: Buphedrone metabolite
Synon: MABP metabolite
Synon: .alpha.-Methylamino-butyrophenone metabolite
InChIKey: ROPFLNLFWBUBCT-WDEREUQCSA-N
Formula: C11H17NO
MW: 179
ExactMass: 179.131014
CASNO: 1246817968
ID: 3500
Comment: Provided by www.caymanchem.com/app/template/landing%2CForensic.vm / Item #9001438  Lot #0448725
Num Peaks: 69
40 4; 41 29; 42 75; 43 8; 44 30; 
45 1; 50 16; 51 37; 52 12; 53 6; 
54 5; 55 6; 56 28; 57 57; 58 17; 
61 1; 62 4; 63 12; 64 4; 65 15; 
66 3; 67 1; 68 5; 70 44; 72 999; 
73 51; 74 10; 75 6; 77 154; 78 39; 
79 53; 80 3; 84 1; 85 2; 86 1; 
87 2; 89 14; 91 71; 92 7; 102 5; 
103 9; 105 64; 106 40; 107 13; 108 1; 
115 31; 116 11; 117 74; 118 13; 119 3; 
120 1; 127 3; 128 6; 129 4; 130 7; 
131 13; 132 47; 133 8; 134 2; 144 3; 
145 1; 146 12; 147 2; 148 1; 150 3; 
158 1; 160 25; 161 7; 162 1; 
