Name: 5-Fluoro-MN-18
Synon: 1-(5-Fluoropentyl)-N-1-naphthalenyl-1H-indazole-3-carboxamide
Synon: 5F-MN-18
InChIKey: XBSWUIWDRFCAGZ-UHFFFAOYSA-N
Formula: C23H22FN3O
MW: 375
ExactMass: 375.17469
CASNO: 1445581918
ID: 3502
Comment: Provided by www.caymanchem.com/app/template/landing%2CForensic.vm / Item #14816  Lot #0452997 / SWGDRUG Monograph available
Num Peaks: 187
41 85; 42 6; 43 24; 44 1; 45 1; 
47 22; 50 5; 51 11; 52 3; 53 6; 
54 1; 55 13; 56 1; 57 1; 58 1; 
59 10; 60 1; 61 6; 62 11; 63 22; 
64 9; 65 13; 66 1; 67 8; 69 70; 
70 3; 71 1; 72 1; 73 6; 74 5; 
75 16; 76 26; 77 47; 78 7; 79 1; 
85 1; 86 3; 87 8; 88 45; 89 69; 
90 130; 91 15; 92 3; 98 1; 99 1; 
100 1; 101 9; 102 47; 103 107; 104 28; 
105 4; 106 1; 109 1; 113 17; 114 45; 
115 337; 116 53; 117 60; 118 11; 119 2; 
121 4; 122 3; 123 1; 126 17; 127 54; 
128 18; 129 45; 130 30; 131 62; 132 8; 
133 3; 135 6; 140 54; 141 33; 142 120; 
143 83; 145 630; 146 57; 147 5; 148 1; 
150 23; 152 2; 153 3; 154 4; 155 5; 
156 11; 157 8; 158 6; 159 3; 160 1; 
163 1; 165 2; 166 1; 167 1; 168 3; 
169 37; 170 13; 171 17; 172 3; 173 2; 
174 1; 175 1; 177 90; 178 11; 181 1; 
182 1; 183 2; 184 1; 185 10; 186 2; 
188 3; 189 1; 191 2; 193 2; 195 2; 
197 1; 199 4; 200 2; 201 3; 202 6; 
203 3; 204 1; 205 1; 207 29; 208 7; 
209 5; 211 1; 213 128; 214 20; 215 7; 
216 2; 217 1; 219 1; 227 3; 228 6; 
229 4; 231 14; 233 999; 234 147; 235 13; 
240 1; 241 1; 242 2; 243 2; 244 2; 
253 7; 254 1; 255 3; 256 3; 257 3; 
258 1; 265 1; 267 2; 268 1; 269 2; 
270 3; 271 1; 272 2; 281 5; 282 3; 
283 2; 284 1; 285 1; 286 6; 287 1; 
300 7; 301 2; 315 1; 327 1; 329 1; 
331 2; 332 1; 333 1; 341 2; 342 1; 
343 1; 346 1; 347 1; 355 8; 356 3; 
357 2; 359 1; 373 2; 375 543; 376 144; 
377 18; 378 2; 
