Name: AM2201 8-quinolinyl carboxamide
Synon: 1-(5-Fluoropentyl)-N-(quinolin-8-yl)-1H-indole-3-carboxamide
InChIKey: FIWJUBZDMCCWRU-UHFFFAOYSA-N
Formula: C23H22FN3O
MW: 375
ExactMass: 375.17469
CASNO: 0
ID: 3506
Comment: Provided by www.caymanchem.com/app/template/landing%2CForensic.vm / Item #14892  Lot #0451505 / SWGDRUG Monograph available
Num Peaks: 178
40 5; 41 47; 42 2; 43 18; 45 3; 
47 12; 49 1; 50 1; 51 3; 52 2; 
53 4; 54 1; 55 4; 59 6; 60 1; 
61 3; 62 5; 63 11; 64 4; 65 3; 
66 1; 67 2; 69 12; 70 1; 72 1; 
73 11; 74 3; 75 7; 76 6; 77 14; 
78 5; 80 1; 86 1; 87 3; 88 12; 
89 39; 90 12; 91 6; 96 2; 97 1; 
101 17; 102 32; 103 8; 104 2; 105 1; 
114 18; 115 41; 116 137; 117 24; 118 5; 
119 2; 121 2; 122 2; 127 5; 128 35; 
129 45; 130 30; 131 5; 132 1; 133 7; 
135 13; 137 14; 140 1; 141 4; 142 23; 
143 63; 144 243; 145 27; 146 3; 147 4; 
148 1; 149 12; 151 2; 153 1; 154 7; 
155 14; 156 7; 157 10; 158 6; 162 1; 
165 1; 166 1; 167 3; 168 3; 169 2; 
170 23; 171 36; 172 4; 173 15; 175 1; 
176 2; 177 2; 178 2; 179 3; 182 2; 
183 2; 184 4; 185 2; 186 1; 187 1; 
191 1; 193 2; 195 1; 196 1; 198 2; 
200 1; 202 1; 203 1; 205 14; 207 25; 
208 5; 209 5; 210 6; 211 1; 212 13; 
213 2; 214 2; 215 1; 216 1; 223 2; 
228 1; 229 4; 230 19; 232 999; 233 148; 
234 11; 238 1; 239 2; 240 2; 241 1; 
242 1; 243 1; 245 1; 253 7; 254 5; 
255 3; 256 5; 257 7; 258 30; 259 6; 
260 1; 265 1; 267 2; 268 1; 269 2; 
270 3; 271 1; 272 1; 274 1; 279 1; 
281 10; 283 4; 285 2; 286 1; 287 1; 
300 4; 301 1; 315 1; 325 1; 326 1; 
327 3; 328 1; 329 2; 331 4; 332 1; 
333 1; 339 1; 341 2; 342 1; 343 1; 
347 1; 355 2; 356 1; 373 1; 375 141; 
376 29; 377 3; 378 1; 
