Name: 2,5-DMMA
Synon: 2,5-Dimethoxymethamphetamine
InChIKey: RSDBPMOXIPCTPN-UHFFFAOYSA-N
Formula: C12H19NO2
MW: 209
ExactMass: 209.141579
CASNO: 54687433
ID: 3509
Comment: Provided by www.caymanchem.com/app/template/landing%2CForensic.vm / Item #15131  Lot #0452089
Num Peaks: 93
40 3; 41 11; 42 28; 43 14; 44 5; 
50 6; 51 18; 52 8; 53 9; 54 7; 
55 15; 56 51; 58 999; 59 43; 61 1; 
62 3; 63 12; 65 47; 66 9; 67 6; 
68 2; 69 1; 70 1; 71 1; 72 1; 
74 3; 75 3; 77 55; 78 44; 79 24; 
80 5; 81 3; 82 3; 87 1; 89 13; 
91 57; 92 11; 93 11; 94 7; 95 3; 
97 2; 102 2; 103 9; 104 4; 105 11; 
106 10; 107 8; 108 25; 109 5; 115 4; 
116 1; 117 3; 118 4; 119 4; 121 60; 
122 8; 123 10; 124 1; 130 1; 131 4; 
132 3; 133 3; 134 3; 135 7; 136 13; 
137 28; 138 6; 145 1; 146 2; 147 6; 
148 5; 149 11; 150 7; 151 34; 152 157; 
153 16; 154 1; 160 1; 161 3; 162 14; 
163 7; 164 12; 165 1; 176 8; 177 5; 
178 9; 179 7; 180 1; 194 7; 195 1; 
208 2; 209 1; 210 2; 
