Name: 4-DAMP
InChIKey: HVLMWCBEAXEKAD-UHFFFAOYSA-N
Synon: 4-Diphenylacetoxy-N-methyl-piperidine
Formula: C20H23NO2
MW: 309
ExactMass: 309.172878
CASNO: 97762237
ID: 3519
Comment: Provided by www.caymanchem.com/app/template/landing%2CForensic.vm / Item #14574  Lot #0449101 / Provided as methiodide salt
Num Peaks: 99
40 4; 41 22; 42 123; 43 52; 44 80; 
45 2; 50 5; 51 13; 52 5; 53 13; 
55 182; 56 23; 57 53; 58 15; 59 1; 
62 4; 63 15; 64 3; 65 12; 66 3; 
67 10; 68 28; 69 21; 70 133; 71 27; 
72 8; 73 2; 74 4; 75 5; 76 7; 
77 16; 78 7; 79 8; 80 10; 81 21; 
82 167; 83 27; 84 4; 85 2; 86 7; 
87 6; 88 3; 89 19; 90 6; 91 7; 
92 1; 94 32; 96 999; 97 387; 98 654; 
99 42; 100 2; 101 2; 102 7; 103 1; 
105 4; 111 1; 112 4; 113 8; 114 95; 
115 49; 116 5; 118 1; 126 7; 127 8; 
128 22; 129 3; 133 1; 137 2; 139 34; 
140 5; 141 10; 142 2; 150 3; 151 23; 
152 191; 153 28; 154 2; 163 32; 165 485; 
166 175; 167 321; 168 43; 169 2; 174 8; 
175 1; 178 1; 179 1; 180 1; 181 2; 
182 1; 194 16; 195 2; 207 4; 253 1; 
281 2; 309 180; 310 42; 311 6; 
