Name: Cannabidiolic Acid
Synon: CBDA
Synon: .beta.-Resorcylic Acid
Synon: 2,4-Dihydroxy-3-[(1R,6R)-3-methyl-6-(1-methylethenyl)-2-cyclohexen-1-yl]-6-pentyl-benzoic acid
InChIKey: WVOLTBSCXRRQFR-DLBZAZTESA-N
Formula: C22H30O4
MW: 358
ExactMass: 358.214409
CASNO: 1244582
ID: 3521
Comment: Provided by www.caymanchem.com/app/template/landing%2CForensic.vm / Item #14028  Lot #0443284
Num Peaks: 182
40 8; 41 52; 42 6; 43 33; 44 1; 
50 1; 51 5; 53 24; 55 28; 56 2; 
57 4; 63 2; 65 15; 66 7; 67 59; 
68 57; 69 17; 70 1; 71 3; 75 1; 
77 34; 78 10; 79 28; 80 5; 81 12; 
82 2; 83 2; 89 4; 91 52; 92 8; 
93 15; 94 4; 95 6; 96 1; 101 2; 
102 3; 103 11; 104 4; 105 23; 106 6; 
107 28; 108 22; 109 9; 110 1; 115 29; 
116 9; 117 13; 118 3; 119 19; 120 21; 
121 55; 122 8; 123 12; 124 4; 126 2; 
127 10; 128 27; 129 15; 130 4; 131 18; 
132 6; 133 10; 134 10; 135 5; 136 6; 
137 10; 138 2; 139 2; 141 13; 142 5; 
143 6; 144 7; 145 14; 146 7; 147 31; 
148 7; 149 8; 150 4; 151 2; 152 13; 
153 7; 154 3; 155 4; 156 2; 157 10; 
158 6; 159 23; 160 15; 161 22; 162 4; 
163 3; 164 2; 165 11; 166 5; 167 3; 
168 2; 169 3; 170 2; 171 9; 172 8; 
173 24; 174 103; 175 55; 176 8; 177 3; 
178 3; 179 3; 180 4; 181 6; 182 4; 
183 4; 184 2; 185 5; 187 31; 188 10; 
189 15; 190 15; 191 5; 193 64; 194 12; 
195 12; 196 2; 197 4; 198 2; 199 6; 
200 4; 201 12; 202 5; 203 4; 204 1; 
205 1; 206 9; 207 25; 208 10; 209 2; 
210 1; 211 2; 212 1; 213 7; 214 3; 
215 6; 216 2; 217 7; 218 3; 219 5; 
220 1; 221 1; 223 1; 224 1; 225 1; 
226 1; 227 2; 229 41; 231 999; 232 158; 
233 24; 234 2; 241 1; 243 12; 244 4; 
246 113; 247 19; 248 2; 255 1; 257 7; 
258 12; 259 9; 260 1; 269 1; 271 19; 
272 4; 273 1; 281 1; 283 1; 285 2; 
286 4; 297 2; 299 20; 300 4; 314 47; 
315 9; 316 1; 
