Name: Methyl-1-pentyl-1H-indole-3-carboxylate
Synon: 1-Pentyl-1H-indole-3-carboxylic acid, methyl ester
InChIKey: FMSUKWLGFFSMTP-UHFFFAOYSA-N
Formula: C15H19NO2
MW: 245
ExactMass: 245.141579
CASNO: 1338925204
ID: 3522
Comment: Provided by www.caymanchem.com/app/template/landing%2CForensic.vm / Item #14676  Lot #0449600
Num Peaks: 112
41 83; 42 12; 43 47; 44 4; 45 3; 
50 6; 51 14; 52 5; 53 8; 54 2; 
55 16; 56 6; 57 2; 59 38; 60 1; 
61 3; 62 15; 63 23; 64 7; 65 8; 
66 1; 67 2; 68 1; 69 10; 70 1; 
71 1; 74 9; 75 30; 76 32; 77 42; 
78 12; 85 1; 86 4; 87 12; 88 29; 
89 68; 90 22; 91 18; 92 2; 95 1; 
98 1; 99 1; 101 52; 102 95; 103 62; 
104 12; 105 3; 108 1; 114 32; 115 118; 
116 108; 117 50; 118 16; 119 1; 128 166; 
129 167; 130 370; 131 51; 132 11; 133 1; 
139 1; 140 5; 141 6; 142 23; 143 111; 
144 279; 145 51; 146 49; 147 5; 152 1; 
154 19; 155 10; 156 44; 157 24; 158 25; 
159 6; 160 10; 161 2; 167 4; 168 5; 
170 55; 171 9; 172 7; 174 28; 175 19; 
176 6; 177 2; 182 2; 184 32; 186 140; 
188 999; 189 247; 190 33; 191 3; 196 1; 
198 3; 200 4; 201 5; 202 15; 203 3; 
212 17; 214 339; 215 56; 216 36; 217 5; 
228 1; 230 45; 231 7; 245 670; 246 106; 
247 11; 248 1; 
