Name: trans-Anethole
Synon: Benzene, 1-methoxy-4-(1-propenyl)-
Synon: Anisole, p-propenyl-
Synon: p-(1-Propenyl)anisole
Synon: p-Methoxy-.beta.-methylstyrene
Synon: p-Propenylanisole
Synon: p-Propenylphenyl methyl ether
Synon: Anethol
Synon: Anise camphor
Synon: Aniskampfer
Synon: Isoestragole
Synon: Methoxy-4-propenylbenzene
Synon: Oil of aniseed
Synon: 1-Methoxy-4-(1-propenyl)benzene
Synon: 1-Methoxy-4-propenylbenzene
Synon: 1-Propene, 1-(4-methoxyphenyl)-
Synon: 4-Methoxy-1-propenylbenzene
Synon: 4-Methoxypropenylbenzene
Synon: 4-Propenylanisole
Synon: Propene, 1-(p-methoxyphenyl)-
Synon: 1-(p-Methoxyphenyl)propene
Synon: Monasirup
Synon: 4-(1-Propenyl)anisole
Synon: Benzene, 1-methoxy-4-(1-propen-1-yl)-
Synon: p-1-Propenylanisole
Synon: p-Anethole
InChIKey: RUVINXPYWBROJD-ONEGZZNKSA-N
Formula: C10H12O
MW: 148
ExactMass: 148.088815
CASNO: 4180238
ID: 3523
Comment: DEA SWL
Num Peaks: 83
37 2; 38 10; 39 60; 40 5; 41 15; 
42 1; 43 3; 45 1; 49 2; 50 46; 
51 97; 52 33; 53 32; 54 2; 55 46; 
56 1; 57 3; 61 7; 62 28; 63 87; 
64 26; 65 72; 66 9; 67 2; 69 1; 
73 4; 74 40; 75 28; 76 33; 77 305; 
78 129; 79 191; 80 12; 81 1; 85 2; 
86 8; 87 10; 88 4; 89 68; 90 21; 
91 195; 92 27; 93 19; 94 2; 95 1; 
98 3; 99 1; 101 5; 102 49; 103 213; 
104 62; 105 284; 106 27; 107 21; 108 7; 
109 1; 110 1; 113 3; 114 4; 115 215; 
116 82; 117 329; 118 42; 119 24; 120 4; 
121 183; 122 17; 123 1; 127 2; 128 3; 
129 3; 130 3; 131 51; 132 42; 133 251; 
134 25; 135 1; 145 5; 146 10; 147 537; 
148 999; 149 108; 150 7; 
