Name: 4-Methoxyphenylacetone
Synon: 2-Propanone, 1-(p-methoxyphenyl)-
Synon: p-Acetonylanisole
Synon: p-Methoxybenzyl methyl ketone
Synon: Anisketone
Synon: Anisyl methyl ketone
Synon: 1-(p-Methoxyphenyl)-2-propanone
Synon: 1-(4-Methoxyphenyl)-2-propanone
Synon: p-Methoxyphenylacetone
Synon: 4-Methoxybenzyl methyl ketone
Synon: Anisic ketone
Synon: 1-(p-Anisyl)-2-propanone
Synon: 2-Propanone, (p-methoxyphenyl)-
Synon: 4'-Methoxyphenyl-2-propanone
Synon: p-Anisylacetone
InChIKey: WFWKNGZODAOLEO-UHFFFAOYSA-N
Formula: C10H12O2
MW: 164
ExactMass: 164.08373
CASNO: 122849
ID: 3525
Comment: DEA SWL
Num Peaks: 63
37 1; 38 6; 39 30; 40 3; 41 11; 
42 6; 43 119; 44 2; 49 1; 50 29; 
51 77; 52 60; 53 21; 54 2; 55 9; 
61 4; 62 16; 63 46; 64 15; 65 43; 
66 4; 67 4; 73 1; 74 9; 75 7; 
76 11; 77 217; 78 229; 79 28; 80 3; 
81 1; 85 1; 86 3; 87 3; 88 1; 
89 57; 90 27; 91 137; 92 15; 93 4; 
95 1; 102 3; 103 8; 104 1; 105 14; 
106 28; 107 20; 108 1; 115 1; 118 2; 
119 3; 120 7; 121 999; 122 181; 123 11; 
131 1; 133 4; 134 1; 135 2; 148 1; 
164 208; 165 21; 166 1; 
