Name: JWH-208
Synon: 2-(4-methylphenyl)-1-(1-pentyl-1H-indol-3-yl)-ethanone
Synon: JWH-251 4-methyl isomer
Synon: JWH-251 4-methylphenyl isomer
InChIKey: GSVYYNBRAJBCQS-UHFFFAOYSA-N
Formula: C22H25NO
MW: 319
ExactMass: 319.193615
CASNO: 864445410
ID: 3526
Comment: Provided by www.caymanchem.com/app/template/landing%2CForensic.vm / Item #9001022  Lot #0431194
Num Peaks: 82
41 15; 43 26; 44 1; 51 3; 52 1; 
53 2; 55 4; 62 1; 63 3; 65 2; 
69 1; 75 3; 76 3; 77 18; 78 6; 
79 10; 87 1; 88 3; 89 18; 90 3; 
91 2; 101 6; 102 20; 103 17; 104 5; 
105 42; 106 4; 114 5; 115 22; 116 52; 
117 7; 118 1; 119 2; 127 2; 128 17; 
129 30; 130 20; 131 2; 140 1; 141 1; 
142 2; 143 23; 144 175; 145 18; 146 1; 
154 2; 155 1; 156 5; 157 6; 158 7; 
165 1; 167 1; 168 1; 170 7; 171 1; 
176 1; 178 1; 184 3; 185 1; 186 1; 
189 2; 190 1; 191 1; 198 1; 202 1; 
203 1; 204 4; 205 2; 212 5; 214 999; 
215 157; 216 16; 217 5; 218 3; 219 1; 
220 1; 230 1; 232 1; 246 1; 262 2; 
319 15; 320 3; 
