Name: UR-144 by-product
InChIKey: IFVDPUICCRWLND-UHFFFAOYSA-N
Formula: C21H29NO
MW: 311
ExactMass: 311.224915
CASNO: 0
ID: 3529
Comment: DEA SWL / characterized in Drug Testing and Analysis (2013) by Kavanagh et al
Num Peaks: 173
39 13; 40 2; 41 56; 42 5; 43 81; 
44 3; 50 1; 51 3; 52 1; 53 13; 
54 1; 55 34; 56 1; 57 8; 58 1; 
59 11; 62 1; 63 5; 64 1; 65 5; 
66 1; 67 7; 69 8; 70 1; 71 1; 
75 3; 76 3; 77 12; 78 2; 79 16; 
80 2; 81 65; 82 5; 83 10; 87 2; 
88 4; 89 14; 90 5; 91 5; 92 1; 
93 1; 95 6; 96 2; 97 3; 98 1; 
101 6; 102 15; 103 8; 104 3; 105 1; 
106 1; 109 71; 110 8; 111 1; 112 17; 
114 7; 115 31; 116 25; 117 17; 118 16; 
120 14; 123 1; 125 6; 126 4; 127 13; 
128 24; 129 23; 130 66; 131 12; 132 9; 
133 1; 134 1; 138 1; 139 12; 140 8; 
141 9; 142 11; 143 18; 144 51; 145 6; 
148 3; 150 1; 151 4; 152 17; 153 8; 
154 28; 155 11; 156 16; 157 6; 158 5; 
159 1; 163 1; 164 2; 165 6; 166 19; 
167 86; 168 44; 169 7; 170 9; 171 2; 
172 2; 173 1; 177 1; 178 7; 179 6; 
180 57; 181 33; 182 46; 183 13; 184 7; 
185 4; 186 4; 187 20; 188 25; 189 4; 
191 4; 192 5; 193 6; 194 27; 195 12; 
196 29; 197 6; 198 6; 199 1; 200 3; 
204 1; 205 1; 206 2; 207 2; 208 6; 
209 5; 210 51; 211 14; 212 8; 213 1; 
214 21; 215 3; 220 1; 222 3; 223 2; 
224 40; 225 13; 226 5; 228 1; 229 1; 
236 1; 237 2; 238 23; 239 12; 240 3; 
250 1; 251 1; 252 47; 253 14; 254 10; 
255 1; 266 3; 267 1; 268 8; 269 1; 
280 2; 281 36; 282 8; 283 1; 293 1; 
294 9; 296 999; 297 220; 298 25; 299 1; 
311 160; 312 40; 313 5; 
