Name: Dihydro-.alpha.-PPP
Synon: Dihydro-.alpha.-Pyrrolidinopropiophenone
InChIKey: FZVHJGJBJLFWEX-UHFFFAOYSA-N
Formula: C13H19NO
MW: 205
ExactMass: 205.146665
CASNO: 0
ID: 3532
Comment: DEA SWL / SWGDRUG Monograph available
Num Peaks: 73
37 1; 38 3; 39 20; 40 4; 41 44; 
42 34; 43 21; 44 27; 45 1; 49 1; 
50 14; 51 36; 52 11; 53 10; 54 34; 
55 51; 56 128; 57 10; 58 1; 62 1; 
63 5; 64 1; 65 5; 66 1; 67 2; 
68 17; 69 47; 70 23; 71 2; 72 1; 
73 1; 74 4; 75 2; 76 2; 77 77; 
78 18; 79 24; 80 2; 81 1; 82 1; 
84 15; 85 1; 89 4; 90 1; 91 16; 
92 1; 93 1; 94 4; 95 1; 96 33; 
97 40; 98 999; 99 62; 100 2; 102 1; 
103 3; 104 2; 105 36; 106 26; 107 5; 
110 1; 115 10; 116 3; 117 12; 118 6; 
120 1; 128 1; 130 1; 133 1; 134 1; 
160 5; 186 1; 187 2; 
