Name: 2-Chloroamphetamine
Synon: 2-CA
Synon: o-CA
InChIKey: IQHHOHJDIZRBGM-UHFFFAOYSA-N
Formula: C9H12ClN
MW: 169
ExactMass: 169.065827
CASNO: 35334293
ID: 3541
Comment: Provided by www.caymanchem.com/app/template/landing%2CForensic.vm / Item #9001854  Lot #0455606
Num Peaks: 82
40 8; 41 19; 42 69; 44 999; 45 23; 
47 1; 49 4; 50 19; 51 26; 52 7; 
53 3; 54 3; 56 3; 57 3; 59 27; 
60 8; 61 7; 62 26; 63 81; 64 20; 
65 33; 67 1; 70 1; 73 20; 74 16; 
75 31; 76 9; 77 26; 78 6; 79 4; 
80 2; 84 2; 85 5; 86 11; 87 11; 
89 161; 90 48; 91 74; 92 9; 93 2; 
96 1; 97 2; 99 45; 100 3; 101 18; 
102 8; 103 5; 104 4; 105 2; 106 3; 
111 1; 112 2; 113 3; 114 3; 115 33; 
116 14; 117 36; 118 32; 119 19; 120 1; 
123 1; 125 120; 126 13; 127 41; 128 3; 
129 1; 130 6; 131 2; 132 9; 133 3; 
134 2; 137 1; 138 1; 150 1; 151 1; 
152 3; 154 33; 155 4; 156 9; 168 10; 
169 1; 170 2; 
