Name: 4-Bromoamphetamine
Synon: 4-BA
Synon: p-BA
InChIKey: SMNXUMMCCOZPPN-UHFFFAOYSA-N
Formula: C9H12BrN
MW: 213
ExactMass: 213.015311
CASNO: 58400887
ID: 3542
Comment: Provided by www.caymanchem.com/app/template/landing%2CForensic.vm / Item #9001850  Lot #0455602
Num Peaks: 82
40 8; 41 16; 42 67; 44 999; 45 26; 
50 20; 51 20; 52 4; 53 2; 54 4; 
56 3; 57 3; 59 17; 60 14; 61 5; 
62 26; 63 64; 64 25; 65 27; 67 1; 
68 1; 73 2; 74 13; 75 16; 76 13; 
77 12; 78 6; 79 5; 80 10; 81 6; 
82 7; 84 1; 85 3; 86 7; 87 10; 
89 130; 90 119; 91 72; 92 9; 93 1; 
98 1; 99 4; 100 2; 101 2; 102 6; 
103 2; 104 4; 106 2; 113 1; 115 22; 
116 16; 117 22; 118 18; 119 27; 120 1; 
128 1; 130 3; 131 2; 132 3; 133 3; 
135 1; 143 3; 145 4; 155 1; 156 1; 
157 1; 169 44; 170 9; 171 46; 172 6; 
182 2; 183 1; 184 1; 196 1; 197 2; 
198 10; 199 2; 200 8; 211 1; 212 3; 
213 1; 214 3; 
