Name: 3-Bromoamphetamine
Synon: 3-BA
Synon: m-BA
InChIKey: ATRSAWXXYCBXLI-UHFFFAOYSA-N
Formula: C9H12BrN
MW: 213
ExactMass: 213.015311
CASNO: 1210708614
ID: 3543
Comment: Provided by www.caymanchem.com/app/template/landing%2CForensic.vm / Item #9001849  Lot #0455601
Num Peaks: 81
40 9; 41 17; 42 66; 44 999; 45 25; 
47 1; 49 2; 50 22; 51 20; 52 6; 
53 2; 54 3; 56 2; 57 4; 59 17; 
60 7; 61 7; 62 25; 63 61; 64 22; 
65 25; 66 4; 74 15; 75 20; 76 11; 
77 16; 78 5; 79 6; 80 13; 81 4; 
82 8; 85 3; 86 8; 87 6; 89 130; 
90 115; 91 71; 92 10; 93 1; 99 4; 
100 3; 101 2; 102 5; 103 4; 104 4; 
105 2; 106 3; 107 1; 113 1; 115 23; 
116 13; 117 23; 118 19; 119 33; 120 2; 
128 1; 129 1; 130 5; 131 2; 132 5; 
133 3; 143 4; 145 3; 155 1; 157 2; 
158 1; 169 41; 170 7; 171 42; 172 8; 
182 1; 184 2; 196 3; 197 2; 198 10; 
200 9; 207 1; 211 1; 212 3; 213 1; 
214 4; 
