Name: 2-Bromoamphetamine
Synon: 2-BA
Synon: o-BA
InChIKey: VGJBPBDFJNFFRO-UHFFFAOYSA-N
Formula: C9H12BrN
MW: 213
ExactMass: 213.015311
CASNO: 861006362
ID: 3544
Comment: Provided by www.caymanchem.com/app/template/landing%2CForensic.vm / Item #9001848  Lot #0455600
Num Peaks: 72
40 10; 41 18; 42 71; 44 999; 45 27; 
46 1; 50 21; 51 23; 52 6; 53 2; 
54 2; 56 2; 57 2; 59 22; 60 8; 
61 8; 62 29; 63 77; 64 29; 65 35; 
67 1; 73 1; 74 17; 75 17; 76 12; 
77 18; 78 8; 79 8; 80 11; 81 3; 
82 7; 85 3; 86 9; 87 9; 89 161; 
90 132; 91 81; 92 13; 93 5; 94 1; 
98 1; 99 4; 100 1; 101 2; 102 8; 
103 4; 104 7; 105 2; 106 4; 113 2; 
115 32; 116 12; 117 27; 118 27; 119 25; 
120 2; 128 1; 130 6; 131 3; 132 10; 
133 3; 134 2; 143 4; 145 4; 169 45; 
171 44; 172 7; 198 12; 200 12; 201 1; 
212 4; 214 4; 
