Name: AB-PINACA N-(4-fluoropentyl) isomer
Synon: 4-Fluoro-AB-PINACA
Synon: N-(1-amino-3-methyl-1-oxobutan-2-yl)-1-(4-fluoropentyl)-1H-indazole-3-carboxamide
Synon: 4F-AB-PINACA
InChIKey: KSBISSAWUAIQIT-UHFFFAOYSA-N
Formula: C18H25FN4O2
MW: 348
ExactMass: 348.196154
CASNO: 0
ID: 3545
Comment: Provided by www.caymanchem.com/app/template/landing%2CForensic.vm / Item #15441  Lot #0454826
Num Peaks: 148
41 75; 42 11; 43 34; 44 81; 45 6; 
47 41; 48 1; 50 2; 51 5; 52 3; 
53 7; 54 5; 55 35; 56 18; 57 8; 
58 1; 59 9; 60 1; 61 4; 62 6; 
63 8; 64 3; 65 4; 67 7; 69 67; 
70 17; 71 21; 72 38; 73 10; 74 1; 
75 9; 76 19; 77 29; 78 4; 79 1; 
82 1; 83 3; 84 1; 85 1; 86 1; 
87 8; 88 40; 89 38; 90 78; 91 9; 
92 2; 98 5; 99 1; 100 1; 102 44; 
103 105; 104 31; 105 3; 107 1; 114 2; 
115 8; 116 10; 117 42; 118 10; 119 2; 
121 2; 127 2; 128 7; 129 45; 130 37; 
131 96; 132 13; 133 2; 134 1; 135 2; 
142 6; 143 13; 145 369; 146 36; 147 3; 
149 1; 154 2; 155 4; 156 6; 157 9; 
158 10; 159 4; 160 2; 161 3; 162 1; 
167 1; 168 2; 169 4; 171 26; 172 7; 
173 2; 174 15; 175 3; 177 47; 178 5; 
182 1; 183 2; 185 20; 186 7; 187 2; 
189 2; 190 1; 191 1; 197 1; 198 1; 
199 1; 200 4; 201 2; 202 1; 203 1; 
204 1; 210 1; 211 3; 213 115; 214 24; 
215 6; 216 6; 217 3; 225 1; 227 1; 
228 6; 229 2; 231 15; 233 999; 234 152; 
235 11; 249 5; 250 1; 255 1; 256 1; 
268 1; 273 2; 282 1; 284 36; 285 7; 
286 2; 287 1; 288 4; 289 2; 302 4; 
304 515; 305 99; 306 11; 330 1; 331 1; 
333 1; 341 1; 348 2; 
