Name: 5-Chloro-AB-PINACA
Synon: N-(1-amino-3-methyl-1-oxobutan-2-yl)-1-(5-chloropentyl)-1H-indazole-3-carboxamide
Synon: 5-Cl-AB-PINACA
InChIKey: VUPMALPMUYUYES-UHFFFAOYSA-N
Formula: C18H25ClN4O2
MW: 364
ExactMass: 364.166603
CASNO: 0
ID: 3548
Comment: Provided by www.caymanchem.com/app/template/landing%2CForensic.vm / Item #9001857  Lot #0453564
Num Peaks: 219
41 124; 42 19; 43 58; 44 110; 45 7; 
46 1; 49 6; 50 2; 51 10; 52 3; 
53 9; 54 7; 55 59; 56 24; 57 11; 
58 2; 59 2; 61 2; 62 7; 63 25; 
64 3; 65 13; 66 2; 67 15; 68 9; 
69 81; 70 22; 71 33; 72 57; 73 13; 
74 3; 75 12; 76 25; 77 39; 78 7; 
79 2; 80 4; 81 1; 82 6; 83 4; 
84 1; 85 1; 86 4; 87 4; 88 42; 
89 40; 90 90; 91 16; 92 3; 93 1; 
95 1; 96 3; 98 5; 99 2; 100 2; 
102 46; 103 133; 104 42; 105 6; 107 1; 
108 1; 114 2; 115 11; 116 13; 117 47; 
118 20; 119 3; 122 1; 127 4; 128 7; 
129 54; 130 51; 131 163; 132 22; 133 6; 
134 1; 135 1; 137 1; 140 1; 141 2; 
142 7; 143 11; 145 472; 146 45; 147 6; 
148 1; 149 1; 153 1; 154 2; 155 5; 
156 10; 157 16; 158 18; 159 6; 160 5; 
161 3; 162 1; 163 2; 164 1; 165 5; 
166 1; 167 3; 168 3; 169 3; 171 32; 
172 9; 174 24; 175 15; 176 2; 177 3; 
178 1; 179 1; 181 2; 182 1; 183 3; 
184 4; 185 21; 186 8; 187 6; 188 1; 
191 5; 193 23; 194 3; 195 10; 196 1; 
197 3; 198 2; 199 9; 200 4; 201 2; 
202 1; 207 23; 208 4; 209 3; 210 1; 
211 3; 213 178; 214 32; 215 17; 216 11; 
219 1; 221 2; 222 1; 223 1; 227 1; 
228 10; 229 4; 230 6; 231 1; 236 1; 
238 1; 239 1; 241 1; 242 1; 243 1; 
247 11; 249 999; 250 150; 251 320; 252 43; 
253 12; 254 3; 255 3; 256 1; 257 1; 
261 1; 263 1; 264 3; 265 11; 266 3; 
267 6; 268 1; 270 2; 273 3; 274 1; 
276 1; 277 1; 278 1; 279 1; 280 1; 
281 4; 283 1; 284 9; 285 1; 286 5; 
287 1; 288 1; 291 1; 302 2; 303 4; 
304 5; 305 6; 306 2; 307 1; 313 1; 
315 3; 316 1; 317 1; 318 3; 320 726; 
321 160; 322 241; 323 46; 324 6; 326 1; 
328 1; 329 1; 331 2; 332 1; 334 2; 
341 4; 343 1; 346 4; 347 1; 348 2; 
349 2; 355 1; 364 2; 365 1; 
