Name: ADB-PINACA isomer 1
Synon: N-(1-amino-2,3-dimethyl-1-oxobutan-2-yl)-1-pentyl-1H-indazole-3-carboxamide
InChIKey: WLFSZTSBEOZUTQ-UHFFFAOYSA-N
Formula: C19H28N4O2
MW: 344
ExactMass: 344.221226
CASNO: 0
ID: 3559
Comment: Provided by www.caymanchem.com/app/template/landing%2CForensic.vm / Item #9001525  Lot #0455505
Num Peaks: 131
41 56; 42 33; 43 58; 44 48; 45 1; 
50 1; 51 3; 52 1; 53 4; 54 2; 
55 12; 56 1; 57 3; 58 1; 62 3; 
63 4; 64 2; 65 3; 67 4; 69 30; 
70 17; 71 9; 72 1; 73 4; 75 4; 
76 10; 77 17; 78 3; 79 1; 83 1; 
84 11; 85 12; 86 41; 87 6; 88 21; 
89 20; 90 44; 91 8; 92 3; 96 1; 
97 2; 98 1; 102 20; 103 57; 104 23; 
105 2; 106 1; 112 2; 113 1; 114 1; 
115 2; 116 6; 117 26; 118 9; 119 3; 
127 1; 128 3; 129 22; 130 21; 131 81; 
132 11; 133 2; 135 1; 143 8; 145 333; 
146 33; 147 3; 150 1; 154 1; 155 1; 
156 3; 157 6; 158 9; 159 4; 160 1; 
161 5; 162 1; 169 1; 171 9; 172 1; 
173 1; 174 15; 175 5; 176 1; 183 1; 
185 8; 186 6; 187 7; 188 2; 198 1; 
199 3; 200 2; 201 1; 202 4; 207 4; 
211 1; 213 13; 215 999; 216 155; 217 13; 
218 1; 228 2; 229 1; 230 2; 231 6; 
232 3; 242 1; 253 2; 254 1; 255 1; 
256 2; 257 1; 258 2; 267 1; 269 1; 
270 1; 271 1; 281 1; 283 12; 284 17; 
285 5; 287 1; 297 1; 298 3; 300 406; 
301 87; 302 10; 326 1; 327 2; 328 1; 
329 1; 
