Name: NPB-22
Synon: 1-Pentyl-1H-indazole-3-carboxylic acid, 8-quinolinyl ester
InChIKey: UWICFJAXLKCHTQ-UHFFFAOYSA-N
Formula: C22H21N3O2
MW: 359
ExactMass: 359.163378
CASNO: 1445579612
ID: 3567
Comment: Provided by www.caymanchem.com/app/template/landing%2CForensic.vm / Item #15535  Lot #0456148
Num Peaks: 91
41 25; 42 3; 43 31; 44 1; 50 3; 
51 5; 52 2; 53 2; 54 1; 55 7; 
61 1; 62 10; 63 24; 64 5; 65 3; 
66 1; 67 1; 69 3; 71 2; 73 1; 
74 2; 75 9; 76 15; 77 13; 78 2; 
86 2; 87 5; 88 33; 89 85; 90 67; 
91 7; 92 1; 101 9; 102 29; 103 67; 
104 11; 105 1; 114 4; 116 132; 117 65; 
118 8; 119 1; 127 2; 128 18; 129 26; 
130 16; 131 17; 132 2; 135 1; 137 1; 
142 2; 143 5; 145 439; 146 43; 147 2; 
152 2; 154 1; 155 1; 156 2; 157 3; 
158 5; 159 2; 171 6; 172 3; 185 5; 
186 1; 187 2; 199 1; 202 1; 203 1; 
204 1; 205 1; 207 3; 208 1; 213 9; 
215 999; 216 148; 217 13; 243 1; 260 12; 
261 2; 274 2; 281 1; 288 1; 302 2; 
314 1; 331 1; 341 1; 359 75; 360 20; 
361 3; 
