Name: Diclazepam
InChIKey: VPAYQWRBBOGGPY-UHFFFAOYSA-N
Synon: Ro 5-3448
Synon: 2'-Chlorodiazepam
Formula: C16H12Cl2N2O
MW: 318
ExactMass: 318.03267
CASNO: 2894680
ID: 3568
Comment: Provided by www.caymanchem.com/app/template/landing%2CForensic.vm / Item #15554  Lot #0456870 / SWGDRUG Monograph available
Num Peaks: 237
40 8; 41 13; 42 46; 43 9; 44 1; 
47 1; 49 15; 50 58; 51 60; 52 18; 
53 4; 54 3; 55 5; 56 6; 57 2; 
58 2; 60 4; 61 20; 62 50; 63 92; 
64 28; 65 21; 66 14; 67 5; 68 8; 
69 6; 71 1; 73 52; 74 87; 75 234; 
76 79; 77 61; 78 12; 79 5; 82 67; 
84 19; 85 28; 86 45; 87 61; 88 60; 
89 175; 90 47; 91 19; 92 10; 93 18; 
96 95; 97 36; 98 43; 99 90; 100 53; 
101 43; 102 112; 103 27; 104 6; 106 13; 
109 144; 110 152; 111 151; 112 50; 113 84; 
114 52; 115 22; 116 45; 117 84; 118 18; 
120 21; 121 12; 122 17; 123 60; 124 65; 
125 194; 126 67; 127 182; 131 8; 132 6; 
133 6; 134 21; 135 20; 136 48; 137 110; 
138 89; 139 53; 140 34; 141 20; 143 8; 
144 8; 145 14; 146 14; 147 12; 149 53; 
150 149; 151 131; 152 104; 153 25; 154 16; 
155 3; 156 1; 157 1; 159 12; 160 25; 
161 33; 163 232; 164 127; 165 199; 166 53; 
167 10; 168 7; 169 1; 170 2; 171 4; 
172 5; 173 13; 174 14; 175 41; 176 89; 
177 296; 178 108; 179 61; 180 14; 181 27; 
182 5; 183 8; 184 7; 185 13; 186 40; 
187 16; 188 34; 189 23; 190 93; 191 85; 
192 67; 193 39; 194 5; 195 3; 197 13; 
198 25; 199 97; 200 27; 201 36; 202 24; 
203 40; 204 42; 205 77; 206 27; 207 15; 
208 3; 209 3; 211 30; 212 34; 213 51; 
214 26; 215 18; 216 9; 217 14; 218 36; 
219 117; 220 43; 221 20; 222 6; 224 10; 
225 13; 226 40; 227 58; 228 30; 229 20; 
230 7; 231 5; 233 30; 234 6; 235 7; 
236 4; 238 90; 239 157; 240 87; 241 65; 
242 22; 243 6; 244 1; 245 2; 247 38; 
248 106; 249 32; 250 7; 251 5; 253 99; 
255 532; 256 160; 257 185; 258 47; 259 7; 
260 3; 261 13; 262 22; 263 12; 264 13; 
265 5; 266 8; 267 21; 268 76; 269 19; 
270 25; 271 5; 272 21; 273 41; 275 141; 
276 39; 277 84; 278 18; 279 12; 280 4; 
282 199; 283 999; 284 254; 285 339; 286 58; 
287 9; 289 498; 290 636; 291 513; 292 417; 
293 186; 294 79; 295 22; 296 3; 301 1; 
302 5; 303 3; 304 4; 305 1; 317 486; 
318 699; 319 403; 320 431; 321 118; 322 72; 
323 13; 324 1; 
