Name: JWH-019 N-(5-fluorohexyl) isomer
Synon: JWH-019 N-(5-fluorohexyl) analog
InChIKey: RUNACDQZPZNQMN-UHFFFAOYSA-N
Formula: C25H24FNO
MW: 373
ExactMass: 373.184193
CASNO: 0
ID: 3572
Comment: Provided by www.caymanchem.com/app/template/landing%2CForensic.vm / Item #15445  Lot #0453333
Num Peaks: 275
41 167; 42 15; 43 47; 44 1; 45 1; 
47 95; 48 3; 49 1; 50 7; 51 15; 
52 6; 53 22; 55 190; 56 8; 57 4; 
59 16; 60 6; 61 34; 62 7; 63 18; 
64 8; 65 9; 66 3; 67 27; 68 6; 
69 11; 70 2; 71 2; 72 3; 73 20; 
74 15; 75 43; 76 34; 77 104; 78 16; 
79 10; 80 2; 81 10; 83 17; 84 2; 
85 1; 86 5; 87 12; 88 24; 89 70; 
90 16; 91 7; 92 1; 93 1; 94 3; 
95 4; 98 5; 99 8; 101 101; 102 124; 
103 40; 104 6; 106 9; 107 9; 108 3; 
109 3; 110 1; 113 30; 114 39; 115 110; 
116 148; 117 40; 118 4; 119 4; 121 31; 
122 4; 124 3; 126 171; 127 999; 128 313; 
129 135; 130 127; 131 14; 132 8; 133 10; 
134 10; 135 9; 136 4; 137 6; 138 5; 
139 24; 142 246; 143 66; 144 396; 145 38; 
147 5; 148 4; 149 7; 150 8; 151 11; 
152 14; 153 9; 155 709; 156 115; 157 22; 
158 25; 159 5; 161 1; 162 5; 163 10; 
164 7; 165 6; 167 163; 168 37; 170 45; 
171 6; 172 3; 173 4; 174 6; 176 28; 
177 9; 178 4; 179 2; 180 4; 181 5; 
182 6; 183 5; 184 12; 185 5; 186 4; 
187 17; 188 14; 189 20; 190 8; 191 5; 
192 4; 193 4; 194 2; 195 2; 196 5; 
198 88; 199 13; 200 16; 201 7; 202 13; 
203 3; 204 1; 207 7; 208 1; 209 3; 
210 2; 211 11; 213 83; 214 55; 215 73; 
216 14; 217 4; 218 9; 219 3; 220 1; 
221 1; 223 2; 224 12; 226 170; 227 43; 
228 27; 229 8; 230 5; 231 1; 232 1; 
233 1; 236 2; 237 3; 238 15; 240 100; 
241 218; 242 92; 243 27; 244 9; 246 442; 
247 88; 248 8; 249 1; 250 2; 251 17; 
252 13; 253 48; 254 181; 255 89; 256 105; 
257 22; 258 5; 259 1; 263 3; 264 3; 
265 8; 266 43; 267 53; 268 60; 269 111; 
270 342; 271 79; 272 14; 273 1; 275 2; 
276 1; 278 6; 280 21; 281 22; 282 65; 
284 680; 285 198; 286 34; 287 3; 288 1; 
289 1; 290 1; 291 2; 292 5; 294 14; 
296 38; 297 16; 298 28; 299 9; 300 1; 
302 3; 303 1; 305 1; 306 2; 308 9; 
309 12; 310 26; 311 8; 312 4; 313 1; 
314 1; 315 1; 316 1; 318 1; 320 2; 
322 1; 323 3; 324 9; 325 7; 326 2; 
327 1; 328 2; 331 2; 332 1; 333 3; 
334 10; 335 9; 336 47; 337 16; 338 9; 
339 3; 340 3; 341 4; 342 1; 343 4; 
344 5; 345 8; 347 2; 350 2; 352 88; 
353 251; 354 82; 356 303; 357 83; 358 17; 
359 3; 362 2; 365 1; 367 2; 370 2; 
372 276; 373 650; 374 177; 375 19; 376 2; 
