Name: Flubromazepam
InChIKey: ZRKDDZBVSZLOFS-UHFFFAOYSA-N
Synon: 7-Bromo-5-(2-fluorophenyl)-1,3-dihydro-2H-1,4-benzodiazepin-2-one
Formula: C15H10BrFN2O
MW: 332
ExactMass: 331.996054
CASNO: 2647509
ID: 3573
Comment: Provided by www.caymanchem.com/app/template/landing%2CForensic.vm / Item #15157  Lot #0453347 / SWGDRUG Monograph available
Num Peaks: 265
40 22; 41 16; 42 35; 43 5; 44 6; 
45 7; 46 6; 47 1; 48 2; 50 77; 
51 94; 52 57; 53 8; 54 7; 55 5; 
56 6; 57 56; 58 2; 59 6; 61 30; 
62 93; 63 171; 64 49; 65 30; 66 6; 
67 5; 68 32; 69 41; 70 36; 71 7; 
72 28; 73 30; 74 156; 75 371; 76 163; 
77 192; 78 54; 79 22; 80 37; 81 78; 
82 41; 83 56; 85 160; 86 77; 87 73; 
88 101; 89 124; 90 58; 91 31; 92 25; 
93 35; 94 84; 95 120; 96 51; 98 138; 
99 153; 100 67; 101 55; 102 357; 104 63; 
105 45; 106 41; 107 122; 108 41; 109 114; 
110 38; 112 228; 114 16; 115 23; 116 49; 
117 41; 118 36; 119 33; 120 74; 121 79; 
122 84; 123 61; 124 32; 125 45; 127 73; 
128 23; 129 42; 130 28; 131 61; 132 45; 
133 42; 134 113; 135 46; 136 20; 137 12; 
138 18; 139 23; 140 17; 141 15; 142 22; 
143 39; 144 137; 145 50; 146 40; 147 22; 
148 11; 149 70; 150 91; 151 108; 152 48; 
153 28; 154 16; 155 61; 156 60; 157 102; 
158 67; 159 9; 160 3; 161 6; 162 13; 
163 24; 164 26; 165 15; 166 7; 168 117; 
169 180; 170 220; 171 64; 172 11; 173 4; 
174 9; 175 45; 176 110; 177 161; 178 88; 
179 80; 180 39; 181 88; 182 185; 183 95; 
184 115; 185 28; 186 4; 188 4; 189 9; 
190 16; 191 18; 192 14; 193 9; 194 25; 
195 180; 196 189; 197 276; 198 128; 199 17; 
200 5; 201 3; 202 9; 203 39; 204 49; 
205 90; 206 38; 207 104; 208 57; 209 101; 
210 65; 211 97; 212 36; 213 4; 214 1; 
215 1; 216 2; 217 2; 218 2; 219 2; 
220 1; 221 9; 223 302; 224 199; 225 177; 
226 32; 227 5; 229 1; 230 2; 231 2; 
232 3; 233 13; 234 31; 235 6; 236 8; 
237 8; 238 5; 239 5; 240 1; 241 1; 
242 1; 243 1; 244 2; 246 2; 247 2; 
248 4; 249 1; 250 6; 252 84; 253 106; 
254 25; 255 6; 256 7; 257 20; 258 27; 
259 18; 260 14; 261 6; 262 2; 263 5; 
264 1; 265 2; 266 2; 267 4; 268 2; 
269 2; 270 2; 271 1; 273 1; 274 2; 
275 13; 276 89; 277 27; 278 88; 279 13; 
281 4; 283 45; 284 26; 285 52; 286 19; 
287 11; 288 3; 289 6; 290 19; 291 8; 
292 21; 293 2; 295 2; 296 2; 297 3; 
299 2; 300 1; 301 13; 303 835; 304 859; 
305 999; 306 861; 307 239; 308 28; 309 2; 
313 189; 315 193; 316 36; 317 9; 318 4; 
319 1; 325 1; 327 5; 329 1; 331 536; 
332 617; 333 596; 334 584; 335 99; 336 10; 
