Name: 2-Methoxy-ketamine
Synon: 2-(2-Methoxyphenyl)-2-(methylamino)cyclohexanone
InChIKey: OYAUVHORXFUVAJ-UHFFFAOYSA-N
Formula: C14H19NO2
MW: 233
ExactMass: 233.141579
CASNO: 6728627
ID: 3583
Comment: Provided by www.caymanchem.com/app/template/landing%2CForensic.vm / Item #12048  Lot #0455350
Num Peaks: 128
40 8; 41 44; 42 46; 43 7; 44 12; 
45 1; 50 8; 51 20; 52 11; 53 9; 
54 11; 55 23; 56 14; 57 4; 58 5; 
59 1; 62 6; 63 31; 64 19; 65 39; 
66 11; 67 10; 68 23; 69 4; 70 10; 
71 2; 72 3; 74 8; 75 11; 76 20; 
77 98; 78 34; 79 29; 80 7; 81 6; 
82 4; 83 1; 84 1; 85 1; 86 2; 
88 12; 89 35; 90 29; 91 155; 92 23; 
93 8; 94 6; 95 4; 96 4; 98 17; 
99 1; 101 4; 102 23; 103 40; 104 33; 
105 66; 106 15; 107 66; 108 10; 109 2; 
113 2; 115 50; 116 19; 117 30; 118 57; 
119 88; 120 53; 121 42; 122 6; 126 3; 
127 7; 128 18; 129 12; 130 17; 131 49; 
132 70; 133 110; 134 72; 135 15; 136 1; 
139 2; 140 1; 141 6; 142 3; 143 7; 
144 28; 145 27; 146 68; 147 58; 148 305; 
149 31; 150 12; 151 1; 152 1; 154 1; 
156 1; 157 5; 158 8; 160 67; 161 53; 
162 127; 163 47; 164 5; 168 1; 169 1; 
170 1; 171 1; 172 3; 174 47; 176 999; 
177 117; 178 8; 184 1; 186 2; 187 1; 
188 5; 190 106; 191 14; 192 2; 200 1; 
202 3; 204 111; 205 254; 206 32; 207 3; 
216 1; 230 1; 233 1; 
