Name: Tetrahydroharmine
Synon: Leptaflorine
Synon: THH
InChIKey: ZXLDQJLIBNPEFJ-UHFFFAOYSA-N
Formula: C13H16N2O
MW: 216
ExactMass: 216.126264
CASNO: 17019011
ID: 3585
Comment: Provided by www.caymanchem.com/app/template/landing%2CForensic.vm / Item #14449  Lot #0451946
Num Peaks: 123
40 3; 41 10; 42 21; 43 2; 44 1; 
50 6; 51 15; 52 10; 53 6; 54 9; 
55 3; 56 5; 57 1; 58 1; 59 2; 
61 2; 62 11; 63 33; 64 9; 65 15; 
66 7; 67 3; 68 7; 69 1; 71 4; 
73 7; 74 11; 75 19; 76 20; 77 43; 
78 23; 79 11; 80 3; 81 1; 85 17; 
86 13; 87 8; 88 10; 89 36; 90 15; 
91 20; 92 10; 93 7; 94 2; 98 2; 
99 4; 101 41; 102 26; 103 30; 104 16; 
105 4; 106 2; 108 20; 112 1; 113 7; 
114 14; 115 59; 116 34; 117 38; 118 11; 
119 3; 120 1; 125 1; 126 6; 127 18; 
128 30; 129 20; 130 56; 131 29; 132 12; 
133 6; 135 1; 140 16; 141 19; 142 46; 
143 80; 144 76; 145 24; 146 8; 147 5; 
148 18; 149 2; 152 2; 153 6; 154 21; 
155 33; 156 40; 157 47; 158 71; 159 25; 
160 20; 161 3; 166 1; 167 4; 168 8; 
169 28; 170 55; 171 56; 172 215; 173 74; 
174 58; 175 7; 181 1; 182 3; 184 49; 
185 46; 186 150; 187 145; 188 46; 189 5; 
195 1; 197 3; 198 13; 199 44; 201 999; 
202 135; 203 10; 212 5; 213 19; 215 141; 
216 307; 217 47; 218 3; 
