Name: Cl-2201
Synon: JWH-398 N-(5-fluoropentyl) analog
Synon: (4-chloro-1-naphthalenyl)[1-(5-fluoropentyl)-1H-indol-3-yl]-methanone
InChIKey: MJSLVWWUOKKZTQ-UHFFFAOYSA-N
Formula: C24H21ClFNO
MW: 393
ExactMass: 393.12957
CASNO: 1391486126
ID: 3587
Comment: Provided by www.caymanchem.com/app/template/landing%2CForensic.vm / Item #15065  Lot #0452310
Num Peaks: 310
41 280; 42 15; 43 106; 44 2; 45 2; 
47 72; 48 2; 49 1; 50 11; 51 21; 
52 8; 53 14; 54 5; 55 23; 56 1; 
57 1; 59 24; 60 3; 61 23; 62 16; 
63 32; 64 6; 65 9; 66 2; 67 10; 
69 83; 70 4; 72 3; 73 15; 74 34; 
75 69; 76 59; 77 49; 78 17; 79 4; 
81 2; 84 1; 85 3; 86 7; 87 23; 
88 39; 89 106; 90 20; 91 6; 93 4; 
94 4; 95 1; 98 14; 99 32; 100 28; 
101 77; 102 165; 103 51; 104 12; 105 2; 
107 19; 108 6; 109 4; 111 5; 112 14; 
113 52; 114 46; 115 134; 116 252; 117 71; 
118 8; 119 8; 120 15; 121 35; 122 4; 
123 6; 125 119; 126 554; 127 207; 128 175; 
129 136; 130 115; 131 22; 132 20; 133 14; 
134 14; 135 24; 136 5; 137 8; 139 16; 
142 163; 144 620; 145 80; 146 11; 148 7; 
149 6; 150 16; 151 12; 152 11; 153 23; 
154 28; 155 18; 156 35; 157 15; 159 115; 
160 63; 161 535; 162 101; 163 188; 164 32; 
165 7; 166 6; 167 15; 168 9; 170 38; 
171 8; 172 4; 173 32; 174 11; 175 32; 
176 16; 177 10; 178 3; 179 3; 180 6; 
182 4; 183 4; 184 21; 185 6; 186 14; 
187 38; 189 391; 190 60; 191 152; 192 15; 
193 7; 194 2; 195 5; 197 14; 198 9; 
199 4; 201 136; 202 33; 203 52; 204 33; 
205 6; 207 21; 208 4; 209 1; 210 4; 
211 28; 212 51; 213 111; 214 68; 215 30; 
216 4; 217 2; 218 2; 219 1; 220 1; 
221 1; 222 3; 223 9; 224 20; 225 21; 
226 45; 227 20; 228 18; 229 6; 230 7; 
232 999; 233 152; 234 12; 235 1; 236 5; 
237 8; 238 43; 239 37; 240 139; 241 207; 
242 66; 243 10; 247 5; 248 9; 249 15; 
250 8; 251 24; 252 21; 253 47; 254 161; 
255 69; 256 13; 258 1; 260 3; 261 2; 
262 3; 263 2; 264 4; 265 9; 266 14; 
267 13; 269 195; 270 67; 271 7; 272 1; 
273 6; 274 14; 275 26; 276 22; 277 16; 
278 11; 279 5; 280 5; 281 14; 282 31; 
283 44; 284 20; 285 8; 286 3; 287 14; 
288 72; 289 38; 290 87; 291 27; 292 20; 
293 4; 294 4; 296 4; 297 2; 298 1; 
300 15; 301 30; 302 49; 303 66; 304 190; 
305 60; 306 66; 307 18; 308 3; 309 1; 
310 2; 311 3; 312 6; 313 3; 314 8; 
316 33; 318 659; 319 171; 320 191; 321 48; 
322 7; 323 3; 325 3; 326 2; 327 1; 
328 4; 329 6; 330 11; 331 11; 332 7; 
333 5; 334 4; 335 1; 337 1; 338 3; 
340 14; 341 5; 342 7; 343 2; 344 5; 
345 2; 346 6; 347 2; 348 4; 349 1; 
352 1; 353 1; 355 5; 356 3; 358 93; 
359 30; 360 7; 361 1; 364 1; 365 10; 
366 6; 367 3; 368 1; 369 1; 370 1; 
371 2; 373 36; 374 30; 376 363; 377 122; 
378 135; 379 33; 380 6; 381 1; 382 2; 
383 2; 385 1; 386 1; 388 1; 389 2; 
390 3; 392 369; 393 768; 394 276; 395 269; 
396 67; 397 8; 398 3; 401 1; 403 1; 
