Name: 5-Fluoro-AB-PINACA N-(4-hydroxypentyl) metabolite
Synon: N-(1-amino-3-methyl-1-oxobutan-2-yl)-1-(5-fluoro-4-hydroxypentyl)-1H-indazole-3-carboxamide
Synon: 5F-AB-PINACA N-(4-hydroxypentyl) metabolite
InChIKey: IEYDKWLGOBQFKU-UHFFFAOYSA-N
Formula: C18H25FN4O3
MW: 364
ExactMass: 364.191069
CASNO: 0
ID: 3588
Comment: Provided by www.caymanchem.com/app/template/landing%2CForensic.vm / Item #15052  Lot #0453434
Num Peaks: 208
40 4; 41 61; 42 13; 43 85; 44 101; 
45 15; 46 2; 47 1; 49 1; 50 2; 
51 4; 52 2; 53 7; 54 7; 55 51; 
56 18; 57 19; 58 4; 59 11; 61 7; 
63 62; 64 5; 65 7; 67 24; 68 4; 
69 9; 70 14; 71 43; 72 64; 73 16; 
74 2; 75 7; 76 22; 77 35; 78 4; 
79 2; 81 1; 82 2; 83 5; 84 4; 
85 19; 86 4; 87 14; 88 38; 89 44; 
90 78; 91 13; 92 3; 93 1; 95 1; 
96 2; 98 5; 99 2; 100 2; 102 40; 
103 125; 104 41; 105 7; 106 1; 107 2; 
114 3; 115 6; 116 10; 117 42; 118 17; 
119 4; 120 2; 121 11; 127 2; 128 9; 
129 53; 130 51; 131 126; 132 18; 133 5; 
135 7; 136 1; 137 1; 140 2; 141 2; 
142 7; 143 15; 145 635; 146 62; 147 8; 
148 2; 149 1; 150 1; 151 1; 152 1; 
153 1; 154 3; 155 5; 156 5; 157 15; 
158 16; 159 7; 160 3; 161 2; 162 2; 
163 1; 164 1; 165 1; 167 1; 168 3; 
169 5; 171 20; 172 7; 174 16; 175 39; 
176 4; 177 27; 178 2; 179 1; 181 2; 
182 2; 183 3; 184 3; 185 12; 186 10; 
187 10; 188 1; 192 1; 195 1; 197 5; 
198 1; 199 5; 200 4; 201 7; 202 4; 
203 3; 205 1; 207 3; 209 2; 210 2; 
211 3; 212 1; 213 9; 215 47; 216 17; 
217 2; 219 1; 223 1; 227 2; 228 13; 
229 31; 231 53; 232 8; 233 2; 240 1; 
242 4; 243 1; 244 1; 245 1; 247 15; 
249 999; 250 151; 251 15; 253 5; 255 3; 
256 2; 257 2; 258 1; 263 1; 265 2; 
268 1; 269 1; 270 1; 271 1; 273 2; 
276 1; 278 1; 281 2; 282 1; 283 1; 
284 4; 286 35; 287 6; 291 1; 300 20; 
301 2; 302 3; 303 2; 305 1; 306 1; 
310 1; 311 1; 314 6; 315 3; 316 1; 
317 2; 318 7; 320 644; 321 138; 322 18; 
325 1; 328 2; 331 2; 332 2; 341 1; 
342 2; 343 1; 344 1; 346 1; 347 1; 
349 1; 363 1; 364 3; 
