Name: Benzydamine
Synon: N,N-dimethyl-3-[[1-(phenylmethyl)-1H-indazol-3-yl]oxy]-1-propanamine
InChIKey: CNBGNNVCVSKAQZ-UHFFFAOYSA-N
Formula: C19H23N3O
MW: 309
ExactMass: 309.184113
CASNO: 642728
ID: 3591
Comment: Provided by www.caymanchem.com/app/template/landing%2CForensic.vm / Item #15161  Lot #0454223
Num Peaks: 112
41 32; 42 122; 43 31; 44 30; 45 3; 
50 18; 51 17; 52 4; 53 1; 54 1; 
56 27; 58 999; 59 35; 62 4; 63 18; 
65 92; 66 6; 67 1; 68 8; 70 217; 
71 48; 72 7; 73 3; 74 6; 75 16; 
76 96; 77 32; 78 7; 79 1; 82 6; 
84 216; 85 934; 86 461; 87 25; 88 5; 
89 28; 91 502; 92 41; 93 1; 102 14; 
104 88; 105 14; 106 1; 115 3; 116 1; 
117 2; 118 5; 119 4; 120 1; 126 1; 
127 1; 128 1; 129 4; 130 2; 131 5; 
132 3; 133 2; 134 2; 139 2; 140 1; 
145 4; 146 8; 147 14; 148 1; 151 3; 
152 6; 153 2; 160 4; 163 2; 164 2; 
165 12; 166 5; 167 2; 173 3; 174 8; 
175 2; 177 1; 178 3; 179 3; 180 4; 
181 1; 186 1; 192 2; 193 1; 194 3; 
195 4; 196 1; 205 3; 206 1; 207 3; 
208 3; 209 1; 218 11; 219 2; 221 7; 
222 10; 223 13; 225 43; 226 7; 234 4; 
235 3; 236 2; 237 1; 238 2; 250 1; 
251 6; 252 1; 264 20; 265 6; 266 3; 
309 9; 310 2; 
