Name: .alpha.-PBT
Synon: 2-(Pyrrolidin-1-yl)-1-(thiophen-2-yl)butan-1-one
Synon: .alpha.-Pyrrolidinobutiothiophenone
InChIKey: NGVNNJYFJYTCCO-UHFFFAOYSA-N
Formula: C12H17NOS
MW: 223
ExactMass: 223.1030855
CASNO: 0
ID: 3595
Comment: Provided by www.caymanchem.com/app/template/landing%2CForensic.vm / Item #15358  Lot #0456242
Num Peaks: 54
40 7; 41 55; 42 41; 43 11; 44 2; 
45 7; 50 2; 51 2; 52 2; 53 9; 
54 22; 55 38; 56 12; 57 13; 58 12; 
59 1; 63 1; 65 2; 66 1; 67 5; 
68 17; 69 22; 70 66; 71 5; 77 4; 
78 1; 79 1; 80 4; 81 7; 82 16; 
83 40; 84 11; 85 3; 91 1; 93 1; 
94 4; 96 31; 97 25; 98 2; 108 3; 
110 40; 111 114; 112 999; 113 84; 114 3; 
121 1; 123 1; 135 1; 136 1; 137 2; 
139 2; 160 1; 166 1; 194 5; 
