Name: 4-Fluoro-.alpha.-pyrrolidinobutiophenone
Synon: 4-Fluoro-PBP
Synon: 1-(4-Fluorophenyl)-2-(pyrrolidin-1-yl)butan-1-one
InChIKey: BYMOJFLMEMTDDX-UHFFFAOYSA-N
Formula: C14H18FNO
MW: 235
ExactMass: 235.137242
CASNO: 0
ID: 3598
Comment: Provided by www.caymanchem.com/app/template/landing%2CForensic.vm / Item #15516  Lot #0455086
Num Peaks: 61
41 46; 42 36; 43 10; 44 1; 50 5; 
51 4; 52 1; 53 5; 54 19; 55 36; 
56 12; 57 3; 58 7; 62 1; 63 2; 
67 4; 68 21; 69 27; 70 70; 71 4; 
75 61; 76 5; 77 2; 80 4; 81 2; 
82 8; 83 6; 84 6; 93 3; 95 153; 
96 48; 97 18; 98 1; 101 2; 107 2; 
108 4; 109 12; 110 39; 112 999; 113 77; 
114 2; 115 1; 120 2; 121 1; 123 85; 
124 7; 133 3; 134 1; 135 2; 136 1; 
146 2; 147 1; 148 1; 149 1; 151 1; 
163 1; 164 1; 178 1; 204 1; 206 8; 
234 1; 
