Name: 2-Ethylamino-1-phenylbutane
Synon: N,.alpha.-diethyl-benzeneethanamine
InChIKey: KHWYSUBVXWWBRB-UHFFFAOYSA-N
Formula: C12H19N
MW: 177
ExactMass: 177.15175
CASNO: 29805525
ID: 3600
Comment: Provided by www.caymanchem.com/app/template/landing%2CForensic.vm / Item #9001863  Lot #0453399
Num Peaks: 63
40 4; 41 44; 42 16; 43 9; 44 12; 
50 3; 51 13; 52 4; 53 1; 54 6; 
55 3; 56 33; 58 63; 59 2; 62 5; 
63 12; 65 55; 66 4; 67 3; 68 5; 
70 23; 71 6; 74 6; 75 3; 76 3; 
77 28; 78 13; 79 5; 82 1; 84 61; 
86 999; 87 60; 88 3; 89 16; 91 203; 
92 30; 93 6; 102 4; 103 18; 104 8; 
105 9; 106 2; 115 17; 116 6; 117 20; 
118 17; 119 13; 120 16; 121 1; 127 1; 
128 3; 129 2; 130 6; 131 4; 132 6; 
133 1; 134 1; 146 4; 148 85; 149 10; 
160 1; 174 1; 176 3; 
