Name: 4-Methyl-N-methylhexanophenone
Synon: 4'-Me-N-MeHP
Synon: 4'-Methylhexedrone
InChIKey: BDTHWVVHQBNAGU-UHFFFAOYSA-N
Formula: C14H21NO
MW: 219
ExactMass: 219.162314
CASNO: 0
ID: 3601
Comment: Provided by www.caymanchem.com/app/template/landing%2CForensic.vm / Item #9001515  Lot #0453891
Num Peaks: 85
41 79; 42 80; 43 50; 44 260; 45 6; 
50 7; 51 13; 52 5; 53 6; 54 7; 
55 14; 56 56; 57 62; 58 83; 59 3; 
62 7; 63 31; 65 141; 66 8; 67 4; 
68 12; 69 32; 70 57; 71 9; 72 2; 
74 2; 75 3; 76 3; 77 12; 78 3; 
79 3; 80 2; 81 1; 82 3; 83 2; 
84 3; 85 1; 86 1; 87 2; 89 49; 
91 260; 92 25; 93 3; 96 1; 98 32; 
100 999; 101 123; 102 5; 103 4; 104 2; 
105 11; 106 1; 115 8; 116 3; 117 6; 
119 123; 120 13; 121 1; 127 1; 128 3; 
129 2; 130 2; 131 4; 132 3; 133 1; 
134 8; 135 1; 141 1; 143 1; 144 5; 
145 3; 146 4; 147 15; 148 3; 157 1; 
158 2; 159 1; 160 6; 162 33; 163 5; 
173 1; 174 1; 175 1; 190 1; 220 3; 
