Name: 4-Fluoropentylindole
Synon: 1-(4-Fluoropentyl)-1H-indole
InChIKey: KBLOSQQBEUFJES-UHFFFAOYSA-N
Formula: C13H16FN
MW: 205
ExactMass: 205.1266775
CASNO: 1451385651
ID: 3602
Comment: Provided by www.caymanchem.com/app/template/landing%2CForensic.vm / Item #15453  Lot #0455304
Num Peaks: 95
40 2; 41 16; 42 1; 43 1; 45 4; 
47 39; 50 3; 51 10; 52 3; 53 4; 
54 1; 55 3; 56 1; 57 1; 59 11; 
60 3; 61 2; 62 7; 63 24; 64 6; 
65 7; 66 1; 67 2; 69 2; 71 1; 
72 1; 73 2; 74 6; 75 9; 76 11; 
77 81; 78 10; 79 1; 84 2; 85 1; 
86 1; 87 6; 88 7; 89 60; 90 33; 
91 8; 92 1; 101 12; 102 35; 103 72; 
104 10; 105 1; 113 1; 114 4; 115 16; 
116 41; 117 57; 118 10; 119 1; 128 40; 
130 999; 131 146; 132 19; 133 3; 136 1; 
140 2; 141 4; 142 7; 143 13; 144 12; 
145 5; 148 6; 154 12; 155 6; 156 18; 
157 8; 158 11; 159 1; 161 1; 162 1; 
166 1; 167 4; 168 9; 169 4; 170 35; 
171 4; 176 6; 177 1; 182 1; 183 2; 
184 7; 185 37; 186 6; 187 2; 190 4; 
191 1; 205 291; 206 41; 207 5; 208 1; 
