Name: THCA-A
InChIKey: UCONUSSAWGCZMV-UHFFFAOYSA-N
Synon: Delta-9-Tetrahydrocannabinolic Acid
Synon: Delta-9-THC Carboxylic Acid
Formula: C22H30O4
MW: 358
ExactMass: 358.214409
CASNO: 23978850
ID: 3604
Comment: Provided by www.caymanchem.com/app/template/landing%2CForensic.vm / Item #14238  Lot #0453572 / SWGDRUG Monograph available
Num Peaks: 226
41 347; 42 32; 43 239; 44 7; 45 1; 
50 4; 51 17; 52 11; 53 54; 55 113; 
56 40; 57 34; 58 2; 59 19; 60 1; 
62 3; 63 13; 65 58; 66 22; 67 121; 
68 24; 69 123; 70 7; 71 17; 72 1; 
73 2; 74 3; 75 5; 77 151; 78 45; 
79 109; 80 25; 81 115; 82 12; 83 15; 
84 4; 85 3; 86 3; 87 3; 89 20; 
91 215; 92 31; 93 72; 94 17; 95 76; 
96 9; 97 6; 98 2; 99 3; 100 9; 
101 9; 102 15; 103 49; 104 17; 105 100; 
106 27; 107 111; 108 30; 109 33; 110 5; 
111 4; 112 3; 113 8; 115 155; 116 41; 
117 53; 118 16; 119 74; 120 25; 121 71; 
122 37; 123 58; 124 21; 125 4; 127 52; 
128 132; 129 82; 130 21; 131 64; 132 21; 
133 43; 134 21; 135 42; 136 28; 137 21; 
138 6; 139 18; 141 77; 142 35; 143 36; 
144 34; 145 58; 146 17; 147 94; 148 22; 
149 35; 150 13; 151 17; 152 60; 153 62; 
154 32; 155 38; 156 16; 157 49; 158 29; 
159 50; 160 49; 161 79; 162 20; 163 26; 
164 16; 165 98; 166 28; 167 26; 168 23; 
169 45; 170 20; 171 47; 172 25; 173 98; 
174 181; 175 102; 176 32; 177 21; 178 31; 
179 25; 180 11; 181 47; 182 24; 183 51; 
184 25; 185 45; 186 33; 187 130; 188 56; 
189 38; 190 23; 191 23; 193 136; 194 29; 
195 31; 196 18; 197 42; 198 30; 199 91; 
200 59; 201 127; 202 39; 203 16; 204 5; 
205 7; 207 27; 208 8; 209 15; 210 14; 
211 33; 212 23; 213 70; 214 55; 215 81; 
216 24; 217 100; 218 23; 219 12; 221 45; 
222 7; 223 10; 224 11; 225 23; 226 16; 
227 37; 228 28; 229 53; 231 999; 232 175; 
233 49; 234 7; 235 2; 237 4; 239 11; 
240 9; 241 27; 243 398; 244 85; 245 58; 
246 50; 247 7; 251 2; 253 8; 254 4; 
255 20; 256 24; 257 116; 258 299; 259 64; 
260 8; 265 1; 267 2; 269 12; 271 525; 
272 121; 273 22; 274 3; 279 1; 281 9; 
282 2; 283 10; 285 50; 286 34; 287 5; 
292 1; 295 6; 297 69; 299 922; 300 202; 
301 25; 302 1; 310 1; 311 1; 314 712; 
315 165; 316 17; 317 2; 327 1; 341 2; 
346 1; 
