Name: ATM4 4-acetoxy analog
Synon: N-[2-[5-(acetyloxy)-3,6-dimethoxy-1-phenanthrenyl]ethyl]-N-methylacetamide
InChIKey: IQCNMUAWZXTDNZ-UHFFFAOYSA-N
Formula: C23H25NO5
MW: 395
ExactMass: 395.173273
CASNO: 91295748
ID: 3605
Comment: Provided by www.caymanchem.com/app/template/landing%2CForensic.vm / Item #15498  Lot #0454795
Num Peaks: 176
40 2; 41 4; 42 35; 43 259; 44 377; 
45 11; 55 1; 56 5; 57 2; 58 6; 
63 3; 69 1; 70 3; 72 3; 73 8; 
74 3; 75 2; 76 3; 77 3; 82 2; 
84 1; 86 79; 87 6; 88 4; 89 4; 
91 1; 94 1; 95 1; 96 1; 97 1; 
98 1; 99 2; 100 3; 101 2; 102 1; 
103 1; 104 1; 109 1; 111 2; 112 1; 
113 3; 114 1; 115 6; 119 1; 124 2; 
125 2; 126 9; 127 6; 128 2; 133 3; 
135 2; 137 3; 138 6; 139 21; 140 5; 
141 2; 147 1; 149 2; 150 16; 151 39; 
152 93; 153 37; 154 7; 155 3; 156 1; 
161 2; 163 41; 164 38; 165 97; 166 25; 
167 13; 168 5; 169 2; 170 1; 174 1; 
176 27; 177 29; 178 29; 179 18; 180 14; 
181 41; 182 10; 183 2; 187 2; 188 3; 
189 16; 190 6; 191 12; 192 12; 193 40; 
194 26; 195 23; 196 17; 197 3; 198 1; 
201 2; 202 3; 203 3; 204 4; 205 23; 
206 14; 207 20; 208 15; 209 29; 210 12; 
211 3; 215 1; 217 3; 218 5; 219 14; 
220 12; 221 41; 222 25; 223 38; 224 86; 
225 18; 226 3; 231 1; 232 2; 233 17; 
234 11; 235 18; 236 20; 237 39; 238 8; 
239 4; 246 1; 247 15; 248 34; 249 23; 
250 12; 251 21; 252 56; 253 28; 254 6; 
255 1; 261 1; 263 8; 265 184; 266 48; 
267 235; 268 53; 269 9; 274 1; 280 999; 
281 188; 282 24; 283 2; 291 1; 292 4; 
293 2; 294 7; 295 4; 296 1; 307 3; 
309 20; 310 9; 311 1; 322 36; 323 8; 
324 2; 325 1; 336 1; 337 1; 338 1; 
341 1; 351 4; 353 145; 354 31; 355 5; 
356 1; 380 3; 393 1; 395 135; 396 36; 
397 5; 
