Name: AB-FUBINACA isomer 2
Synon: N-(1-amino-2-methyl-1-oxobutan-2-yl)-1-(4-fluorobenzyl)-1H-indazole-3-carboxamide
InChIKey: SGXRGVNSKNQWSC-UHFFFAOYSA-N
Formula: C20H21FN4O2
MW: 368
ExactMass: 368.164854
CASNO: 0
ID: 3608
Comment: Provided by www.caymanchem.com/app/template/landing%2CForensic.vm / Item #9001529  Lot #0455509
Num Peaks: 131
40 1; 41 6; 42 22; 44 44; 45 1; 
50 2; 51 4; 52 1; 53 2; 54 2; 
55 11; 56 5; 57 10; 58 1; 59 4; 
61 1; 62 7; 63 10; 64 3; 65 1; 
68 1; 69 3; 70 13; 71 19; 72 38; 
73 4; 74 1; 75 9; 76 9; 77 9; 
78 2; 81 3; 83 75; 84 4; 85 1; 
86 2; 87 6; 88 38; 89 23; 90 25; 
91 5; 92 1; 94 1; 95 6; 96 6; 
98 2; 99 1; 100 1; 102 19; 103 11; 
104 7; 105 4; 107 14; 109 999; 110 75; 
111 3; 112 1; 114 1; 115 2; 116 2; 
117 8; 118 3; 119 1; 121 1; 122 3; 
128 1; 129 12; 130 3; 131 8; 132 5; 
133 1; 135 1; 143 2; 145 86; 146 9; 
147 2; 151 1; 156 1; 157 1; 158 1; 
162 1; 168 1; 169 3; 170 4; 171 2; 
172 1; 175 1; 176 2; 177 2; 178 1; 
186 6; 187 4; 194 1; 195 2; 196 7; 
197 5; 198 4; 199 2; 200 2; 205 2; 
207 2; 208 1; 213 2; 214 12; 215 5; 
216 1; 223 15; 224 8; 225 12; 226 4; 
227 1; 240 1; 241 3; 242 1; 251 6; 
253 758; 254 124; 255 11; 256 1; 269 4; 
281 1; 296 1; 307 1; 321 5; 322 5; 
324 375; 325 82; 326 9; 327 1; 350 1; 
351 2; 
