Name: AB-FUBINACA isomer 1
Synon: N-(1-amino-1-oxopentan-2-yl)-1-(4-fluorobenzyl)-1H-indazole-3-carboxamide
InChIKey: VDGIZMNHDDBEBU-UHFFFAOYSA-N
Formula: C20H21FN4O2
MW: 368
ExactMass: 368.164854
CASNO: 0
ID: 3609
Comment: Provided by www.caymanchem.com/app/template/landing%2CForensic.vm / Item #9001528  Lot #0455508
Num Peaks: 193
40 1; 41 10; 42 5; 43 14; 44 63; 
45 1; 47 1; 48 1; 50 4; 51 3; 
53 1; 54 4; 55 8; 56 5; 57 7; 
59 5; 61 2; 62 8; 63 13; 64 4; 
66 1; 67 1; 68 2; 70 9; 71 5; 
72 27; 73 15; 74 2; 75 14; 76 9; 
77 12; 78 2; 79 2; 81 3; 83 76; 
84 8; 86 1; 87 5; 88 40; 89 15; 
90 23; 91 9; 92 2; 94 5; 95 9; 
96 9; 97 4; 98 1; 99 1; 101 3; 
102 20; 103 10; 104 4; 105 2; 107 13; 
109 999; 110 86; 111 2; 113 1; 114 1; 
115 4; 116 3; 117 8; 118 9; 119 3; 
121 3; 122 6; 123 1; 124 3; 125 1; 
127 1; 128 1; 129 10; 130 3; 131 10; 
135 3; 136 1; 138 1; 145 89; 146 11; 
149 3; 150 2; 153 3; 154 1; 156 3; 
158 1; 159 1; 160 1; 161 1; 167 1; 
169 2; 170 3; 171 2; 172 4; 173 9; 
174 2; 175 1; 176 4; 177 4; 180 1; 
181 1; 182 1; 183 2; 186 5; 187 4; 
191 7; 194 3; 195 3; 196 11; 197 5; 
198 5; 199 1; 200 1; 202 1; 205 4; 
207 31; 208 9; 209 5; 210 5; 211 3; 
214 3; 215 2; 216 2; 217 1; 219 1; 
220 2; 221 1; 223 17; 224 14; 225 10; 
226 6; 228 2; 229 1; 234 1; 235 2; 
238 1; 239 1; 241 3; 245 2; 246 1; 
249 4; 250 1; 251 6; 253 783; 254 134; 
255 15; 257 1; 258 1; 259 1; 263 1; 
264 1; 265 1; 266 2; 268 2; 270 3; 
272 1; 273 1; 277 1; 278 1; 284 2; 
289 1; 295 1; 299 1; 305 1; 306 1; 
307 2; 308 2; 309 1; 311 1; 313 1; 
314 1; 318 1; 321 1; 324 384; 325 94; 
326 12; 328 1; 331 1; 332 1; 333 1; 
341 5; 342 2; 343 1; 345 2; 347 1; 
350 2; 351 2; 352 3; 354 1; 355 1; 
364 2; 367 1; 368 1; 
