Name: AB-FUBINACA 3-fluorobenzyl isomer
Synon: N-[(1S)-1-(aminocarbonyl)-2-methylpropyl]-1-[(3-fluorophenyl)methyl]-1H-indazole-3-carboxamide
InChIKey: PDYYWSOYXNOKBK-UHFFFAOYSA-N
Formula: C20H21FN4O2
MW: 368
ExactMass: 368.164854
CASNO: 1185282192
ID: 3610
Comment: Provided by www.caymanchem.com/app/template/landing%2CForensic.vm / Item #9001523  Lot #0455477
Num Peaks: 198
40 4; 41 22; 42 7; 43 22; 44 55; 
45 5; 46 2; 50 1; 51 5; 52 1; 
53 3; 54 4; 55 10; 56 15; 57 8; 
58 2; 59 5; 62 7; 63 13; 64 4; 
66 1; 67 1; 68 2; 69 5; 70 8; 
71 26; 72 30; 73 10; 74 1; 75 9; 
76 10; 77 11; 78 2; 80 1; 81 4; 
83 82; 84 4; 86 2; 87 11; 88 35; 
89 38; 90 34; 91 4; 92 2; 94 3; 
95 7; 96 12; 98 2; 100 1; 102 24; 
103 15; 104 10; 105 3; 107 11; 109 890; 
110 67; 111 3; 112 2; 113 1; 115 8; 
116 5; 117 8; 118 4; 119 1; 121 3; 
122 4; 123 4; 124 1; 125 1; 127 2; 
129 15; 130 5; 131 8; 132 2; 133 4; 
134 4; 135 7; 137 1; 138 1; 140 1; 
141 1; 143 3; 145 83; 146 6; 148 1; 
151 3; 153 1; 154 3; 155 1; 156 1; 
157 2; 158 1; 159 1; 161 3; 162 2; 
163 2; 166 3; 167 1; 168 2; 169 4; 
170 6; 172 5; 173 3; 174 2; 175 4; 
176 10; 177 11; 178 3; 180 2; 181 1; 
182 1; 183 1; 185 1; 187 2; 191 1; 
193 5; 194 3; 195 13; 196 16; 197 10; 
198 10; 199 4; 200 4; 201 3; 202 2; 
203 1; 204 1; 205 1; 207 1; 209 13; 
212 2; 214 3; 215 7; 216 3; 217 1; 
219 2; 222 1; 223 22; 224 11; 225 26; 
226 8; 227 1; 233 1; 235 2; 236 2; 
239 1; 240 1; 241 1; 242 1; 246 1; 
248 1; 249 4; 251 7; 253 999; 254 175; 
255 12; 260 1; 265 5; 266 3; 267 1; 
269 15; 271 1; 279 2; 281 9; 283 1; 
286 1; 291 1; 292 2; 294 1; 295 1; 
296 1; 297 1; 298 1; 301 1; 304 1; 
306 3; 307 3; 309 4; 314 1; 315 2; 
317 1; 322 1; 324 518; 325 129; 326 16; 
327 5; 331 2; 333 1; 343 3; 349 1; 
350 1; 351 1; 353 1; 355 2; 356 2; 
358 1; 365 1; 368 6; 
