Name: .alpha.-Piperidinobutiophenone
Synon: .alpha.-PBP
Synon: 1-Phenyl-2-(1-piperidinyl)-1-butanone
InChIKey: VFLPICJWFQLLSY-UHFFFAOYSA-N
Formula: C15H21NO
MW: 231
ExactMass: 231.162314
CASNO: 92728820
ID: 3612
Comment: Provided by www.caymanchem.com/app/template/landing%2CForensic.vm / Item #9001513  Lot #0453871
Num Peaks: 67
41 82; 42 40; 43 8; 44 3; 50 10; 
51 37; 52 4; 53 5; 54 16; 55 32; 
56 17; 57 3; 58 19; 63 2; 65 3; 
67 8; 68 17; 69 38; 70 30; 71 2; 
72 8; 73 1; 74 3; 75 3; 77 172; 
78 17; 79 3; 80 3; 81 2; 82 12; 
83 4; 84 21; 85 1; 89 2; 91 12; 
92 1; 94 2; 96 18; 97 2; 98 8; 
102 1; 103 2; 105 64; 106 6; 108 1; 
110 28; 111 6; 115 3; 116 1; 117 2; 
118 1; 124 23; 126 999; 127 104; 128 5; 
129 1; 130 1; 131 1; 133 1; 145 1; 
146 1; 147 1; 174 1; 200 1; 202 6; 
203 1; 230 1; 
