Name: Heliomethylamine-HFBA Derivative
InChIKey: NDPCFRSNVFZWGW-UHFFFAOYSA-N
Formula: C16H16F7NO3
MW: 403
ExactMass: 403.101841
CASNO: 0
ID: 3615
Comment: Broward Sheriff Office Drug Library (B. Lum) / Lipomed 1404.1B2.1
Num Peaks: 122
31 2; 32 4; 38 1; 39 18; 40 5; 
41 31; 42 81; 43 29; 44 115; 45 3; 
50 11; 51 72; 52 12; 53 14; 54 2; 
55 14; 56 6; 57 3; 58 19; 60 1; 
62 6; 63 20; 64 8; 65 31; 66 5; 
67 3; 68 5; 69 101; 70 5; 71 20; 
72 51; 73 3; 74 3; 75 5; 76 10; 
77 171; 78 45; 79 49; 80 4; 81 2; 
82 1; 84 3; 86 1; 89 17; 90 6; 
91 32; 92 6; 93 12; 94 1; 95 1; 
98 2; 100 11; 101 2; 102 10; 103 42; 
104 24; 105 108; 106 26; 107 7; 108 1; 
109 6; 110 1; 112 2; 115 14; 116 6; 
117 19; 118 15; 119 18; 120 3; 121 13; 
122 26; 123 1; 127 1; 128 2; 129 1; 
130 2; 131 84; 132 10; 133 44; 134 13; 
135 999; 136 134; 137 12; 144 2; 145 16; 
146 20; 147 31; 148 28; 149 8; 150 2; 
151 1; 159 3; 160 4; 161 60; 162 33; 
163 61; 164 12; 169 103; 170 3; 174 1; 
175 11; 176 104; 177 16; 178 6; 197 1; 
202 1; 208 2; 210 13; 212 7; 222 16; 
226 3; 234 77; 235 12; 240 73; 241 19; 
242 1; 252 2; 268 20; 269 2; 403 59; 
404 11; 405 1; 
