Name: PV8
Synon: .alpha.-PHPP
Synon: .alpha.-PEP
Synon: 1-Phenyl-2-(1-pyrrolidinyl)-1-heptanone
InChIKey: DLRWKNLMJAIFQB-UHFFFAOYSA-N
Formula: C17H25NO
MW: 259
ExactMass: 259.193615
CASNO: 13415559
ID: 3628
Comment: Provided by www.caymanchem.com/app/template/landing%2CForensic.vm / Item #14762  Lot #0451828 / SWGDRUG Monograph available
Num Peaks: 92
41 69; 42 45; 43 22; 44 6; 50 9; 
51 39; 52 4; 53 9; 54 28; 55 64; 
56 30; 57 6; 63 1; 65 4; 66 1; 
67 8; 68 29; 69 64; 70 33; 71 3; 
72 4; 74 2; 75 3; 77 202; 78 22; 
79 6; 80 7; 81 7; 82 12; 84 96; 
85 5; 89 2; 91 19; 92 2; 93 2; 
94 10; 96 97; 97 64; 98 38; 99 2; 
102 2; 103 4; 105 111; 106 10; 107 1; 
108 5; 110 64; 111 6; 112 2; 115 7; 
116 3; 117 4; 118 2; 119 1; 120 5; 
122 1; 124 6; 126 3; 127 1; 128 3; 
129 2; 130 2; 131 3; 132 2; 133 4; 
134 1; 138 1; 143 1; 144 1; 145 1; 
146 1; 150 3; 152 28; 154 999; 155 227; 
156 11; 158 1; 159 1; 160 4; 168 1; 
170 1; 172 1; 173 1; 184 1; 186 4; 
188 25; 189 5; 190 1; 200 1; 214 3; 
257 1; 258 3; 
