Name: Proscaline
Synon: 4-propoxy-3,5-DMPEA
Synon: 2-(3,5-dimethoxy-4-propoxyphenyl)ethanamine
InChIKey: HYWLMSUAZVDUFW-UHFFFAOYSA-N
Formula: C13H21NO3
MW: 239
ExactMass: 239.1521435
CASNO: 39201780
ID: 3629
Comment: ENFSI / digitalized MS from EDND, HIFS Budapest
Num Peaks: 99
38 6; 39 45; 40 7; 41 65; 42 12; 
43 43; 44 10; 45 4; 50 9; 51 22; 
52 28; 53 38; 54 6; 55 12; 57 6; 
62 3; 63 15; 64 21; 65 38; 66 29; 
67 18; 68 5; 69 9; 76 10; 77 54; 
78 54; 79 35; 80 26; 81 19; 82 8; 
83 2; 85 5; 89 12; 90 14; 91 29; 
92 28; 93 20; 94 19; 95 18; 96 6; 
97 3; 103 2; 104 9; 105 20; 106 49; 
107 43; 108 14; 109 19; 110 15; 111 4; 
117 2; 118 5; 119 6; 120 29; 121 29; 
122 71; 123 88; 124 26; 125 39; 126 4; 
131 1; 132 5; 133 3; 134 16; 135 17; 
136 45; 137 62; 138 20; 139 15; 147 2; 
148 38; 149 12; 150 8; 151 41; 152 17; 
153 153; 154 18; 155 3; 163 2; 164 4; 
165 20; 166 10; 167 999; 168 940; 169 99; 
170 10; 179 19; 180 12; 181 6; 194 4; 
195 2; 209 13; 210 299; 211 40; 212 4; 
222 1; 239 139; 240 21; 241 2; 
