Name: N-Benzyl-4-methylbuphedrone
Synon: 2-(benzylamino)-1-(4-methylphenyl)butan-1-one
Synon: 4-methylbuphedrone, N-benzyl derivative
InChIKey: ZWTIKPPAPCJQNP-UHFFFAOYSA-N
Formula: C18H21NO
MW: 267
ExactMass: 267.162313
CASNO: 0
ID: 3632
Comment: ENFSI / Finnish NFP
Num Peaks: 88
32 11; 37 1; 38 2; 39 24; 40 5; 
41 15; 42 3; 43 3; 44 24; 45 1; 
50 7; 51 17; 52 6; 53 2; 54 3; 
55 3; 56 7; 57 1; 58 1; 61 1; 
62 5; 63 19; 64 7; 65 114; 66 6; 
68 1; 69 2; 70 2; 74 2; 75 3; 
76 4; 77 19; 78 8; 79 7; 80 1; 
87 1; 89 36; 90 19; 91 999; 92 81; 
93 3; 102 1; 103 9; 104 13; 105 18; 
106 15; 107 5; 115 5; 116 3; 117 9; 
118 9; 119 132; 120 14; 121 1; 127 1; 
128 2; 129 3; 130 4; 131 5; 132 9; 
133 2; 134 3; 144 2; 145 2; 146 54; 
147 22; 148 918; 149 105; 150 5; 158 1; 
160 3; 161 1; 162 5; 165 3; 166 1; 
178 1; 179 1; 181 1; 207 5; 208 1; 
210 2; 220 1; 236 1; 238 4; 239 1; 
249 1; 251 1; 263 2; 
