Name: Mebroqualone
Synon: 3-(2-bromophenyl)-2-methylquinazolin-4(3H)-one
InChIKey: NBUSAPJNASSKBP-UHFFFAOYSA-N
Formula: C15H11BrN2O
MW: 314
ExactMass: 314.005476
CASNO: 4260202
ID: 3635
Comment: ENFSI / EDND webpage, UK NFP
Num Peaks: 164
41 4; 42 6; 43 4; 44 5; 45 3; 
49 2; 50 113; 51 41; 52 10; 53 4; 
57 1; 59 12; 61 5; 62 19; 63 77; 
64 49; 65 13; 66 2; 70 5; 73 53; 
74 44; 75 126; 76 234; 77 133; 78 15; 
79 5; 80 3; 81 2; 83 26; 85 1; 
86 1; 87 5; 88 12; 89 50; 90 105; 
91 21; 92 10; 93 1; 97 37; 99 1; 
100 1; 101 3; 102 47; 103 43; 104 22; 
105 5; 106 1; 107 10; 112 1; 113 4; 
114 4; 115 10; 116 37; 117 85; 119 7; 
120 1; 123 1; 125 1; 126 1; 127 1; 
128 2; 129 7; 130 3; 131 5; 132 36; 
133 12; 134 1; 135 13; 136 4; 137 4; 
138 6; 139 22; 140 26; 141 4; 142 4; 
143 34; 144 10; 145 4; 147 13; 148 2; 
149 3; 150 2; 151 2; 152 3; 153 1; 
154 3; 155 94; 156 15; 157 94; 158 14; 
159 2; 161 1; 163 2; 164 13; 165 12; 
166 27; 167 9; 168 2; 169 1; 171 1; 
176 1; 177 5; 178 3; 179 5; 180 4; 
181 3; 182 1; 183 2; 184 1; 189 1; 
190 2; 191 11; 192 13; 193 14; 194 8; 
195 17; 196 19; 197 7; 198 17; 199 2; 
203 1; 205 15; 206 20; 207 68; 208 15; 
209 9; 210 1; 217 2; 218 1; 219 1; 
220 6; 221 15; 222 2; 223 1; 233 5; 
234 14; 235 999; 236 195; 237 21; 238 1; 
239 1; 249 2; 251 2; 253 17; 254 4; 
255 3; 265 2; 267 4; 268 1; 269 3; 
281 23; 282 7; 283 4; 284 1; 299 16; 
300 3; 301 15; 302 2; 311 1; 313 1; 
314 15; 315 4; 316 15; 317 3; 
