Name: bk-MPA
Synon: Thiothinone
Synon: MTP
Synon: 2-(methylamino)-1-(thiophen-2-yl)propan-1-one
InChIKey: DOZQPYDMJMLVKX-UHFFFAOYSA-N
Formula: C8H11NOS
MW: 169
ExactMass: 169.056135
CASNO: 24065176
ID: 3637
Comment: ENFSI / EDND webpage, Hungarian FP, confirmed by NMR
Num Peaks: 56
37 3; 38 9; 39 88; 40 6; 41 16; 
42 58; 43 27; 44 5; 45 17; 47 1; 
49 2; 50 6; 51 4; 52 2; 53 7; 
54 5; 55 7; 56 77; 57 47; 58 999; 
59 41; 60 1; 61 1; 62 1; 63 2; 
65 1; 66 1; 67 1; 68 1; 69 5; 
70 1; 71 1; 74 1; 77 3; 78 2; 
80 1; 81 8; 82 10; 83 26; 84 8; 
85 4; 86 1; 95 1; 96 1; 97 8; 
109 2; 110 2; 111 63; 112 4; 113 3; 
124 1; 126 1; 138 1; 139 2; 140 2; 
154 2; 
