Name: 4-Fluorocathinone
Synon: 4-FC
Synon: 2-amino-1-(4-fluorophenyl)-1-propanone
InChIKey: PRIYXVFZRRKLEK-UHFFFAOYSA-N
Formula: C9H10FNO
MW: 167
ExactMass: 167.074642
CASNO: 80096511
ID: 3641
Comment: ENFSI / Identification based on GC-MS, LC-MS (ion trap), FTIR (exclusionary) and NMR
Num Peaks: 60
30 1; 31 2; 32 1; 37 2; 38 4; 
39 6; 40 5; 41 13; 42 76; 43 28; 
44 999; 45 28; 49 2; 50 31; 51 20; 
52 2; 53 2; 55 2; 56 2; 57 8; 
61 4; 62 6; 63 7; 68 13; 69 27; 
70 7; 73 3; 74 25; 75 128; 76 13; 
77 5; 81 2; 83 1; 86 1; 92 3; 
93 5; 94 18; 95 187; 96 24; 97 9; 
101 2; 103 1; 105 1; 107 3; 108 1; 
109 2; 110 1; 120 1; 121 1; 122 3; 
123 109; 124 21; 125 2; 133 1; 134 1; 
135 1; 148 1; 151 3; 152 11; 153 1; 
