Name: 6-MAPB
Synon: (1-(1-benzofuran-6-yl)-N-methylpropan-2-amine)
InChIKey: QLAAURQYEAEHBO-UHFFFAOYSA-N
Formula: C12H15NO
MW: 189
ExactMass: 189.115364
CASNO: 1354631790
ID: 3644
Comment: ENFSI / digitalized MS from EDND, HIFS Budapest / SWGDRUG Monograph available
Num Peaks: 71
41 10; 42 23; 43 12; 44 6; 50 9; 
51 23; 52 6; 53 6; 54 3; 55 3; 
56 46; 57 12; 58 999; 59 37; 61 3; 
62 6; 63 17; 64 4; 65 7; 70 4; 
72 7; 73 7; 74 7; 75 9; 76 12; 
77 66; 78 9; 79 4; 86 4; 87 7; 
88 4; 89 12; 90 4; 91 10; 101 4; 
102 23; 103 12; 104 4; 105 4; 113 4; 
114 4; 115 18; 116 7; 117 4; 118 6; 
126 4; 127 10; 128 15; 129 12; 130 10; 
131 105; 132 18; 133 4; 143 4; 144 9; 
145 4; 146 4; 155 4; 156 4; 157 6; 
158 7; 159 9; 160 3; 170 4; 172 6; 
173 4; 174 13; 175 4; 186 4; 187 4; 
188 6; 
