Name: W-15
Synon: (4-chloro-N-(1-phenethylpiperidin-2-ylidene)benzenesulfonamide)
InChIKey: VJHXSSVOCOBVMI-VZCXRCSSSA-N
Formula: C19H21ClN2O2S
MW: 376
ExactMass: 376.101227
CASNO: 93100993
ID: 3645
Comment: ENFSI / digitalized MS from EDND, HIFS Budapest / SWGDRUG Monograph available
Num Peaks: 160
40 4; 41 37; 42 101; 43 25; 44 12; 
45 2; 48 3; 50 23; 51 29; 52 7; 
53 14; 54 27; 55 71; 56 24; 57 20; 
58 2; 61 3; 62 3; 63 12; 64 10; 
65 57; 66 6; 67 6; 68 12; 69 5; 
70 10; 73 4; 74 12; 75 97; 76 33; 
77 75; 78 34; 79 39; 80 8; 81 6; 
82 45; 83 15; 84 7; 85 9; 86 1; 
87 5; 89 14; 90 8; 91 197; 92 22; 
93 8; 94 2; 95 4; 96 3; 97 13; 
98 6; 99 4; 100 2; 101 3; 102 8; 
103 74; 104 561; 105 114; 106 10; 107 1; 
108 5; 109 38; 110 18; 111 418; 112 42; 
113 129; 114 12; 115 6; 116 4; 117 13; 
118 13; 119 34; 120 41; 121 4; 123 15; 
124 1; 125 8; 126 1; 127 10; 128 7; 
129 5; 130 19; 131 10; 132 12; 133 4; 
138 3; 139 2; 140 42; 141 5; 142 13; 
143 7; 144 7; 145 6; 146 6; 147 3; 
151 4; 152 6; 153 4; 154 2; 155 2; 
156 5; 157 3; 158 9; 159 15; 160 3; 
161 5; 164 3; 165 7; 166 6; 167 3; 
168 3; 169 1; 170 2; 171 3; 172 10; 
173 14; 175 282; 176 22; 177 104; 178 10; 
179 8; 184 5; 185 4; 186 21; 187 3; 
199 13; 201 402; 202 62; 203 5; 205 4; 
207 999; 208 129; 209 320; 210 42; 211 3; 
221 8; 222 2; 223 3; 249 5; 250 1; 
271 5; 272 2; 273 12; 274 2; 275 4; 
277 3; 281 1; 285 51; 286 8; 287 19; 
288 3; 311 1; 312 2; 342 2; 376 299; 
377 68; 378 115; 379 25; 380 8; 381 1; 
