Name: Piperonylpiperazine
Synon: 1-(3,4-Methylenedioxybenzyl)piperazine
Synon: 1-Piperonylpiperazine
Synon: Piperazine, 1-(1,3-benzodioxol-5-ylmethyl)-
Synon: Piperazine, 1-(3,4-methylenedioxybenzyl)-
Synon: 1-(1,3-Benzodioxol-5-ylmethyl)piperazine
Synon: MDBP
InChIKey: NBOOZXVYXHATOW-UHFFFAOYSA-N
Formula: C12H16N2O2
MW: 220
ExactMass: 220.121178
CASNO: 32231064
ID: 3646
Comment: ENFSI / Uniklinik Freiburg, Germany
Num Peaks: 103
50 15; 51 94; 52 13; 53 10; 54 14; 
55 16; 56 215; 57 28; 58 41; 59 2; 
62 6; 63 12; 64 4; 65 11; 66 2; 
67 6; 68 3; 69 3; 70 6; 71 10; 
72 1; 74 3; 75 6; 76 12; 77 177; 
78 29; 79 35; 80 4; 81 3; 82 3; 
83 13; 84 3; 85 171; 86 8; 87 1; 
89 4; 90 4; 91 5; 92 1; 93 2; 
94 1; 95 1; 96 1; 97 3; 98 2; 
99 7; 102 1; 103 2; 104 8; 105 58; 
106 14; 107 3; 108 1; 117 3; 118 3; 
119 1; 120 1; 121 5; 122 1; 131 2; 
132 3; 133 3; 134 13; 135 999; 136 99; 
137 9; 145 1; 146 3; 147 3; 148 43; 
149 14; 150 8; 152 1; 160 2; 161 3; 
162 60; 163 33; 164 82; 165 12; 174 3; 
175 36; 176 29; 177 9; 178 115; 179 13; 
180 1; 188 1; 189 4; 190 22; 191 29; 
192 5; 193 1; 202 4; 203 8; 204 2; 
205 8; 206 1; 207 2; 214 1; 218 2; 
219 16; 220 193; 221 27; 
