Name: Glaucine
Synon: 4H-Dibenzo[de,g]quinoline, 5,6,6a,7-tetrahydro-1,2,9,10-tetramethoxy-6-methyl-, (S)-
Synon: 6a.alpha.-Aporphine, 1,2,9,10-tetramethoxy-
Synon: (+)-Glaucine
Synon: d-Glaucine
Synon: Boldine dimethyl ether
Synon: Bromcholitin
Synon: Glauvent
Synon: S-(+)-Glaucine
Synon: (S)-5,6,6a,7-Tetrahydro-1,2,9,10-tetramethoxy-6-methyl-4H-dibenzo(de,g)quinoline
Synon: 1,2,9,10-Tetramethoxy-6a-.alpha.-aporphine
Synon: 1,2,9,10-Tetramethoxy-6-methyl-5,6,6a,7-tetrahydro-4H-dibenzo[de,g]quinoline-, (S)-
Synon: NSC 34396
Synon: (6aS)-1,2,9,10-tetramethoxyaporphine
Synon: Mind Music
Synon: Head Candy
InChIKey: RUZIUYOSRDWYQF-UHFFFAOYSA-N
Formula: C21H25NO4
MW: 355
ExactMass: 355.178358
CASNO: 475810
ID: 3647
Comment: ENFSI
Num Peaks: 255
30 3; 31 9; 33 1; 38 1; 39 17; 
40 1; 41 6; 42 123; 43 17; 44 74; 
45 10; 50 4; 51 11; 52 5; 53 10; 
54 3; 55 10; 56 5; 57 8; 58 2; 
59 6; 62 5; 63 22; 64 7; 65 8; 
66 4; 67 8; 68 3; 69 13; 72 2; 
74 7; 75 18; 76 44; 77 26; 78 8; 
82 29; 84 29; 86 5; 87 12; 88 25; 
89 42; 91 54; 93 3; 95 13; 96 37; 
97 41; 99 11; 100 7; 101 15; 102 53; 
104 52; 105 20; 106 6; 107 6; 110 45; 
111 55; 112 61; 113 29; 114 19; 115 48; 
116 25; 117 41; 118 56; 119 62; 120 9; 
122 6; 123 7; 124 30; 125 68; 126 67; 
127 79; 128 28; 129 14; 131 19; 132 60; 
133 95; 136 1; 137 11; 139 129; 140 106; 
142 13; 143 6; 144 12; 147 91; 148 64; 
149 63; 150 27; 151 56; 152 116; 153 77; 
154 93; 155 90; 156 56; 157 12; 158 5; 
159 3; 162 187; 163 64; 164 42; 165 108; 
166 48; 167 40; 168 54; 170 100; 172 8; 
173 3; 174 11; 175 8; 177 126; 178 114; 
179 35; 180 39; 181 67; 182 48; 183 36; 
184 14; 185 7; 186 11; 187 7; 188 5; 
189 19; 190 24; 191 30; 192 31; 193 30; 
194 53; 195 53; 196 40; 197 22; 198 13; 
199 7; 200 5; 201 5; 202 5; 203 8; 
204 16; 205 23; 206 28; 207 35; 208 49; 
209 51; 210 51; 211 62; 212 18; 213 6; 
214 7; 215 6; 216 6; 217 5; 218 9; 
219 15; 220 27; 221 37; 222 53; 223 53; 
224 49; 225 35; 226 19; 227 5; 228 3; 
229 4; 230 4; 231 3; 232 6; 233 9; 
234 22; 235 34; 236 47; 237 53; 238 72; 
239 53; 240 25; 241 7; 242 2; 244 1; 
245 1; 246 4; 247 8; 248 18; 249 28; 
250 58; 251 56; 252 53; 253 41; 254 60; 
255 18; 256 3; 260 2; 261 3; 262 12; 
263 19; 264 37; 265 62; 266 88; 267 37; 
268 19; 269 33; 270 4; 271 1; 275 2; 
276 5; 277 15; 278 28; 279 41; 280 96; 
281 343; 282 123; 283 20; 284 3; 285 1; 
289 1; 290 2; 291 6; 292 25; 293 33; 
294 68; 295 35; 296 52; 297 216; 298 43; 
299 5; 304 1; 305 2; 306 11; 307 21; 
308 168; 309 75; 310 49; 311 25; 312 158; 
313 39; 314 5; 320 2; 321 2; 322 20; 
323 102; 324 315; 325 80; 326 15; 327 3; 
337 2; 338 94; 339 45; 340 548; 341 120; 
342 16; 343 1; 349 1; 352 5; 353 74; 
354 999; 355 804; 356 175; 357 24; 358 2; 
