Name: NMP
Synon: 1-methylpyrrolidin-2-one
InChIKey: SECXISVLQFMRJM-UHFFFAOYSA-N
Formula: C5H9NO
MW: 99
ExactMass: 99.0684137
CASNO: 872504
ID: 3648
Comment: ENFSI / RIS Roma
Num Peaks: 32
41 308; 42 531; 43 171; 44 596; 45 18; 
50 2; 51 5; 52 11; 53 7; 54 26; 
55 34; 56 63; 57 12; 58 44; 64 1; 
66 5; 67 4; 68 49; 69 36; 70 92; 
71 103; 72 6; 73 1; 80 5; 81 3; 
82 11; 83 5; 84 4; 97 17; 98 696; 
99 999; 100 73; 
