Name: 3C-E
Synon: 1-(4-ethoxy-3,5-dimethoxyphenyl)propan-2-amine
Synon: 3,5-Dimethoxy-4-ethoxyamphetamine
Synon: Escalamphetamine
InChIKey: AHLXCGRWNKUNTQ-UHFFFAOYSA-N
Formula: C13H21NO3
MW: 239
ExactMass: 239.1521435
CASNO: 146849925
ID: 3650
Comment: ENFSI / data from EDND webpage, provided by Finnish National Focal Point
Num Peaks: 124
30 1; 32 5; 39 10; 40 2; 41 5; 
42 18; 43 10; 44 620; 45 16; 50 2; 
51 11; 52 12; 53 20; 54 3; 55 4; 
56 1; 57 4; 61 1; 62 2; 63 7; 
64 10; 65 22; 66 14; 67 13; 68 3; 
69 3; 70 1; 71 1; 74 1; 75 1; 
76 5; 77 29; 78 24; 79 22; 80 14; 
81 13; 82 5; 83 1; 85 1; 89 8; 
90 8; 91 16; 92 13; 93 13; 94 11; 
95 10; 96 3; 97 2; 98 6; 102 1; 
103 3; 104 4; 105 14; 106 22; 107 22; 
108 6; 109 12; 110 7; 111 3; 115 1; 
117 2; 118 4; 119 3; 120 15; 121 15; 
122 33; 123 40; 124 15; 125 19; 126 1; 
130 1; 131 2; 132 3; 133 4; 134 10; 
135 7; 136 29; 137 33; 138 7; 139 21; 
140 1; 146 2; 147 4; 148 37; 149 7; 
150 4; 151 28; 152 12; 153 77; 154 8; 
155 1; 160 1; 161 1; 162 3; 163 3; 
164 5; 165 35; 166 13; 167 459; 168 306; 
169 34; 170 3; 178 4; 179 4; 180 3; 
181 6; 182 1; 192 3; 193 7; 194 10; 
195 23; 196 999; 197 116; 198 13; 207 3; 
208 9; 209 1; 222 3; 223 4; 224 9; 
237 4; 238 4; 239 29; 240 3; 
