Name: N-Ethylnorketamine
Synon: NEK
Synon: 2-(2-chlorophenyl)-2-(ethylamino)cyclohexanone
InChIKey: ITBBBZIIFJJMDU-UHFFFAOYSA-N
Formula: C14H18ClNO
MW: 251
ExactMass: 251.107692
CASNO: 1354634108
ID: 3655
Comment: ENFSI / Powder seized in DK. Confirmed by GC-MS and LC-QTOF-MS
Num Peaks: 164
40 3; 41 23; 42 20; 43 4; 44 69; 
45 1; 50 7; 51 19; 52 5; 53 4; 
54 12; 55 14; 56 9; 57 2; 58 4; 
61 1; 62 3; 63 11; 64 2; 65 12; 
67 8; 68 4; 69 2; 70 2; 72 6; 
73 3; 74 5; 75 34; 76 16; 77 37; 
78 6; 79 2; 80 2; 81 2; 82 4; 
83 2; 84 12; 85 4; 86 2; 87 3; 
88 3; 89 18; 90 5; 91 15; 92 1; 
94 3; 96 1; 97 1; 98 1; 99 4; 
100 2; 101 36; 102 127; 103 40; 104 21; 
105 6; 107 1; 110 1; 111 7; 112 17; 
113 7; 114 6; 115 85; 116 55; 117 20; 
118 6; 123 3; 124 1; 125 54; 126 6; 
127 26; 128 22; 129 13; 130 35; 131 26; 
132 12; 133 1; 136 3; 137 37; 138 259; 
139 43; 140 92; 141 18; 142 9; 143 16; 
144 27; 145 13; 146 43; 147 5; 149 8; 
150 2; 151 68; 152 13; 153 29; 154 6; 
155 4; 156 4; 157 2; 158 15; 159 16; 
160 76; 161 9; 162 2; 163 2; 164 8; 
165 8; 166 98; 167 16; 168 41; 169 7; 
170 4; 171 6; 172 4; 173 5; 174 3; 
177 2; 178 9; 179 16; 180 120; 181 53; 
182 43; 183 16; 184 2; 186 5; 187 1; 
188 72; 189 11; 190 1; 192 8; 194 999; 
195 124; 196 323; 197 41; 198 12; 199 1; 
200 4; 204 5; 205 1; 206 5; 207 4; 
208 13; 209 2; 210 5; 214 1; 218 1; 
220 4; 221 2; 222 57; 223 273; 224 57; 
225 91; 226 13; 232 1; 233 3; 234 6; 
235 5; 236 3; 237 1; 248 1; 249 3; 
250 1; 251 10; 252 1; 253 3; 
