Name: 2-Me-DMT
Synon: N,N-dimethyl-2-(2-methyl-1H-indol-3-yl)ethanamine
Synon: 2-Methyl-N,N-Dimethyltryptamine
Synon: 2,N,N-Trimethyltryptamine
Synon: 2,N,N-TMT
InChIKey: NDGCOWDSLVNLGE-UHFFFAOYSA-N
Formula: C13H18N2
MW: 202
ExactMass: 202.146998
CASNO: 1080951
ID: 3656
Comment: ENFSI
Num Peaks: 80
30 12; 32 4; 39 5; 40 2; 41 3; 
42 34; 43 9; 44 12; 50 3; 51 8; 
52 3; 53 2; 56 5; 57 23; 58 999; 
59 39; 62 2; 63 9; 64 2; 65 6; 
66 1; 70 1; 71 2; 74 3; 75 8; 
76 8; 77 30; 78 5; 85 1; 86 1; 
87 2; 88 3; 89 11; 90 6; 91 7; 
92 3; 93 1; 99 2; 100 1; 101 6; 
102 17; 103 14; 104 4; 113 2; 114 4; 
115 49; 116 13; 117 15; 118 3; 126 1; 
127 12; 128 27; 129 12; 130 18; 131 3; 
140 4; 141 4; 142 18; 143 72; 144 164; 
145 18; 154 10; 155 5; 156 26; 157 36; 
158 23; 159 2; 168 2; 169 3; 170 2; 
171 1; 183 2; 185 4; 186 1; 199 1; 
200 5; 201 1; 202 109; 203 15; 204 1; 
