Name: 6-EAPB
Synon: 1-(1-benzofuran-6-yl)-N-ethylpropan-2-amine
InChIKey: MIRNYUKRRZFBOI-UHFFFAOYSA-N
Formula: C13H17NO
MW: 203
ExactMass: 203.131014
CASNO: 0
ID: 3659
Comment: ENFSI / SWGDRUG Monograph available
Num Peaks: 83
29 11; 30 3; 38 1; 39 6; 40 1; 
41 5; 42 22; 43 5; 44 141; 45 4; 
50 5; 51 17; 52 4; 53 4; 54 1; 
55 1; 56 21; 57 3; 58 1; 62 4; 
63 14; 64 3; 65 4; 66 1; 68 1; 
70 14; 71 5; 72 999; 73 49; 74 4; 
75 6; 76 9; 77 64; 78 7; 79 1; 
80 1; 86 1; 87 2; 88 1; 89 10; 
90 3; 91 9; 92 1; 94 2; 101 4; 
102 23; 103 12; 104 4; 105 2; 113 1; 
114 1; 115 21; 116 6; 117 4; 118 5; 
119 1; 126 1; 127 9; 128 20; 129 15; 
130 8; 131 154; 132 24; 133 2; 142 1; 
143 3; 144 7; 145 3; 155 1; 156 1; 
157 4; 158 5; 159 12; 160 1; 170 1; 
172 1; 173 1; 186 1; 187 1; 188 7; 
189 1; 201 1; 202 3; 
