Name: 5-MeO-MET
Synon: 5-methoxy-N-ethyl-N-methyl-tryptamine
InChIKey: IWHJEKIVMCNHGD-UHFFFAOYSA-N
Formula: C14H20N2O
MW: 232
ExactMass: 232.157563
CASNO: 16977530
ID: 3662
Comment: ENFSI
Num Peaks: 73
29 11; 30 1; 32 14; 39 6; 41 5; 
42 25; 43 14; 44 120; 45 3; 50 3; 
51 7; 52 5; 53 3; 54 1; 55 2; 
56 10; 57 4; 58 5; 61 1; 62 2; 
63 8; 64 1; 65 2; 70 7; 71 17; 
72 999; 73 56; 74 3; 75 3; 76 5; 
77 13; 78 3; 80 2; 87 2; 88 1; 
89 14; 90 12; 91 4; 101 3; 102 7; 
103 8; 104 4; 108 2; 113 1; 115 7; 
116 8; 117 32; 118 5; 128 4; 129 6; 
130 19; 131 7; 132 3; 141 1; 142 2; 
143 4; 144 5; 145 25; 146 4; 147 2; 
157 1; 158 6; 159 8; 160 31; 161 2; 
172 1; 173 6; 174 9; 175 1; 207 2; 
230 2; 232 26; 233 4; 
