Name: Cathinone
Synon: Norephedrone
Synon: 2-Amino-1-phenyl-1-propanone
Synon: alpha-Aminopropiophenone
Synon: .alpha.-Aminopropiophenone
Synon: 2-Aminopropiophenone
InChIKey: PUAQLLVFLMYYJJ-UHFFFAOYSA-N
Formula: C9H11NO
MW: 149
ExactMass: 149.084064
CASNO: 71031157
ID: 3673
Comment: DEA SWL / SWGDRUG Monograph Available
Num Peaks: 34
40 3; 41 6; 42 49; 43 22; 44 999; 
45 25; 49 2; 50 39; 51 108; 52 10; 
53 3; 55 1; 61 1; 62 3; 63 4; 
65 1; 73 2; 74 12; 75 7; 76 10; 
77 148; 78 24; 79 8; 89 2; 91 1; 
103 1; 104 2; 105 62; 106 13; 107 1; 
115 1; 130 1; 133 1; 134 7; 
