Name: Butylone
Synon: bk-MBDB
Synon: .beta.-keto-N-methylbenzodioxolylpropylamine
Synon: 2-methylamino-1-(3,4-methylenedioxyphenyl)-butan-1-one
Synon: 1-(1,3-benzodioxol-5-yl)-2-(methylamino)-1-butanone
Synon: 1-(1,3-benzodioxol-5-yl)-2-(methylamino)butan-1-one
InChIKey: CGKQZIULZRXRRJ-UHFFFAOYSA-N
Formula: C12H15NO3
MW: 221
ExactMass: 221.105193
CASNO: 17762902
ID: 3676
Comment: DEA SFL1 / Lot 2011DEA003-25A / SWGDRUG Monograph available
Num Peaks: 88
37 2; 38 4; 39 23; 40 2; 41 38; 
42 58; 43 10; 44 57; 45 1; 50 7; 
51 11; 52 3; 53 12; 54 6; 55 8; 
56 50; 57 116; 58 5; 61 5; 62 28; 
63 83; 64 12; 65 97; 66 7; 67 1; 
68 3; 69 2; 70 37; 71 17; 72 999; 
73 78; 74 7; 75 2; 76 3; 77 8; 
78 2; 79 5; 80 1; 82 1; 88 1; 
89 2; 90 2; 91 33; 92 6; 93 3; 
94 1; 96 7; 102 1; 103 2; 104 1; 
105 2; 106 1; 115 1; 116 1; 117 1; 
118 1; 119 8; 120 7; 121 79; 122 10; 
123 1; 131 1; 132 1; 133 1; 134 4; 
135 8; 136 1; 145 1; 146 1; 147 2; 
148 2; 149 79; 150 8; 151 1; 160 1; 
161 1; 162 15; 163 2; 164 3; 174 1; 
175 1; 176 1; 177 1; 190 1; 191 1; 
192 12; 193 1; 222 2; 
