Name: Buphedrone
Synon: 2-(methylamino)-1-phenylbutan-1-one
Synon: .alpha.-methylamino-butyrophenone
Synon: MABP
InChIKey: DDPMGIMJSRUULN-UHFFFAOYSA-N
Formula: C11H15NO
MW: 177
ExactMass: 177.115364
CASNO: 408332796
ID: 3679
Comment: ENFSI / Customs Lab, Finland/NBI; LCMS confirmation / SWGDRUG Monograph available
Num Peaks: 65
38 1; 39 11; 40 4; 41 27; 42 48; 
43 13; 44 48; 45 2; 50 15; 51 50; 
52 7; 53 2; 54 5; 55 7; 56 29; 
57 79; 58 3; 61 1; 62 2; 63 3; 
64 1; 65 3; 66 1; 68 4; 69 3; 
70 72; 71 16; 72 999; 73 46; 74 8; 
75 4; 76 8; 77 128; 78 13; 79 2; 
89 3; 90 1; 91 9; 92 1; 102 1; 
103 4; 104 3; 105 74; 106 8; 107 1; 
115 4; 116 1; 117 4; 118 4; 120 8; 
128 2; 129 1; 130 3; 131 3; 132 2; 
133 9; 134 1; 144 1; 145 2; 146 6; 
147 4; 148 36; 149 5; 161 1; 173 1; 
