Name: 2C-B
Synon: PIHKAL #20
Synon: NEXUS
Synon: 4-Bromo-2,5-dimethoxyphenethylamine
Synon: 2-(4-Bromo-2,5-dimethoxyphenyl)-1-aminoethane
Synon: alpha-Desmethyl DOB
InChIKey: YMHOBZXQZVXHBM-UHFFFAOYSA-N
Formula: C10H14BrNO2
MW: 259
ExactMass: 259.02079
CASNO: 66142812
ID: 3681
Comment: DEA SWL / SWGDRUG Monograph available
Num Peaks: 163
40 6; 41 9; 42 13; 43 13; 44 11; 
45 2; 47 2; 49 2; 50 50; 51 87; 
52 22; 53 93; 54 12; 55 8; 56 1; 
57 4; 59 2; 61 9; 62 32; 63 88; 
64 53; 65 74; 66 21; 67 28; 68 6; 
69 4; 70 1; 73 4; 74 28; 75 53; 
76 54; 77 297; 78 86; 79 65; 80 15; 
81 6; 82 6; 85 2; 86 8; 87 10; 
88 6; 89 85; 90 78; 91 169; 92 98; 
93 59; 94 20; 95 5; 96 1; 98 1; 
100 1; 101 2; 102 6; 103 15; 104 35; 
105 185; 106 55; 107 54; 108 78; 109 12; 
110 1; 115 1; 116 6; 117 19; 118 15; 
119 32; 120 66; 121 106; 122 58; 123 13; 
124 1; 128 1; 129 6; 130 4; 131 13; 
132 18; 133 39; 134 20; 135 30; 136 58; 
137 14; 138 3; 141 3; 142 3; 143 68; 
144 7; 145 64; 146 7; 147 19; 148 42; 
149 53; 150 54; 151 47; 152 9; 153 2; 
154 2; 155 13; 156 15; 157 24; 158 15; 
159 13; 160 2; 161 5; 162 5; 163 10; 
164 22; 165 9; 167 1; 168 5; 169 34; 
170 12; 171 52; 172 15; 173 22; 174 9; 
175 3; 178 2; 179 6; 180 21; 181 4; 
182 2; 183 6; 184 24; 185 16; 186 48; 
187 28; 188 28; 189 18; 190 1; 197 1; 
198 4; 199 102; 200 16; 201 107; 202 13; 
203 8; 211 1; 212 5; 213 5; 214 11; 
215 255; 216 29; 217 244; 218 22; 219 2; 
226 2; 227 10; 228 16; 229 83; 230 999; 
231 168; 232 956; 233 90; 234 8; 242 3; 
243 2; 244 3; 245 2; 259 129; 260 16; 
261 126; 262 14; 263 1; 
