Name: Dimethylone
Synon: 1-(1,3-benzodioxol-5-yl)-2-(dimethylamino)-1-propanone
Synon: 3,4-methylenedioxydimethylcathinone
Synon: 3,4-methylenedioxy-N,N-dimethylcathinone
Synon: bk-MDDMA
InChIKey: OSNIIMCBVLBNGS-UHFFFAOYSA-N
Formula: C12H15NO3
MW: 221
ExactMass: 221.105193
CASNO: 109367079
ID: 3684
Comment: Provided by www.caymanchem.com/app/template/landing%2CForensic.vm / Item #9001124  Lot #0432923 / SWGDRUG Monograph available
Num Peaks: 62
40 2; 41 7; 42 65; 43 8; 44 41; 
45 1; 50 5; 51 8; 52 2; 53 8; 
54 5; 55 14; 56 51; 57 19; 58 2; 
61 4; 62 21; 63 55; 64 7; 65 57; 
66 4; 68 1; 70 39; 72 999; 73 49; 
74 5; 75 2; 76 2; 77 4; 78 1; 
79 3; 89 2; 90 1; 91 26; 92 4; 
93 1; 102 1; 103 1; 104 1; 105 1; 
118 1; 119 7; 120 5; 121 27; 122 3; 
135 11; 136 1; 146 1; 147 2; 149 31; 
150 2; 160 1; 162 1; 176 2; 177 1; 
178 3; 190 3; 191 1; 204 1; 206 1; 
219 1; 221 1; 
