Name: BB-22
Synon: 1-(Cyclohexylmethyl)-8-quinolinyl ester-1H-indole-3-carboxylic acid
Synon: QUCHIC
InChIKey: RHYGTJXOHOGQGI-UHFFFAOYSA-N
Formula: C25H24N2O2
MW: 384
ExactMass: 384.183779
CASNO: 1400742428
ID: 3686
Comment: Provided by www.caymanchem.com/app/template/landing%2CForensic.vm / Item #14099  Lot #0445719 / SWGDRUG Monograph available
Num Peaks: 170
40 5; 41 35; 42 2; 43 11; 44 2; 
45 2; 47 1; 49 1; 50 4; 51 6; 
52 2; 53 10; 55 136; 56 8; 57 2; 
59 1; 61 3; 62 11; 63 28; 64 4; 
65 7; 66 3; 67 15; 68 3; 69 13; 
70 2; 73 4; 74 4; 75 7; 76 12; 
77 10; 78 6; 79 4; 80 2; 81 1; 
83 5; 84 1; 85 1; 86 1; 87 5; 
88 11; 89 93; 90 28; 91 7; 92 1; 
93 1; 95 6; 96 3; 97 21; 98 2; 
100 1; 101 10; 102 37; 103 11; 104 2; 
105 1; 110 1; 113 2; 114 12; 115 35; 
116 212; 117 59; 118 4; 119 2; 120 1; 
125 1; 128 21; 129 67; 130 25; 131 3; 
132 1; 133 2; 135 2; 140 2; 142 2; 
144 335; 145 60; 146 5; 147 3; 149 1; 
150 1; 151 14; 152 2; 153 2; 154 10; 
155 3; 156 8; 157 11; 158 25; 159 4; 
166 2; 167 5; 168 8; 169 1; 170 2; 
176 2; 181 2; 182 3; 184 4; 185 1; 
191 3; 192 1; 193 1; 194 2; 196 2; 
197 1; 198 1; 200 1; 202 1; 204 1; 
205 1; 207 10; 208 1; 211 4; 212 1; 
213 1; 214 1; 216 1; 217 1; 221 1; 
222 1; 223 1; 224 1; 226 1; 227 2; 
230 1; 231 1; 232 1; 233 1; 234 2; 
236 2; 238 30; 240 999; 241 180; 242 19; 
244 1; 253 3; 254 1; 257 2; 258 1; 
259 7; 260 1; 267 1; 272 1; 273 1; 
281 4; 283 2; 285 1; 287 3; 291 1; 
292 1; 296 1; 298 1; 301 3; 302 2; 
305 1; 310 1; 317 1; 327 2; 329 1; 
331 1; 332 1; 340 1; 344 1; 346 1; 
354 1; 368 1; 384 18; 385 4; 386 2; 
