Name: 7-APB
Synon: 7-(2-aminopropyl)benzofuran
Synon: .alpha.-Methyl-7-benzofuranethanamine
InChIKey: YVMDMFRZSDUZLK-UHFFFAOYSA-N
Formula: C11H13NO
MW: 175
ExactMass: 175.099714
CASNO: 286834864
ID: 3689
Comment: Provided by www.caymanchem.com/app/template/landing%2CForensic.vm / Item #14282  Lot #0447572 / SWGDRUG Monograph available
Num Peaks: 88
40 5; 41 10; 42 54; 44 999; 45 30; 
49 2; 50 18; 51 40; 52 11; 53 9; 
54 4; 56 3; 57 2; 59 2; 61 3; 
62 15; 63 40; 64 10; 65 16; 67 1; 
70 1; 72 1; 73 26; 74 19; 75 25; 
76 38; 77 185; 78 35; 79 7; 80 11; 
81 2; 85 2; 86 5; 87 8; 88 3; 
89 22; 90 5; 91 8; 92 2; 93 2; 
98 5; 99 1; 100 1; 101 12; 102 80; 
103 48; 104 25; 105 11; 106 1; 113 2; 
114 2; 115 22; 116 5; 117 10; 118 6; 
123 1; 125 1; 126 2; 127 8; 128 18; 
129 11; 131 263; 132 101; 133 10; 134 1; 
139 1; 141 2; 142 2; 143 1; 144 5; 
145 1; 146 1; 147 9; 148 2; 149 1; 
155 1; 156 2; 157 5; 158 10; 159 6; 
160 15; 161 1; 170 2; 172 2; 173 6; 
174 5; 175 23; 176 2; 
