Name: 5-APB
Synon: 5-(2-aminopropyl)benzofuran
Synon: .alpha.-methyl-5-benzofuranethanamine
InChIKey: VKUMKUZDZWHMQU-UHFFFAOYSA-N
Formula: C11H13NO
MW: 175
ExactMass: 175.099714
CASNO: 286834808
ID: 3691
Comment: Provided by www.caymanchem.com/app/template/landing%2CForensic.vm / Item #11134  Lot #0434379 / SWGDRUG Monograph available
Num Peaks: 79
40 4; 41 7; 42 42; 44 999; 45 26; 
49 1; 50 23; 51 65; 52 18; 53 14; 
54 3; 55 2; 56 4; 57 2; 59 1; 
61 3; 62 17; 63 43; 64 9; 65 15; 
67 1; 72 1; 73 1; 74 17; 75 24; 
76 31; 77 188; 78 29; 79 7; 80 8; 
85 2; 86 5; 87 8; 88 4; 89 24; 
90 7; 91 9; 92 2; 93 1; 98 3; 
99 1; 100 1; 101 11; 102 74; 103 48; 
104 31; 105 11; 106 2; 113 3; 114 2; 
115 26; 116 5; 117 9; 118 7; 119 1; 
126 1; 127 12; 128 28; 129 18; 131 317; 
132 117; 133 13; 142 1; 143 3; 144 7; 
145 2; 146 3; 155 2; 156 1; 157 6; 
158 9; 159 7; 160 19; 161 2; 172 3; 
173 7; 174 7; 175 29; 176 4; 
