Name: AM1220
Synon: [1-[(1-methyl-2-piperidinyl)methyl]-1H-indol-3-yl]-1-naphthalenyl-methanone
InChIKey: URKVBEKZCMUTQC-UHFFFAOYSA-N
Formula: C26H26N2O
MW: 382
ExactMass: 382.204514
CASNO: 137642547
ID: 3700
Comment: Provided by www.caymanchem.com/app/template/landing%2CForensic.vm / Item #9001055  Lot #0433542 / SWGDRUG Monograph available
Num Peaks: 111
41 7; 42 31; 43 2; 44 6; 51 2; 
53 1; 54 2; 55 11; 56 4; 57 3; 
58 1; 63 1; 65 1; 67 3; 68 7; 
70 92; 71 4; 74 1; 75 3; 76 3; 
77 8; 78 2; 79 1; 80 1; 81 2; 
82 9; 83 5; 84 1; 88 1; 89 2; 
94 4; 96 22; 98 999; 99 76; 100 3; 
101 9; 102 14; 103 4; 110 3; 111 3; 
112 1; 113 1; 114 2; 115 5; 116 2; 
117 1; 125 1; 126 13; 127 85; 128 27; 
129 24; 130 4; 139 2; 140 1; 141 3; 
143 1; 144 2; 151 1; 152 1; 155 45; 
156 7; 157 1; 158 1; 163 1; 167 2; 
168 1; 170 1; 184 1; 187 1; 189 1; 
200 1; 201 1; 202 1; 211 1; 212 1; 
213 7; 214 3; 215 3; 224 2; 225 4; 
226 8; 227 3; 228 3; 229 1; 238 1; 
239 2; 240 6; 241 8; 242 2; 251 1; 
252 1; 253 5; 254 21; 255 10; 256 4; 
265 1; 266 4; 267 2; 268 2; 269 4; 
270 4; 271 1; 281 1; 282 4; 283 5; 
284 18; 285 5; 286 1; 380 2; 381 1; 
382 1; 
