Name: AH 7921
Synon: 3,4-Dichloro-N-[(1-dimethylamino)cyclohexylmethyl]benzamide
Synon: Doxylam
InChIKey: JMZROFPPEXCTST-UHFFFAOYSA-N
Formula: C16H22Cl2N2O
MW: 328
ExactMass: 328.110918
CASNO: 55154308
ID: 3706
Comment: Provided by www.caymanchem.com/app/template/landing%2CForensic.vm / Item #12036  Lot #0441684 / SWGDRUG Monograph available
Num Peaks: 104
40 2; 41 13; 42 18; 43 3; 44 16; 
45 2; 46 5; 50 2; 51 2; 52 1; 
53 6; 54 4; 55 20; 56 14; 58 23; 
59 1; 61 1; 62 1; 63 1; 65 3; 
66 2; 67 9; 68 21; 69 5; 70 19; 
71 6; 72 3; 73 4; 74 12; 75 16; 
76 1; 77 8; 78 2; 79 13; 80 4; 
81 20; 82 19; 83 5; 84 38; 85 8; 
86 2; 87 1; 91 2; 92 1; 93 2; 
94 7; 95 7; 96 46; 97 15; 98 2; 
99 3; 100 1; 103 1; 107 1; 108 6; 
109 26; 110 26; 111 15; 112 14; 113 1; 
119 1; 120 2; 121 1; 122 2; 124 29; 
126 999; 127 91; 128 3; 136 1; 137 1; 
138 5; 139 3; 140 2; 141 1; 145 60; 
146 7; 147 37; 148 4; 149 6; 150 1; 
153 11; 154 1; 171 2; 173 65; 174 8; 
175 45; 176 3; 177 6; 185 1; 186 1; 
190 1; 192 1; 201 1; 202 1; 207 3; 
209 1; 229 1; 281 1; 282 1; 283 5; 
285 2; 326 3; 327 1; 328 2; 
