Name: A-836,339
Synon: N-[(2E)-3-(2-methoxyethyl)-4,5-dimethyl-thiazol-2(3H)-ylidene]-2,2,3,3-tetramethylcyclopropanecarboxamide
InChIKey: JKGIMVBQKSRTGX-VKAVYKQESA-N
Formula: C16H26N2O2S
MW: 310
ExactMass: 310.1715
CASNO: 959746771
ID: 3715
Comment: DEA SWL / SWGDRUG Monograph available
Num Peaks: 176
38 2; 39 53; 40 11; 41 124; 42 28; 
43 77; 44 6; 45 61; 46 2; 47 5; 
50 2; 51 7; 52 4; 53 79; 54 20; 
55 214; 56 23; 57 58; 58 48; 59 564; 
60 22; 61 4; 63 1; 65 10; 66 7; 
67 46; 68 12; 69 37; 70 5; 71 26; 
72 6; 73 4; 74 1; 77 8; 78 2; 
79 28; 80 8; 81 62; 82 15; 83 69; 
84 10; 85 45; 86 50; 87 28; 88 3; 
89 2; 91 3; 92 1; 93 5; 94 5; 
95 51; 96 17; 97 21; 98 8; 99 4; 
100 10; 101 4; 102 3; 104 1; 105 1; 
106 1; 107 2; 108 10; 109 33; 110 12; 
111 4; 112 8; 113 324; 114 50; 115 17; 
116 2; 118 1; 120 1; 121 3; 122 1; 
123 5; 124 6; 125 89; 126 15; 127 40; 
128 267; 129 57; 130 15; 131 3; 137 1; 
138 1; 139 16; 140 8; 141 46; 142 9; 
143 3; 151 1; 152 2; 153 53; 154 36; 
155 158; 156 40; 157 10; 158 3; 160 1; 
161 1; 165 2; 166 2; 167 7; 168 8; 
169 50; 170 28; 171 32; 172 15; 173 3; 
178 2; 179 9; 180 2; 181 14; 182 2; 
183 8; 184 4; 185 11; 186 6; 187 139; 
188 14; 189 7; 190 1; 191 1; 192 1; 
193 12; 194 7; 195 6; 196 1; 197 3; 
207 4; 208 1; 209 3; 210 2; 211 2; 
212 4; 213 999; 214 113; 215 53; 216 5; 
217 1; 219 3; 220 1; 221 3; 222 1; 
223 1; 224 2; 225 2; 226 3; 227 638; 
228 88; 229 34; 230 4; 235 3; 236 1; 
237 10; 238 1; 239 1; 242 1; 249 1; 
251 1; 252 45; 253 6; 254 3; 255 1; 
267 10; 268 1; 269 4; 277 2; 279 1; 
295 74; 296 12; 297 4; 310 96; 311 17; 
312 6; 
