Name: Testosterone Undecanoate
Synon: 5-.alpha.-Androstan-3-one, 17-.beta.-hydroxy-, undecanoate
InChIKey: UDSFVOAUHKGBEK-UHFFFAOYSA-N
Formula: C30H48O3
MW: 456
ExactMass: 456.360346
CASNO: 5949440
ID: 3720
Comment: DEA SWL / SWGDRUG Monograph available
Num Peaks: 237
40 15; 41 252; 42 55; 43 381; 44 21; 
45 7; 50 2; 51 3; 53 41; 54 19; 
55 318; 56 41; 57 295; 58 13; 59 11; 
60 36; 61 6; 63 3; 65 27; 66 17; 
67 166; 68 27; 69 157; 70 26; 71 158; 
72 6; 73 32; 74 6; 75 3; 77 110; 
78 30; 79 231; 80 36; 81 192; 82 40; 
83 122; 84 37; 85 137; 86 8; 87 15; 
89 2; 91 252; 92 48; 93 193; 94 73; 
95 266; 96 32; 97 106; 98 28; 99 14; 
100 5; 101 12; 103 15; 104 24; 105 201; 
106 43; 107 191; 108 50; 109 185; 110 44; 
111 73; 112 12; 114 6; 115 50; 116 15; 
117 77; 118 34; 119 153; 120 55; 121 155; 
122 94; 123 195; 124 999; 125 119; 126 11; 
127 5; 128 21; 129 54; 130 25; 131 153; 
132 50; 133 187; 134 128; 135 113; 136 54; 
137 74; 138 33; 139 6; 141 18; 142 15; 
143 56; 144 78; 145 167; 146 279; 147 824; 
148 193; 149 164; 150 34; 151 11; 152 4; 
153 7; 154 4; 155 21; 156 18; 157 48; 
158 27; 159 99; 160 37; 161 80; 162 55; 
163 51; 164 16; 165 26; 166 5; 167 7; 
168 11; 169 402; 170 49; 171 44; 172 32; 
173 65; 174 42; 175 48; 176 23; 177 15; 
178 6; 179 4; 180 3; 181 10; 182 3; 
183 21; 184 12; 185 143; 186 39; 187 49; 
188 25; 189 31; 190 6; 191 1; 193 6; 
195 5; 196 8; 197 26; 198 9; 199 28; 
200 36; 201 24; 202 11; 203 17; 204 2; 
205 3; 208 4; 209 7; 210 7; 211 31; 
212 13; 213 90; 214 21; 215 16; 216 10; 
217 7; 218 5; 221 5; 223 7; 224 4; 
225 20; 226 17; 227 83; 228 214; 229 69; 
230 224; 231 62; 232 7; 233 3; 236 3; 
237 25; 238 5; 240 3; 241 10; 242 22; 
243 19; 244 20; 245 57; 246 19; 247 6; 
249 3; 251 8; 252 34; 253 84; 254 22; 
255 52; 256 9; 257 7; 258 2; 259 5; 
260 27; 261 6; 262 3; 265 3; 267 2; 
268 3; 269 15; 270 92; 271 147; 272 33; 
273 61; 274 13; 275 4; 281 3; 282 2; 
286 5; 287 24; 288 133; 289 39; 290 6; 
296 3; 301 3; 325 3; 327 1; 330 7; 
331 3; 333 6; 355 2; 371 12; 372 6; 
374 5; 396 2; 414 29; 415 13; 428 2; 
429 4; 438 5; 441 3; 451 3; 456 71; 
457 24; 458 3; 
