Name: Testosterone Propionate
Synon: Androst-4-en-3-one, 17.beta.-hydroxy-, propionate
InChIKey: PDMMFKSKQVNJMI-UHFFFAOYSA-N
Formula: C22H32O3
MW: 344
ExactMass: 344.235146
CASNO: 57852
ID: 3721
Comment: DEA SWL / SWGDRUG Monograph available
Num Peaks: 104
40 16; 41 117; 43 62; 51 18; 53 73; 
55 212; 56 23; 57 999; 58 33; 65 39; 
66 17; 67 134; 69 35; 73 16; 77 143; 
78 35; 79 229; 80 35; 81 141; 82 16; 
83 24; 91 297; 92 48; 93 177; 94 71; 
95 120; 96 38; 97 53; 103 35; 104 20; 
105 218; 106 63; 107 172; 108 64; 109 134; 
110 36; 111 45; 115 51; 116 20; 117 82; 
118 31; 119 125; 120 65; 121 116; 122 78; 
123 161; 124 725; 125 94; 128 27; 129 49; 
130 22; 131 116; 132 56; 133 173; 134 114; 
135 75; 136 50; 137 54; 138 15; 143 34; 
144 42; 145 102; 146 179; 147 563; 148 138; 
149 81; 150 15; 157 31; 158 27; 159 77; 
160 33; 161 43; 162 25; 163 30; 165 25; 
171 24; 172 30; 173 36; 174 24; 183 16; 
185 113; 186 34; 187 15; 199 21; 201 16; 
209 3; 213 60; 227 18; 228 131; 229 30; 
230 63; 245 16; 246 23; 253 15; 255 27; 
259 38; 270 25; 271 18; 273 23; 288 26; 
302 83; 341 15; 344 95; 345 21; 
