Name: UR-144 cyclopropyl rearrangement product
Synon: 3,3,4-trimethyl-1-(1-pentyl-1H-indol-3-yl)pent-4-en-1-one
Synon: UR-144 Degradant
InChIKey: NBJHWTCAQOYUND-UHFFFAOYSA-N
Formula: C21H29NO
MW: 311
ExactMass: 311.224915
CASNO: 0
ID: 3728
Comment: DEA SFL1 / unconfirmed - from UR-144 lot # ALB-214-11 / SWGDRUG Monograph available
Num Peaks: 147
29 76; 32 6; 36 3; 38 10; 39 106; 
40 15; 41 318; 42 30; 43 367; 44 15; 
50 10; 51 17; 52 12; 53 45; 54 16; 
55 229; 56 23; 57 27; 59 16; 63 15; 
65 19; 67 57; 69 38; 73 1; 75 16; 
76 20; 77 44; 78 13; 79 29; 81 54; 
82 18; 83 88; 84 11; 88 17; 89 70; 
90 20; 91 19; 96 7; 97 5; 101 31; 
102 78; 103 52; 104 13; 105 4; 109 43; 
110 4; 112 17; 114 27; 115 128; 116 180; 
117 59; 118 27; 120 10; 126 5; 127 32; 
128 76; 129 110; 130 281; 131 55; 132 14; 
133 5; 139 5; 140 16; 141 17; 142 32; 
143 108; 144 490; 145 57; 152 14; 153 12; 
154 53; 155 25; 156 48; 157 29; 158 29; 
165 14; 166 18; 167 59; 168 52; 169 17; 
170 44; 171 16; 172 136; 173 36; 179 11; 
180 38; 181 27; 182 41; 183 19; 184 31; 
185 16; 186 32; 187 87; 188 30; 191 5; 
193 7; 194 25; 195 11; 196 44; 197 16; 
198 30; 199 7; 200 72; 201 20; 208 9; 
209 6; 210 30; 211 6; 212 56; 213 20; 
214 999; 215 149; 216 20; 224 18; 225 10; 
226 11; 227 12; 228 29; 229 493; 230 85; 
231 5; 238 47; 239 7; 240 9; 252 52; 
253 21; 254 73; 255 29; 256 20; 268 67; 
269 20; 270 10; 278 12; 280 6; 281 11; 
282 16; 283 4; 293 8; 294 34; 295 14; 
296 407; 297 89; 298 11; 310 18; 311 198; 
312 44; 313 4; 
