Name: XLR11 N-(2-fluoropentyl) isomer
Synon: (1-(2-fluoropentyl)-1H-indol-3-yl)(2,2,3,3-tetramethylcyclopropyl)methanone
InChIKey: QWKOFFDPSCMXAL-UHFFFAOYSA-N
Formula: C21H28FNO
MW: 329
ExactMass: 329.215492
CASNO: 0
ID: 3729
Comment: Provided by www.caymanchem.com/app/template/landing%2CForensic.vm / Item #11767  Lot #0440237 / SWGDRUG Monograph available
Num Peaks: 194
41 36; 42 2; 43 15; 47 10; 51 1; 
52 1; 53 7; 55 36; 56 2; 57 7; 
58 1; 59 7; 60 1; 61 2; 62 1; 
63 2; 65 3; 66 1; 67 8; 69 18; 
70 1; 73 1; 74 1; 75 4; 76 3; 
77 10; 78 2; 79 9; 80 1; 81 20; 
82 2; 83 22; 87 1; 88 5; 89 12; 
90 3; 91 3; 95 3; 96 2; 97 8; 
101 9; 102 24; 103 11; 104 2; 105 1; 
107 1; 109 23; 110 3; 112 2; 113 3; 
114 8; 115 31; 116 41; 117 11; 118 5; 
120 2; 121 1; 125 6; 126 3; 127 8; 
128 29; 129 50; 130 64; 131 7; 132 1; 
133 4; 139 3; 140 4; 141 5; 142 6; 
143 33; 144 117; 145 14; 146 2; 148 3; 
150 1; 151 2; 152 6; 153 4; 154 24; 
155 9; 156 9; 157 14; 158 7; 159 1; 
160 1; 161 2; 162 1; 164 1; 165 4; 
166 9; 167 35; 168 28; 169 7; 170 7; 
172 8; 173 1; 174 2; 175 2; 176 4; 
177 1; 178 3; 180 48; 181 26; 182 26; 
183 9; 184 8; 185 2; 186 1; 188 5; 
189 1; 190 1; 191 1; 192 2; 193 4; 
194 25; 195 11; 196 47; 197 11; 198 7; 
199 1; 202 2; 203 3; 204 5; 205 19; 
206 20; 207 2; 208 5; 209 2; 210 26; 
211 6; 212 32; 213 5; 214 1; 216 1; 
217 1; 218 4; 219 1; 220 1; 221 1; 
222 3; 224 24; 225 5; 226 3; 227 1; 
228 1; 230 8; 232 999; 233 162; 234 16; 
235 1; 236 3; 237 1; 238 3; 239 10; 
240 1; 242 1; 244 1; 246 18; 247 58; 
248 8; 249 1; 250 2; 252 1; 254 9; 
256 39; 257 8; 258 3; 259 1; 260 1; 
261 1; 266 1; 268 1; 270 71; 271 48; 
272 11; 273 2; 284 1; 286 27; 287 7; 
288 13; 289 3; 294 3; 297 1; 299 6; 
300 3; 309 2; 312 6; 314 125; 315 29; 
316 3; 329 83; 330 20; 331 3; 
