Name: 4-Fluoro-UR-144
InChIKey: ROEZBBZNFJXHOC-UHFFFAOYSA-N
Synon: (1-(4-fluoropentyl)-1H-indol-3-yl)(2,2,3,3-tetramethylcyclopropyl)methanone
Synon: XLR11 N-(4-fluoropentyl) isomer
Synon: 4F-UR-144
Formula: C21H28FNO
MW: 329
ExactMass: 329.215492
CASNO: 0
ID: 3731
Comment: Provided by www.caymanchem.com/app/template/landing%2CForensic.vm / Item #11769  Lot #0439509 / SWGDRUG Monograph available
Num Peaks: 191
41 121; 42 8; 43 45; 45 1; 47 47; 
50 1; 51 6; 52 3; 53 23; 55 83; 
56 6; 57 16; 58 1; 59 15; 60 1; 
61 7; 62 3; 63 7; 64 1; 65 8; 
66 3; 67 21; 69 70; 70 4; 74 2; 
75 8; 76 7; 77 21; 78 6; 79 16; 
80 3; 81 47; 82 6; 83 58; 84 5; 
85 1; 87 5; 88 9; 89 37; 90 8; 
91 9; 93 1; 95 6; 96 6; 97 15; 
98 2; 99 1; 101 17; 102 45; 103 21; 
104 5; 106 3; 107 1; 109 53; 110 5; 
112 5; 113 8; 114 14; 115 65; 116 110; 
117 29; 118 11; 119 3; 120 6; 122 6; 
125 15; 126 5; 127 14; 128 49; 129 75; 
130 113; 131 15; 132 3; 139 7; 140 7; 
141 11; 142 13; 143 61; 144 317; 145 34; 
146 3; 148 2; 150 1; 151 2; 152 10; 
153 8; 154 32; 155 11; 156 23; 157 23; 
158 15; 159 2; 161 1; 162 1; 164 1; 
165 7; 166 13; 167 56; 168 43; 169 12; 
170 28; 171 8; 172 13; 173 2; 176 5; 
177 1; 178 4; 180 87; 181 41; 182 39; 
183 17; 184 22; 185 11; 186 7; 188 2; 
190 1; 191 3; 192 4; 194 48; 195 17; 
196 68; 197 19; 198 11; 199 2; 200 1; 
203 5; 204 6; 205 34; 206 23; 208 9; 
210 48; 212 239; 213 40; 214 4; 215 1; 
216 1; 217 1; 218 6; 219 2; 220 3; 
221 1; 222 4; 224 23; 225 7; 226 9; 
227 7; 228 1; 230 5; 232 999; 233 159; 
234 14; 235 1; 236 4; 237 2; 238 4; 
239 4; 240 2; 246 14; 247 53; 248 9; 
249 1; 250 4; 251 2; 252 3; 254 9; 
255 3; 256 18; 257 3; 258 2; 261 1; 
266 4; 268 2; 270 44; 271 24; 272 4; 
286 11; 287 3; 288 8; 289 1; 294 12; 
295 3; 299 2; 300 1; 309 7; 310 2; 
312 2; 314 40; 315 10; 316 1; 329 29; 
330 7; 
