Name: URB754
Synon: 6-methyl-2-[(4-methylphenyl)amino]-4H-3,1-benzoxazin-4-one
InChIKey: GFWNGVKCDGYFKG-UHFFFAOYSA-N
Formula: C16H14N2O2
MW: 266
ExactMass: 266.105528
CASNO: 86672584
ID: 3733
Comment: DEA SWL / SWGDRUG Monograph available
Num Peaks: 45
38 4; 39 19; 40 12; 41 3; 44 29; 
50 13; 51 45; 52 24; 53 12; 62 3; 
63 15; 64 5; 65 23; 75 5; 76 17; 
77 149; 78 38; 79 15; 89 9; 90 5; 
91 19; 102 11; 103 12; 104 211; 105 24; 
106 19; 107 4; 130 4; 131 9; 132 17; 
133 81; 134 8; 159 5; 160 999; 161 93; 
162 8; 194 4; 207 4; 221 3; 222 8; 
223 6; 265 30; 266 330; 267 61; 268 7; 
