Name: 5-Bromo-UR-144
Synon: (1-(5-bromopentyl)-1H-indol-3-yl)(2,2,3,3-tetramethylcyclopropyl)methanone
Synon: XLR11 Bromo Analog
Synon: 5-Br-UR-144
Synon: UR-144 N-(5-bromopentyl) isomer
InChIKey: HEWSXAZQMCDEMO-UHFFFAOYSA-N
Formula: C21H28BrNO
MW: 389
ExactMass: 389.135427
CASNO: 0
ID: 3736
Comment: DEA SWL / unconfirmed from sample / SWGDRUG Monograph available
Num Peaks: 250
36 2; 38 2; 39 45; 40 8; 41 234; 
42 15; 43 63; 44 2; 50 2; 51 10; 
52 4; 53 34; 54 7; 55 153; 56 10; 
57 26; 58 2; 59 11; 62 4; 63 11; 
64 3; 65 13; 66 4; 67 38; 68 4; 
69 175; 70 10; 74 2; 75 11; 76 12; 
77 33; 78 10; 79 28; 80 7; 81 71; 
82 12; 83 86; 84 8; 86 1; 87 3; 
88 12; 89 50; 90 14; 91 13; 93 5; 
94 1; 95 11; 96 10; 97 21; 100 1; 
101 27; 102 77; 103 38; 104 8; 105 5; 
106 5; 107 22; 108 1; 109 104; 110 9; 
111 2; 112 19; 114 20; 115 97; 116 143; 
117 48; 118 19; 120 33; 121 4; 123 2; 
124 1; 125 27; 127 39; 128 83; 129 144; 
130 201; 131 39; 132 9; 133 1; 137 1; 
139 9; 140 11; 141 14; 142 19; 143 96; 
144 397; 145 42; 146 3; 147 2; 149 4; 
151 7; 152 14; 153 10; 154 44; 155 18; 
156 45; 157 46; 158 29; 159 4; 164 1; 
165 9; 166 14; 167 77; 168 61; 169 15; 
170 74; 171 13; 172 22; 173 4; 177 1; 
178 6; 179 6; 180 62; 181 45; 182 62; 
183 22; 184 41; 185 14; 186 16; 187 3; 
188 1; 190 1; 191 3; 192 4; 193 6; 
194 34; 195 15; 196 70; 197 22; 198 17; 
199 3; 200 1; 204 2; 205 1; 206 4; 
207 4; 208 13; 209 6; 210 44; 211 11; 
212 94; 213 15; 214 8; 215 1; 220 3; 
221 4; 222 8; 223 4; 224 32; 225 9; 
226 8; 227 3; 228 3; 229 1; 234 4; 
235 1; 236 7; 237 3; 238 6; 239 6; 
240 3; 246 1; 248 30; 249 5; 250 14; 
251 4; 252 22; 253 5; 254 25; 255 4; 
262 2; 263 21; 264 5; 265 26; 266 20; 
267 22; 268 18; 269 2; 272 1; 276 1; 
278 4; 279 2; 280 5; 281 1; 286 1; 
287 1; 288 2; 289 1; 290 4; 291 7; 
292 999; 293 161; 294 992; 295 156; 296 16; 
297 1; 302 3; 303 1; 304 1; 305 1; 
306 13; 307 73; 308 24; 309 73; 310 15; 
311 3; 315 1; 316 54; 317 11; 318 57; 
319 11; 320 4; 321 3; 322 1; 323 2; 
327 1; 328 2; 329 1; 330 89; 331 60; 
332 84; 333 56; 334 13; 335 1; 344 2; 
345 11; 346 42; 347 12; 348 58; 349 11; 
350 19; 351 4; 358 1; 359 7; 360 2; 
361 6; 362 2; 372 10; 373 3; 374 186; 
375 41; 376 172; 377 37; 378 4; 388 2; 
389 141; 390 39; 391 151; 392 35; 393 4; 
