Name: UR-144
Synon: (1-Pentylindol-3-yl)-(2,2,3,3-tetramethylcyclopropyl)methanone
Synon: KM-X1
Synon: (1-Pentyl-1H-indol-3-yl)(2,2,3,3-tetramethylcyclopropyl)methanone
InChIKey: NBMMIBNZVQFQEO-UHFFFAOYSA-N
Formula: C21H29NO
MW: 311
ExactMass: 311.224915
CASNO: 1199943446
ID: 3737
Comment: Provided by www.caymanchem.com/app/template/landing%2CForensic.vm / Item #11502  Lot #0437163 / SWGDRUG Monograph available
Num Peaks: 160
40 2; 41 42; 42 4; 43 56; 44 1; 
51 2; 52 1; 53 8; 55 39; 56 2; 
57 6; 59 3; 62 1; 63 3; 64 1; 
65 2; 66 1; 67 7; 69 8; 71 1; 
75 3; 76 4; 77 9; 78 3; 79 9; 
81 19; 82 2; 83 25; 84 2; 87 1; 
88 4; 89 19; 90 4; 91 4; 93 1; 
95 2; 96 2; 97 5; 101 8; 102 19; 
103 11; 104 2; 105 1; 106 1; 109 21; 
110 2; 113 10; 114 5; 115 30; 116 56; 
117 15; 118 8; 120 8; 125 5; 126 2; 
127 7; 128 24; 129 35; 130 57; 131 9; 
132 3; 139 3; 140 3; 141 5; 142 6; 
143 30; 144 186; 145 19; 146 1; 148 1; 
151 1; 152 5; 153 4; 154 15; 155 5; 
156 10; 157 8; 158 8; 159 2; 165 3; 
166 6; 167 34; 168 28; 169 5; 170 14; 
171 2; 172 6; 173 1; 178 2; 179 3; 
180 24; 181 19; 182 29; 183 10; 184 9; 
185 7; 186 6; 187 28; 188 19; 189 2; 
191 1; 192 2; 193 3; 194 13; 195 6; 
196 36; 197 12; 198 9; 199 2; 200 4; 
201 1; 204 1; 206 2; 207 1; 208 4; 
209 2; 210 27; 211 6; 212 13; 214 999; 
215 159; 216 15; 217 2; 220 1; 222 1; 
224 17; 225 7; 226 3; 228 17; 229 67; 
230 11; 231 1; 236 1; 238 65; 239 15; 
240 4; 241 1; 242 1; 243 2; 252 76; 
253 43; 254 20; 255 4; 256 1; 266 1; 
268 34; 269 8; 270 18; 271 3; 280 1; 
281 6; 282 2; 283 1; 294 8; 296 124; 
297 27; 298 3; 311 99; 312 23; 313 3; 
