Name: 1-[3-(Trifluoromethyl)phenyl]piperazine
Synon: TFMPP
Synon: 3-TFMPP
Synon: 1-(m-Trifluoromethylphenyl) piperazine
Synon: m-TFMPP
Synon: meta-TFMPP
InChIKey: KKIMDKMETPPURN-UHFFFAOYSA-N
Formula: C11H13F3N2
MW: 230
ExactMass: 230.103083
CASNO: 15532759
ID: 3738
Comment: DEA SWL / SWGDRUG Monograph available
Num Peaks: 120
40 2; 41 14; 42 38; 43 12; 44 6; 
50 13; 51 15; 52 4; 53 1; 54 13; 
55 14; 56 135; 57 59; 58 4; 62 3; 
63 9; 64 3; 65 2; 68 3; 69 9; 
70 1; 73 1; 74 6; 75 29; 76 11; 
77 13; 78 3; 80 1; 81 5; 82 1; 
83 8; 84 1; 85 1; 87 1; 88 3; 
89 3; 90 2; 91 4; 92 1; 93 1; 
94 2; 95 34; 96 6; 99 5; 100 3; 
101 3; 102 2; 103 2; 104 4; 105 15; 
107 5; 108 1; 109 11; 113 2; 114 8; 
115 2; 117 4; 118 6; 119 13; 120 2; 
121 1; 125 24; 126 15; 127 25; 128 2; 
130 4; 131 3; 132 3; 133 2; 134 1; 
135 1; 138 1; 139 2; 140 3; 141 3; 
143 1; 144 1; 145 170; 146 15; 147 1; 
148 3; 151 2; 152 1; 153 1; 154 14; 
155 1; 156 2; 159 37; 160 5; 161 1; 
162 1; 166 5; 168 2; 169 7; 170 1; 
172 156; 173 89; 174 35; 175 11; 176 1; 
180 2; 185 2; 186 5; 188 999; 189 99; 
190 5; 198 2; 199 1; 200 9; 201 2; 
202 1; 211 38; 212 5; 213 1; 215 1; 
227 1; 228 5; 230 198; 231 25; 232 1; 
