Name: Secobarbital
Synon: Seconal
Synon: 5-[(2R)-pentan-2-yl]-5-prop-2-enyl-1,3-diazinane-2,4,6-trione
InChIKey: KQPKPCNLIDLUMF-UHFFFAOYSA-N
Formula: C12H18N2O3
MW: 238
ExactMass: 238.1317425
CASNO: 76733
ID: 3741
Comment: DEA SWL / SWGDRUG Monograph available
Num Peaks: 112
40 32; 41 469; 42 64; 43 405; 44 70; 
45 5; 50 11; 51 33; 52 43; 53 161; 
54 43; 55 147; 56 21; 57 7; 58 2; 
61 3; 62 1; 63 4; 64 1; 65 24; 
66 20; 67 51; 68 34; 69 63; 70 51; 
71 41; 72 3; 73 2; 76 1; 77 38; 
78 26; 79 78; 80 48; 81 58; 82 26; 
83 26; 84 6; 85 6; 86 1; 87 2; 
91 13; 92 4; 93 11; 94 20; 95 25; 
96 116; 97 291; 98 61; 99 5; 100 1; 
104 1; 105 2; 106 51; 107 16; 108 88; 
109 38; 110 21; 111 6; 112 46; 113 5; 
120 2; 121 7; 122 13; 123 14; 124 235; 
125 36; 126 14; 127 1; 128 4; 129 12; 
133 1; 134 2; 135 6; 136 10; 137 4; 
138 10; 139 11; 140 12; 141 78; 142 8; 
143 1; 149 5; 150 15; 151 58; 152 19; 
153 227; 154 30; 155 80; 156 6; 164 1; 
165 8; 167 954; 168 999; 169 153; 170 14; 
171 1; 177 1; 179 10; 180 1; 181 54; 
182 6; 183 1; 191 1; 195 212; 196 63; 
197 39; 198 4; 207 1; 209 9; 210 1; 
221 1; 223 2; 
