Name: Scopolamine
Synon: Hyoscine
Synon: Scopine tropate
Synon: Levo-duboisine
Synon: (-)-(S)-3-hydroxy-2-phenylpropionic acid(1R,2R,4S,7S,9S)-9-methyl-3-oxa-9-azatricyclo[3.3.1.02,4]non-7-yl ester
Synon: Transdremscop
InChIKey: STECJAGHUSJQJN-UHFFFAOYSA-N
Formula: C17H21NO4
MW: 303
ExactMass: 303.147058
CASNO: 51343
ID: 3742
Comment: DEA SWL / SWGDRUG Monograph available
Num Peaks: 102
40 13; 41 124; 42 362; 43 43; 44 49; 
45 4; 50 11; 51 40; 52 13; 53 38; 
54 29; 55 74; 56 47; 57 100; 58 29; 
59 2; 60 2; 61 1; 62 6; 63 25; 
64 10; 65 68; 66 25; 67 84; 68 110; 
69 42; 70 60; 71 6; 72 15; 73 4; 
74 4; 75 4; 76 5; 77 168; 78 60; 
79 103; 80 40; 81 188; 82 129; 83 36; 
84 41; 85 2; 86 14; 87 2; 89 63; 
90 88; 91 182; 92 26; 93 86; 94 999; 
95 103; 96 96; 97 255; 98 37; 99 5; 
101 1; 102 15; 103 250; 104 59; 105 11; 
106 25; 107 54; 108 539; 109 99; 110 133; 
111 25; 112 11; 114 2; 115 2; 117 1; 
118 62; 119 12; 120 137; 121 110; 122 35; 
123 6; 124 9; 126 20; 127 2; 131 2; 
133 3; 135 9; 136 395; 137 154; 138 820; 
139 76; 140 6; 147 3; 148 1; 154 304; 
155 34; 156 4; 207 3; 208 2; 214 3; 
253 2; 281 1; 285 8; 286 3; 303 128; 
304 25; 305 2; 
