Name: Salvinorin A
Synon: Methyl (2S,4aR,6aR,7R,9S,10aS,10bR)-9-(acetyloxy)-2-(furan-3-yl)-6a,10b-dimethyl-4,10-dioxododecahydro-2H-benzo[f]isochromene-7-carboxylate
Synon: Divinorin A
InChIKey: OBSYBRPAKCASQB-UHFFFAOYSA-N
Formula: C23H28O8
MW: 432
ExactMass: 432.178417
CASNO: 83729015
ID: 3743
Comment: Broward Sheriff Office Drug Library / SWGDRUG Monograph available
Num Peaks: 294
31 3; 32 2; 33 1; 38 3; 39 40; 
40 11; 41 62; 42 14; 43 588; 44 21; 
45 9; 50 2; 51 9; 52 4; 53 49; 
54 7; 55 139; 56 8; 57 6; 58 1; 
59 33; 60 1; 61 5; 63 3; 64 2; 
65 46; 66 31; 67 63; 68 24; 69 27; 
70 2; 71 6; 73 4; 74 1; 75 1; 
77 78; 78 17; 79 98; 80 19; 81 134; 
82 29; 83 18; 84 8; 85 14; 86 26; 
87 47; 88 3; 89 3; 90 1; 91 137; 
92 20; 93 142; 94 999; 95 205; 96 28; 
97 23; 98 34; 99 10; 100 22; 101 4; 
102 3; 103 18; 104 8; 105 93; 106 31; 
107 156; 108 106; 109 49; 110 15; 111 21; 
112 6; 113 4; 114 5; 115 31; 116 49; 
117 37; 118 14; 119 67; 120 27; 121 172; 
122 29; 123 34; 124 13; 125 12; 126 6; 
127 11; 128 19; 129 25; 130 10; 131 50; 
132 16; 133 47; 134 23; 135 75; 136 12; 
137 15; 138 7; 139 8; 140 3; 141 11; 
142 8; 143 18; 144 11; 145 44; 146 44; 
147 50; 148 26; 149 35; 150 10; 151 19; 
152 8; 153 35; 154 13; 155 10; 156 4; 
157 16; 158 17; 159 34; 160 15; 161 30; 
162 12; 163 18; 164 4; 165 14; 166 103; 
167 21; 168 5; 169 8; 170 4; 171 10; 
172 7; 173 19; 174 10; 175 28; 176 10; 
177 11; 178 7; 179 18; 180 11; 181 7; 
182 3; 183 6; 184 3; 185 8; 186 3; 
187 15; 188 8; 189 14; 190 9; 191 16; 
192 12; 193 13; 194 3; 195 4; 196 1; 
197 3; 198 5; 199 11; 200 6; 201 10; 
202 5; 203 10; 204 4; 205 9; 206 28; 
207 12; 208 4; 209 6; 210 3; 211 6; 
212 1; 213 4; 214 3; 215 4; 216 18; 
217 11; 218 3; 219 9; 220 51; 221 12; 
222 4; 223 4; 224 4; 225 3; 226 2; 
227 5; 228 3; 229 3; 230 2; 231 4; 
232 2; 233 17; 234 10; 235 12; 236 2; 
237 3; 239 1; 240 2; 241 1; 242 1; 
243 2; 244 5; 245 6; 246 3; 247 8; 
248 11; 249 5; 250 1; 251 5; 252 32; 
253 7; 255 2; 257 2; 258 3; 259 3; 
260 2; 261 5; 262 5; 263 1; 264 1; 
265 2; 266 8; 267 3; 268 3; 269 2; 
271 1; 273 93; 274 18; 275 3; 276 19; 
277 5; 278 8; 279 3; 281 2; 283 1; 
284 1; 285 1; 286 1; 287 3; 291 1; 
292 1; 293 2; 294 21; 295 7; 296 2; 
297 1; 299 1; 300 1; 301 1; 303 3; 
304 2; 305 1; 307 1; 308 1; 310 1; 
311 1; 312 1; 313 4; 314 1; 315 1; 
318 20; 319 4; 321 15; 322 3; 325 2; 
326 1; 327 1; 328 6; 329 4; 330 1; 
339 2; 343 4; 344 2; 346 4; 347 3; 
348 1; 354 6; 355 6; 356 2; 357 3; 
358 1; 359 22; 360 7; 361 3; 362 1; 
372 1; 389 4; 390 4; 403 2; 404 22; 
405 7; 432 28; 433 6; 434 1; 
