Name: Phentermine
Synon: .alpha.,.alpha.-Dimethylphenethylamine
Synon: Fastin
Synon: Adipex
InChIKey: DHHVAGZRUROJKS-UHFFFAOYSA-N
Formula: C10H15N
MW: 149
ExactMass: 149.120449
CASNO: 122098
ID: 3752
Comment: DEA SWL / SWGDRUG Monograph available
Num Peaks: 50
38 3; 39 36; 40 3; 41 62; 42 73; 
43 14; 50 7; 51 20; 52 6; 53 3; 
54 2; 55 1; 56 9; 57 11; 58 999; 
59 37; 62 4; 63 15; 64 4; 65 48; 
66 4; 67 4; 74 1; 75 1; 76 1; 
77 11; 78 4; 79 2; 89 12; 90 5; 
91 107; 92 13; 93 1; 102 1; 103 3; 
104 2; 105 2; 106 1; 115 24; 116 6; 
117 25; 118 7; 119 4; 128 1; 130 2; 
131 1; 132 6; 133 2; 134 54; 135 5; 
