Name: Phenobarbital
Synon: Phenobarbitone
Synon: Luminal
Synon: 5-ethyl-5-phenylpyrimidine-2,4,6(1H,3H,5H)-trione
InChIKey: DDBREPKUVSBGFI-UHFFFAOYSA-N
Formula: C12H12N2O3
MW: 232
ExactMass: 232.084792
CASNO: 50066
ID: 3753
Comment: DEA SWL / SWGDRUG Monograph available
Num Peaks: 104
40 7; 41 10; 42 4; 43 18; 44 25; 
45 3; 50 34; 51 129; 53 10; 54 5; 
55 4; 56 2; 58 86; 59 4; 61 4; 
62 23; 63 70; 64 12; 65 41; 68 1; 
69 4; 70 26; 71 3; 73 16; 74 13; 
75 16; 76 30; 77 154; 78 66; 79 8; 
80 3; 85 1; 86 5; 87 12; 88 9; 
89 104; 90 54; 91 136; 92 19; 93 5; 
94 4; 98 3; 101 4; 102 41; 103 163; 
104 123; 105 69; 106 9; 112 5; 113 3; 
114 2; 115 212; 116 62; 117 409; 118 170; 
119 16; 120 1; 128 11; 129 3; 130 8; 
131 20; 132 55; 133 63; 134 7; 135 1; 
141 4; 142 5; 143 58; 144 64; 145 12; 
146 151; 147 21; 155 5; 156 10; 157 1; 
158 3; 159 4; 160 65; 161 151; 162 22; 
163 1; 171 3; 172 14; 173 2; 174 79; 
175 12; 176 26; 177 3; 185 5; 186 7; 
187 17; 188 4; 189 32; 190 4; 204 999; 
205 117; 206 11; 207 1; 215 13; 216 1; 
217 32; 218 4; 232 106; 233 16; 
