Name: Phencyclidine
Synon: PCP
Synon: 1-(1-Phenylcyclohexyl)piperidine
Synon: Sernyl
InChIKey: JTJMJGYZQZDUJJ-UHFFFAOYSA-N
Formula: C17H25N
MW: 243
ExactMass: 243.1987
CASNO: 77101
ID: 3754
Comment: DEA SWL / SWGDRUG Monograph available
Num Peaks: 126
40 3; 41 66; 42 35; 43 9; 44 7; 
50 4; 51 19; 52 5; 53 22; 54 16; 
55 74; 56 41; 57 10; 58 1; 62 1; 
63 7; 64 2; 65 25; 66 4; 67 29; 
68 9; 69 12; 70 6; 72 1; 74 1; 
75 3; 76 7; 77 68; 78 22; 79 29; 
80 11; 81 60; 82 15; 83 17; 84 222; 
85 31; 86 29; 87 2; 89 11; 90 5; 
91 492; 92 40; 93 3; 94 2; 95 1; 
96 3; 97 1; 98 6; 100 1; 101 2; 
102 16; 103 71; 104 95; 105 27; 106 5; 
108 2; 110 5; 111 2; 113 1; 115 118; 
116 29; 117 162; 118 26; 119 3; 120 6; 
122 2; 124 12; 125 1; 126 2; 127 15; 
128 44; 129 68; 130 73; 131 18; 132 10; 
133 1; 136 2; 138 1; 139 1; 141 9; 
142 7; 143 40; 144 25; 145 7; 146 5; 
147 1; 150 2; 151 1; 152 2; 153 2; 
154 2; 155 2; 156 7; 157 9; 158 54; 
159 36; 160 11; 161 2; 162 5; 164 4; 
166 217; 167 27; 168 2; 170 6; 171 8; 
172 21; 173 5; 174 10; 175 1; 184 5; 
186 244; 187 40; 188 4; 198 6; 200 999; 
201 155; 202 12; 212 1; 214 20; 215 3; 
228 1; 240 1; 242 248; 243 219; 244 36; 
245 3; 
