Name: 2,3-Pentylone
Synon: 1-(benzo[d][1,3]dioxol-4-yl)-2-(methylamino)pentan-1-one
InChIKey: VLOXGPWMPMAHSR-UHFFFAOYSA-N
Formula: C13H17NO3
MW: 235
ExactMass: 235.120843
CASNO: 0
ID: 3755
Comment: Provided by www.caymanchem.com/app/template/landing%2CForensic.vm / Item #11463  Lot #0435925 / SWGDRUG Monograph available
Num Peaks: 87
40 3; 41 21; 42 71; 43 19; 44 222; 
45 6; 50 5; 51 10; 52 3; 53 13; 
54 6; 55 26; 56 37; 57 45; 58 29; 
59 1; 61 3; 62 16; 63 49; 64 13; 
65 108; 66 9; 67 1; 68 5; 69 2; 
70 24; 71 4; 74 3; 75 3; 76 3; 
77 10; 78 2; 79 4; 80 1; 81 1; 
82 1; 84 28; 86 999; 87 59; 88 1; 
89 3; 90 2; 91 26; 92 9; 93 5; 
94 1; 96 4; 102 1; 103 1; 104 1; 
105 2; 106 1; 107 3; 108 1; 115 1; 
116 1; 117 2; 118 1; 119 7; 120 4; 
121 23; 122 6; 123 1; 131 1; 132 1; 
133 1; 134 2; 135 7; 136 1; 144 1; 
146 1; 147 3; 149 61; 150 6; 151 1; 
161 1; 162 7; 163 1; 164 5; 174 1; 
175 1; 177 2; 190 1; 192 12; 193 2; 
206 1; 207 1; 
