Name: 2-Methylmethcathinone
Synon: 2-MMC
Synon: 2-(methylamino)-1-(2-methylphenyl)-1-propanone
InChIKey: PRGXFAWAMOFULD-UHFFFAOYSA-N
Formula: C11H15NO
MW: 177
ExactMass: 177.115364
CASNO: 1246815519
ID: 3773
Comment: Provided by www.caymanchem.com/app/template/landing%2CForensic.vm / Item #11223  Lot #0435098 / SWGDRUG Monograph available
Num Peaks: 59
40 5; 41 20; 42 44; 43 23; 44 3; 
46 1; 50 9; 51 18; 52 6; 53 3; 
54 4; 56 101; 58 999; 59 40; 61 2; 
62 10; 63 33; 64 10; 65 92; 66 5; 
74 3; 75 4; 76 3; 77 9; 78 3; 
79 1; 86 2; 87 2; 88 1; 89 31; 
90 14; 91 108; 92 10; 93 1; 102 1; 
103 4; 104 2; 105 6; 115 8; 116 2; 
117 4; 119 35; 120 3; 127 1; 128 2; 
129 1; 130 1; 131 3; 132 3; 134 1; 
144 3; 145 1; 146 2; 147 2; 158 1; 
160 3; 161 1; 162 2; 175 1; 
