Name: 4-Methyl-N-ethylcathinone
Synon: 4-MEC
Synon: 4-Methylethcathinone
Synon: 4-Methylethylcathinone
InChIKey: ZOXZWYWOECCBSH-UHFFFAOYSA-N
Formula: C12H17NO
MW: 191
ExactMass: 191.131014
CASNO: 1225617184
ID: 3774
Comment: QHFSS Lab / Lipomed / SWGDRUG Monograph available
Num Peaks: 62
41 10; 42 31; 43 8; 44 212; 45 6; 
50 4; 51 9; 52 3; 53 2; 54 1; 
55 5; 56 26; 57 4; 62 4; 63 18; 
64 5; 65 59; 66 3; 68 1; 69 1; 
70 18; 71 7; 72 999; 73 49; 74 2; 
75 2; 76 1; 77 7; 78 2; 79 1; 
86 1; 87 1; 89 20; 90 8; 91 87; 
92 9; 93 2; 102 1; 103 3; 104 1; 
105 8; 106 1; 115 4; 116 1; 117 3; 
118 2; 119 44; 120 4; 128 1; 130 1; 
131 2; 132 1; 133 3; 146 5; 147 3; 
148 5; 158 1; 160 1; 174 1; 176 3; 
190 1; 191 1; 
