Name: 2-Methylethcathinone
Synon: 2-MEC
Synon: 2-(ethylamino)-1-(o-tolyl)propan-1-one
InChIKey: DGQUHAZEXMTKBQ-UHFFFAOYSA-N
Formula: C12H17NO
MW: 191
ExactMass: 191.131014
CASNO: 0
ID: 3776
Comment: Provided by www.caymanchem.com/app/template/landing%2CForensic.vm / Item #11221  Lot #0436091 / SWGDRUG Monograph available
Num Peaks: 63
40 4; 41 15; 42 58; 44 262; 45 7; 
50 7; 51 15; 52 4; 53 3; 54 2; 
55 4; 56 35; 57 5; 61 1; 62 7; 
63 26; 64 9; 65 85; 66 5; 68 2; 
70 37; 72 999; 73 49; 74 3; 75 3; 
76 2; 77 10; 78 3; 79 2; 81 1; 
86 1; 87 1; 89 28; 90 13; 91 113; 
92 11; 93 1; 102 1; 103 4; 104 2; 
105 8; 115 9; 116 3; 117 5; 119 39; 
120 4; 127 1; 128 3; 129 2; 130 2; 
131 4; 132 2; 144 1; 145 1; 146 4; 
147 1; 148 3; 158 3; 160 2; 173 2; 
174 2; 175 1; 176 1; 
