Name: MDAI
Synon: 6,7-Dihydro-5H-indeno[5,6-d]-1,3-dioxol-6-amine
Synon: 5,6-MDAI
Synon: 5,6-Methylenedioxy-2-aminoindane
InChIKey: FQDRMHHCWZAXJM-UHFFFAOYSA-N
Formula: C10H11NO2
MW: 177
ExactMass: 177.078979
CASNO: 13274812
ID: 3781
Comment: DEA SWL / SWGDRUG Monograph available
Num Peaks: 90
37 4; 38 19; 39 84; 40 24; 41 40; 
42 56; 43 45; 44 55; 45 5; 46 13; 
49 5; 50 86; 51 124; 52 47; 53 59; 
54 25; 55 9; 56 6; 57 2; 58 70; 
59 23; 61 9; 62 30; 63 81; 64 29; 
65 119; 66 20; 67 20; 68 8; 73 4; 
74 37; 75 32; 76 42; 77 113; 78 37; 
79 36; 80 31; 81 4; 86 6; 87 36; 
89 107; 90 49; 91 231; 92 64; 93 25; 
94 15; 101 14; 102 159; 103 66; 104 93; 
105 23; 106 17; 107 14; 114 3; 115 8; 
116 24; 117 83; 118 203; 119 74; 120 45; 
121 17; 122 3; 128 3; 129 5; 130 339; 
131 67; 132 53; 133 19; 134 13; 135 274; 
136 27; 145 10; 146 63; 147 62; 148 44; 
149 691; 150 109; 151 9; 158 3; 159 44; 
160 999; 161 133; 162 44; 163 4; 174 36; 
175 24; 176 103; 177 702; 178 76; 179 6; 
