Name: 5-Methoxy-N,N-Diisopropyltryptamine
Synon: 5-MeO-DIPT
Synon: TIHKAL #37
InChIKey: DNBPMBJFRRVTSJ-UHFFFAOYSA-N
Formula: C17H26N2O
MW: 274
ExactMass: 274.204514
CASNO: 4021345
ID: 3787
Comment: DEA SWL / SWGDRUG Monograph available
Num Peaks: 72
40 1; 41 22; 42 10; 43 44; 44 4; 
51 2; 52 2; 53 1; 54 1; 55 2; 
56 28; 57 4; 58 3; 63 4; 64 1; 
65 1; 70 13; 71 5; 72 165; 73 7; 
75 1; 76 2; 77 7; 78 2; 84 2; 
86 3; 87 1; 88 1; 89 11; 90 10; 
91 3; 98 3; 99 1; 100 3; 101 2; 
102 5; 103 7; 104 3; 105 1; 109 2; 
112 3; 114 999; 115 83; 116 11; 117 37; 
118 6; 128 4; 129 5; 130 22; 131 9; 
132 3; 142 2; 143 7; 144 6; 145 36; 
146 8; 147 2; 156 1; 157 1; 158 7; 
159 12; 160 73; 161 10; 162 1; 172 2; 
173 5; 174 24; 175 2; 188 1; 243 1; 
257 1; 274 1; 
