Name: Methoxetamine
Synon: MXE
Synon: 3-MeO-2-Oxo-PCE
Synon: 2-(3-methoxyphenyl)-2-(ethylamino)cyclohexanone
InChIKey: LPKTWLVEGBNOOX-UHFFFAOYSA-N
Formula: C15H21NO2
MW: 247
ExactMass: 247.157228
CASNO: 1239943760
ID: 3793
Comment: DEA SFL1 / Lot N16-P100C / SWGDRUG Monograph available
Num Peaks: 138
38 2; 39 24; 40 4; 41 34; 42 24; 
43 6; 44 66; 45 3; 46 2; 50 7; 
51 17; 52 9; 53 11; 54 21; 55 25; 
56 13; 57 2; 58 6; 62 3; 63 21; 
64 20; 65 29; 66 6; 67 21; 68 6; 
69 2; 70 3; 71 2; 72 2; 74 2; 
75 6; 76 15; 77 74; 78 24; 79 20; 
81 14; 82 7; 83 1; 84 13; 85 1; 
86 1; 88 26; 89 21; 90 23; 91 104; 
92 40; 93 10; 94 8; 95 11; 96 2; 
101 3; 102 19; 103 44; 104 25; 105 19; 
106 8; 107 24; 108 9; 109 8; 110 3; 
112 54; 113 5; 114 1; 115 51; 116 17; 
117 30; 118 46; 119 66; 120 16; 121 85; 
122 11; 123 1; 124 1; 127 7; 128 17; 
129 11; 130 25; 131 30; 132 42; 133 51; 
134 336; 135 47; 136 5; 139 1; 140 7; 
141 5; 142 3; 143 8; 144 14; 145 23; 
146 49; 147 120; 148 52; 149 12; 150 1; 
156 1; 157 2; 158 15; 159 18; 160 116; 
161 42; 162 84; 163 11; 164 9; 165 1; 
170 1; 171 1; 172 2; 173 6; 174 22; 
175 30; 176 186; 177 55; 178 5; 186 1; 
187 1; 188 32; 189 11; 190 999; 191 139; 
192 11; 200 2; 201 1; 202 4; 203 5; 
204 14; 205 2; 214 1; 216 1; 218 106; 
219 243; 220 37; 221 3; 228 1; 229 1; 
230 1; 247 5; 248 1; 
