Name: Methamphetamine
Synon: Desoxyephedrine
Synon: N,.alpha.-dimethylphenethylamine
Synon: Desoxyn
Synon: Metamfetamine
InChIKey: MYWUZJCMWCOHBA-UHFFFAOYSA-N
Formula: C10H15N
MW: 149
ExactMass: 149.120449
CASNO: 537462
ID: 3797
Comment: DEA SWL / SWGDRUG Monograph available
Num Peaks: 55
36 2; 38 3; 39 27; 40 1; 41 18; 
42 42; 43 17; 44 3; 50 8; 51 21; 
52 6; 53 2; 54 3; 55 2; 56 52; 
57 14; 58 999; 59 36; 62 4; 63 13; 
64 3; 65 38; 66 3; 67 2; 70 1; 
74 1; 75 2; 76 2; 77 14; 78 6; 
79 3; 89 11; 90 4; 91 84; 92 8; 
93 1; 102 2; 103 6; 104 4; 105 3; 
106 1; 115 15; 116 4; 117 14; 118 8; 
119 11; 120 1; 130 2; 131 1; 132 6; 
133 4; 134 21; 135 2; 146 1; 148 5; 
