Name: MDPPP
Synon: 3',4'-Methylenedioxy-.alpha.-pyrrolidinopropiophenone
Synon: 1-(1,3-benzodioxol-5-yl)-2-(1-pyrrolidinyl)-1-propanone
InChIKey: NIYQOTCYXGXMPI-UHFFFAOYSA-N
Formula: C14H17NO3
MW: 247
ExactMass: 247.120843
CASNO: 24698575
ID: 3800
Comment: ENFSI / University Copenhagen, Denmark / SWGDRUG Monograph available
Num Peaks: 64
40 1; 41 15; 42 13; 43 4; 44 12; 
50 1; 51 3; 52 1; 53 5; 54 9; 
55 25; 56 58; 57 3; 61 1; 62 6; 
63 20; 64 2; 65 27; 66 2; 67 2; 
68 6; 69 20; 70 11; 71 1; 74 2; 
77 2; 78 1; 79 2; 81 1; 89 1; 
91 14; 92 2; 93 1; 94 5; 95 1; 
96 21; 98 999; 99 63; 100 2; 103 1; 
117 1; 119 6; 120 2; 121 20; 122 2; 
135 3; 146 1; 147 1; 148 2; 149 43; 
150 4; 176 1; 177 1; 178 5; 204 2; 
216 1; 217 1; 230 1; 232 1; 243 1; 
244 1; 245 2; 246 1; 247 1; 
