Name: LSD
Synon: Lysergide
Synon: Lysergic acid diethylamide
Synon: TIHKAL #26
Synon: D-Lysergic acid N,N-diethylamide
Synon: (6aR,9R)- N,N- diethyl- 7-methyl- 4,6,6a,7,8,9- hexahydroindolo- [4,3-fg] quinoline- 9-carboxamide
Synon: LSD-25
InChIKey: VAYOSLLFUXYJDT-UHFFFAOYSA-N
Formula: C20H25N3O
MW: 323
ExactMass: 323.199762
CASNO: 50373
ID: 3804
Comment: DEA SWL / SWGDRUG Monograph available
Num Peaks: 166
36 11; 38 5; 39 8; 40 18; 41 17; 
42 91; 43 17; 44 136; 45 5; 46 3; 
50 2; 51 6; 52 2; 53 2; 54 5; 
55 16; 56 22; 57 5; 58 44; 59 2; 
63 5; 64 2; 65 2; 67 2; 68 4; 
69 2; 70 9; 71 5; 72 232; 73 38; 
74 24; 75 10; 76 13; 77 21; 78 5; 
80 2; 81 3; 82 5; 84 10; 85 3; 
86 10; 87 4; 88 2; 90 23; 91 3; 
93 2; 94 4; 96 9; 97 11; 98 4; 
99 3; 100 72; 101 10; 102 10; 103 17; 
104 9; 110 40; 111 56; 113 3; 114 5; 
115 18; 116 3; 117 5; 118 2; 124 2; 
125 13; 126 28; 127 74; 128 113; 129 14; 
130 9; 131 3; 133 5; 135 2; 137 2; 
138 5; 139 29; 140 27; 141 9; 142 7; 
143 4; 144 3; 147 6; 149 4; 150 30; 
151 99; 152 141; 153 96; 154 172; 155 37; 
156 5; 162 4; 163 15; 164 25; 165 47; 
166 38; 167 185; 168 53; 169 7; 170 2; 
175 2; 176 7; 177 22; 178 156; 179 119; 
180 239; 181 613; 182 116; 183 20; 189 2; 
190 12; 191 83; 192 158; 193 77; 194 59; 
195 59; 196 232; 197 35; 198 3; 203 5; 
204 9; 205 159; 206 110; 207 520; 208 183; 
209 48; 210 5; 218 4; 219 28; 220 114; 
221 910; 222 360; 223 243; 224 40; 225 3; 
233 2; 234 3; 235 9; 236 3; 237 3; 
247 2; 248 3; 249 21; 250 13; 251 14; 
252 2; 263 2; 265 42; 266 8; 267 3; 
278 2; 279 12; 280 42; 281 20; 282 4; 
283 2; 292 2; 294 6; 308 4; 321 5; 
322 13; 323 999; 324 217; 325 29; 326 2; 
327 2; 
