Name: JWH-210
Synon: 1-pentyl-3-(4-ethyl-1-naphthoyl)indole
Synon: 4-ethylnaphthalen-1-yl-(1-pentylindol-3-yl)methanone
InChIKey: LACIUQLUNACUKC-UHFFFAOYSA-N
Formula: C26H27NO
MW: 369
ExactMass: 369.209265
CASNO: 824959811
ID: 3809
Comment: Jason Nawyn / standard from Cayman Chemicals (lot # 0425787-2) / SWGDRUG Monograph available
Num Peaks: 206
39 5; 41 29; 42 2; 43 59; 44 1; 
51 2; 53 2; 55 7; 62 1; 63 3; 
65 1; 69 1; 71 1; 74 1; 75 4; 
76 4; 77 11; 78 2; 87 1; 88 3; 
89 18; 90 2; 91 2; 100 2; 101 9; 
102 17; 103 7; 104 1; 106 1; 107 1; 
108 1; 112 1; 113 7; 114 7; 115 43; 
116 53; 117 9; 118 2; 119 2; 120 4; 
121 6; 125 2; 126 10; 127 40; 128 49; 
129 47; 130 23; 131 4; 132 6; 133 2; 
134 14; 135 3; 138 1; 139 46; 140 28; 
142 39; 143 9; 144 182; 145 19; 146 2; 
147 1; 149 23; 150 2; 151 11; 152 41; 
153 69; 154 40; 155 39; 156 14; 157 4; 
158 5; 163 2; 165 5; 166 2; 167 10; 
168 4; 169 6; 170 10; 171 1; 174 2; 
176 1; 177 1; 178 1; 179 1; 180 3; 
181 6; 182 4; 183 124; 184 23; 185 2; 
186 14; 187 4; 188 1; 189 3; 190 1; 
193 1; 194 1; 195 125; 196 21; 197 2; 
198 1; 200 3; 201 3; 202 5; 203 1; 
209 2; 211 1; 212 4; 213 11; 214 322; 
215 58; 216 6; 217 1; 224 3; 225 4; 
226 24; 227 12; 228 13; 229 4; 230 1; 
237 3; 238 5; 239 15; 240 21; 241 56; 
242 18; 243 4; 244 1; 250 2; 251 6; 
252 12; 253 21; 254 116; 255 52; 256 22; 
257 4; 258 1; 264 4; 265 8; 266 20; 
267 37; 268 38; 269 58; 270 107; 271 23; 
272 3; 277 1; 278 6; 279 5; 280 15; 
281 8; 282 58; 283 81; 284 57; 285 13; 
286 2; 291 1; 292 2; 293 2; 294 12; 
295 18; 296 32; 297 21; 298 99; 299 25; 
300 8; 301 1; 306 1; 307 1; 308 7; 
309 5; 310 11; 311 12; 312 447; 313 114; 
314 15; 315 1; 322 22; 323 7; 324 5; 
325 1; 326 34; 327 10; 328 1; 336 1; 
337 2; 338 4; 339 3; 340 235; 341 71; 
342 12; 343 1; 350 22; 351 9; 352 528; 
353 156; 354 33; 355 6; 356 1; 366 2; 
367 8; 368 423; 369 999; 370 267; 371 37; 
372 3; 
