Name: JWH-122
Synon: 1-pentyl-3-(4-methyl-1-naphthoyl)indole
Synon: 4-methylnaphthalen-1-yl-(1-pentylindol-3-yl)methanone
InChIKey: HUKJQMKQFWYIHS-UHFFFAOYSA-N
Formula: C25H25NO
MW: 355
ExactMass: 355.193615
CASNO: 619294472
ID: 3812
Comment: Jason Nawyn / standard from Cayman Chemicals (lot # 0424812-3) / SWGDRUG Monograph available
Num Peaks: 193
39 7; 41 29; 42 2; 43 67; 44 2; 
50 1; 51 3; 52 1; 53 1; 55 7; 
62 1; 63 6; 64 1; 65 3; 69 1; 
71 1; 74 1; 75 4; 76 4; 77 6; 
78 2; 86 1; 87 2; 88 5; 89 23; 
90 3; 91 5; 100 1; 101 10; 102 20; 
103 7; 104 1; 107 2; 112 1; 113 10; 
114 10; 115 127; 116 64; 117 9; 118 2; 
120 6; 121 9; 125 1; 126 7; 127 29; 
128 34; 129 22; 130 20; 131 4; 132 5; 
133 1; 134 10; 135 12; 136 18; 137 1; 
138 2; 139 47; 140 18; 141 160; 143 11; 
144 183; 145 18; 146 1; 147 1; 149 13; 
150 6; 151 2; 152 5; 153 9; 154 4; 
155 10; 156 7; 157 3; 158 4; 162 1; 
163 1; 164 3; 165 3; 166 1; 167 2; 
168 4; 169 144; 170 27; 171 3; 172 1; 
174 2; 175 1; 176 2; 178 13; 181 124; 
182 19; 183 2; 184 4; 185 1; 186 15; 
187 4; 188 1; 189 3; 190 1; 195 2; 
198 1; 199 1; 200 4; 201 3; 202 6; 
203 2; 211 1; 212 4; 213 13; 214 344; 
215 59; 216 6; 217 1; 224 4; 225 5; 
226 25; 227 14; 228 16; 229 7; 230 2; 
237 3; 238 4; 239 12; 240 24; 241 73; 
242 21; 243 4; 244 1; 250 1; 251 6; 
252 9; 253 21; 254 96; 255 53; 256 27; 
257 7; 258 2; 264 3; 265 6; 266 13; 
267 21; 268 69; 269 61; 270 79; 271 18; 
272 2; 278 2; 279 2; 280 18; 281 25; 
282 38; 283 52; 284 191; 285 44; 286 10; 
287 1; 292 1; 293 1; 294 9; 295 5; 
296 16; 297 14; 298 476; 299 115; 300 15; 
301 1; 308 4; 309 1; 310 4; 311 3; 
312 14; 313 4; 322 18; 323 5; 324 2; 
325 1; 326 21; 327 14; 328 4; 336 20; 
337 8; 338 494; 339 140; 340 164; 341 40; 
342 5; 352 1; 353 4; 354 406; 355 999; 
356 257; 357 35; 358 3; 
