Name: APICA
Synon: 2NE1
Synon: 1-pentyl-N-tricyclo[3.3.1.13,7]dec-1-yl-1H-indole-3-carboxamide
Synon: JWH-018 adamantyl carboxamide
InChIKey: MDJYHWLDDJBTMX-UHFFFAOYSA-N
Formula: C24H32N2O
MW: 364
ExactMass: 364.251463
CASNO: 1345973503
ID: 3819
Comment: Provided by www.caymanchem.com/app/template/landing%2CForensic.vm / Item #9001193  Lot #0435618 / SWGDRUG Monograph available
Num Peaks: 189
40 1; 41 39; 42 5; 43 65; 44 3; 
50 1; 51 2; 53 8; 54 3; 55 17; 
56 3; 57 3; 58 1; 62 1; 63 3; 
65 6; 66 4; 67 16; 68 3; 69 5; 
71 2; 73 1; 75 2; 76 2; 77 29; 
78 7; 79 37; 80 6; 81 8; 82 2; 
87 1; 88 3; 89 13; 90 2; 91 30; 
92 27; 93 39; 94 14; 95 3; 101 7; 
102 15; 103 9; 104 3; 105 8; 106 5; 
107 10; 108 10; 109 2; 114 5; 115 26; 
116 62; 117 13; 118 9; 119 5; 120 3; 
121 1; 126 7; 127 1; 128 23; 129 44; 
130 55; 131 11; 132 4; 133 3; 134 4; 
135 39; 136 5; 139 1; 140 1; 141 1; 
143 41; 144 282; 145 37; 146 4; 147 1; 
149 5; 150 6; 151 3; 153 1; 154 6; 
155 11; 156 9; 157 13; 158 13; 159 2; 
160 5; 161 1; 162 2; 164 1; 165 2; 
167 3; 168 3; 169 3; 170 16; 171 2; 
172 3; 173 42; 174 10; 175 1; 176 1; 
177 1; 180 1; 181 1; 182 3; 183 5; 
184 11; 185 3; 186 29; 187 10; 188 15; 
189 2; 190 2; 192 1; 193 1; 194 1; 
196 1; 197 2; 198 3; 199 2; 200 10; 
201 5; 202 1; 204 1; 205 3; 207 3; 
208 1; 209 1; 210 1; 211 2; 212 11; 
214 999; 215 156; 216 12; 217 1; 219 1; 
220 1; 222 1; 223 1; 225 1; 230 17; 
231 6; 235 1; 236 3; 237 2; 238 1; 
249 1; 250 3; 251 2; 253 2; 254 1; 
255 1; 262 2; 264 54; 265 15; 266 1; 
269 1; 276 3; 277 1; 278 4; 279 12; 
280 3; 281 3; 282 1; 283 1; 289 1; 
290 2; 293 4; 294 2; 295 1; 304 2; 
305 3; 307 304; 308 68; 309 10; 310 1; 
318 2; 319 2; 320 1; 321 4; 322 4; 
335 21; 336 5; 337 1; 347 67; 348 19; 
349 4; 364 310; 365 76; 366 12; 
