Name: JWH-018
Synon: 1-naphthalenyl-(1-pentyl-1H-indol-3-yl)-methanone
Synon: AM678
Synon: 1-Pentyl-3-(1-naphthoyl)indole
InChIKey: JDNLPKCAXICMBW-UHFFFAOYSA-N
Formula: C24H23NO
MW: 341
ExactMass: 341.177965
CASNO: 209414073
ID: 3820
Comment: DEA SWL / SWGDRUG Monograph available
Num Peaks: 134
39 60; 40 6; 41 183; 42 16; 43 395; 
44 10; 50 13; 51 33; 53 18; 55 41; 
59 8; 62 13; 63 21; 69 7; 73 9; 
74 10; 75 28; 76 23; 77 77; 78 14; 
87 10; 88 18; 89 80; 90 15; 94 9; 
100 11; 101 74; 102 76; 103 33; 106 10; 
107 16; 113 44; 114 43; 115 91; 116 173; 
117 48; 118 8; 119 15; 121 34; 125 13; 
126 139; 127 883; 128 257; 129 112; 130 109; 
131 21; 132 9; 133 10; 134 15; 135 10; 
136 8; 137 9; 139 34; 140 12; 142 80; 
143 34; 144 574; 145 59; 149 11; 150 8; 
151 8; 152 14; 154 18; 155 448; 156 76; 
157 12; 158 16; 163 10; 165 6; 167 246; 
168 37; 170 31; 178 8; 184 11; 186 52; 
187 17; 189 14; 192 8; 193 7; 197 6; 
202 13; 207 15; 208 2; 209 2; 211 9; 
212 9; 213 45; 214 586; 215 137; 216 14; 
224 9; 225 7; 226 26; 227 13; 228 13; 
239 7; 240 53; 241 100; 242 59; 243 10; 
251 12; 253 28; 254 112; 255 55; 256 66; 
257 16; 266 21; 267 38; 268 29; 269 54; 
270 220; 271 44; 272 12; 280 8; 281 1; 
282 28; 283 23; 284 554; 285 146; 286 15; 
298 8; 312 16; 313 11; 322 27; 323 11; 
324 409; 325 135; 326 25; 327 11; 339 11; 
340 402; 341 999; 342 225; 343 36; 
