Name: gamma-Butyrolactone
Synon: GBL
Synon: Butyrolactone
Synon: .gamma.-Hydroxybutyrolactone
Synon: 4-Butanolide
Synon: .gamma.-Butyrolactone
InChIKey: YEJRWHAVMIAJKC-UHFFFAOYSA-N
Formula: C4H6O2
MW: 86
ExactMass: 86.0367794
CASNO: 96480
ID: 3826
Comment: DEA SWL / SWGDRUG Monograph available
Num Peaks: 17
40 118; 41 523; 42 999; 43 52; 44 18; 
45 8; 52 3; 53 17; 54 6; 55 75; 
56 285; 57 54; 58 2; 85 80; 86 291; 
87 18; 88 1; 
