Name: 5-Fluoro-PB-22
Synon: 1-(5-Fluoropentyl)-8-quinolinyl ester-1H-indole-3-carboxylic acid
Synon: 5F-PB-22
Synon: Quinolin-8-yl 1-(5-fluoropentyl)-1H-indole-3-carboxylate
InChIKey: MBOCMBFDYVSGLJ-UHFFFAOYSA-N
Formula: C23H21FN2O2
MW: 376
ExactMass: 376.158707
CASNO: 1400742417
ID: 3829
Comment: Provided by www.caymanchem.com/app/template/landing%2CForensic.vm / Item #14095  Lot #0445481 / SWGDRUG Monograph available
Num Peaks: 83
41 24; 42 1; 43 10; 47 5; 50 2; 
51 4; 52 2; 53 2; 55 2; 59 3; 
61 3; 62 8; 63 23; 64 5; 65 3; 
67 2; 69 11; 74 2; 75 7; 76 7; 
77 8; 78 3; 86 1; 87 5; 88 13; 
89 90; 90 20; 91 2; 101 12; 102 26; 
103 9; 104 1; 114 13; 115 39; 116 211; 
117 39; 118 2; 128 23; 129 38; 130 17; 
131 2; 140 1; 141 1; 143 36; 144 233; 
145 37; 146 4; 151 5; 154 4; 155 2; 
156 6; 157 9; 158 9; 159 1; 167 2; 
168 2; 169 1; 170 11; 171 2; 172 1; 
176 2; 182 1; 183 1; 184 4; 185 1; 
198 2; 204 1; 205 1; 210 1; 212 17; 
213 2; 214 1; 230 11; 232 999; 233 146; 
234 11; 243 1; 259 4; 260 1; 287 2; 
301 2; 376 14; 377 4; 
