Name: Flephedrone
Synon: FMC
Synon: p-Fluoromethcathinone
Synon: 4-Fluoromethcathinone
Synon: 4-FMC
Synon: 4-Fluoromethylcathinone
Synon: para-Fluoromethcathinone
Synon: 4-Fluoro-N-methylcathinone
InChIKey: MWKQPIROPJSFRI-UHFFFAOYSA-N
Formula: C10H12FNO
MW: 181
ExactMass: 181.090292
CASNO: 7589357
ID: 3830
Comment: ENFSI / Seizure, Copenhagen 2008 / SWGDRUG Monograph available
Num Peaks: 60
40 1; 41 9; 42 39; 43 24; 44 4; 
45 1; 50 12; 51 9; 52 1; 53 1; 
54 4; 55 6; 56 92; 57 23; 58 999; 
59 36; 61 1; 62 2; 63 3; 68 6; 
69 12; 70 3; 73 1; 74 11; 75 67; 
76 6; 77 4; 81 1; 83 2; 92 1; 
93 2; 94 10; 95 114; 96 12; 97 2; 
101 3; 103 3; 107 3; 108 1; 109 9; 
120 1; 121 2; 122 2; 123 66; 124 6; 
133 3; 134 1; 135 1; 136 1; 138 2; 
148 2; 149 1; 150 5; 151 7; 152 2; 
162 1; 164 1; 165 2; 166 8; 180 1; 
