Name: 4-Fluoromethamphetamine
Synon: 4-FMA
Synon: p-Fluoromethamphetamine
InChIKey: YCWZPIHKUYZTFM-UHFFFAOYSA-N
Formula: C10H14FN
MW: 167
ExactMass: 167.111028
CASNO: 351031
ID: 3833
Comment: ENFSI / NBI Finland; NMI (Australia) / SWGDRUG Monograph available
Num Peaks: 74
38 1; 39 13; 40 1; 41 13; 42 37; 
43 17; 44 3; 50 5; 51 7; 52 1; 
53 1; 54 3; 55 2; 56 50; 57 30; 
58 999; 59 44; 61 1; 62 4; 63 12; 
64 2; 65 2; 68 2; 69 2; 70 4; 
71 1; 74 3; 75 10; 76 7; 77 3; 
81 6; 82 2; 83 43; 84 3; 86 1; 
87 1; 89 6; 90 1; 91 2; 94 2; 
95 5; 96 7; 97 1; 101 7; 102 1; 
103 3; 105 1; 107 14; 108 6; 109 111; 
110 9; 111 1; 115 6; 116 1; 117 3; 
120 2; 121 4; 122 5; 123 2; 130 1; 
132 1; 133 11; 134 3; 135 13; 136 7; 
137 13; 138 1; 148 2; 150 5; 151 6; 
152 22; 153 2; 164 1; 166 7; 
