Name: 4-Fluoroisocathinone
Synon: 1-amino-1-(4-fluorophenyl)propan-2-one
Synon: 4-FIC
InChIKey: ALYWXRHUYNWZDI-UHFFFAOYSA-N
Formula: C9H10FNO
MW: 167
ExactMass: 167.074642
CASNO: 0
ID: 3836
Comment: Provided by www.caymanchem.com/app/template/landing%2CForensic.vm / Item #9001146  Lot #043368 / SWGDRUG Monograph available
Num Peaks: 73
41 3; 42 7; 43 47; 44 3; 45 2; 
46 1; 49 1; 50 18; 51 28; 52 9; 
53 2; 54 4; 56 2; 57 14; 61 3; 
62 10; 63 9; 64 2; 65 2; 66 1; 
68 6; 69 11; 70 16; 71 4; 72 1; 
73 2; 74 13; 75 56; 76 11; 77 88; 
78 11; 79 1; 80 1; 81 8; 82 2; 
83 5; 85 1; 86 2; 87 2; 88 1; 
89 2; 91 2; 92 2; 93 4; 94 14; 
95 103; 96 48; 97 327; 98 22; 99 2; 
100 2; 101 4; 102 8; 103 3; 104 5; 
105 3; 106 1; 107 17; 108 6; 109 4; 
120 2; 121 10; 122 148; 124 999; 125 79; 
126 3; 133 1; 135 1; 136 1; 148 1; 
149 1; 150 1; 151 1; 
