Name: 3-Fluoroethcathinone
Synon: 2-(ethylamino)-1-(3-fluorophenyl)propan-1-one
Synon: 3-FEC
InChIKey: DTCAGAIFZCHZFO-UHFFFAOYSA-N
Formula: C11H14FNO
MW: 195
ExactMass: 195.105943
CASNO: 0
ID: 3838
Comment: Provided by www.caymanchem.com/app/template/landing%2CForensic.vm / Item# 11230 Lot# 0435340 / SWGDRUG Monograph available
Num Peaks: 69
40 3; 41 14; 42 97; 44 414; 45 12; 
50 20; 51 16; 52 2; 53 2; 54 4; 
55 9; 56 44; 57 12; 58 1; 61 2; 
62 3; 63 5; 68 13; 69 20; 70 53; 
72 999; 73 51; 74 18; 75 100; 76 9; 
77 7; 78 1; 81 2; 82 1; 83 3; 
89 1; 92 1; 93 3; 94 15; 95 168; 
96 19; 97 5; 98 1; 101 4; 102 1; 
103 6; 104 1; 107 4; 108 1; 109 11; 
110 1; 115 1; 120 1; 121 2; 123 67; 
124 7; 125 1; 133 4; 134 1; 135 4; 
136 1; 148 1; 149 1; 150 10; 151 7; 
152 9; 153 1; 162 1; 164 2; 178 1; 
179 1; 180 5; 193 1; 194 2; 
