Name: 4-Fluoroamphetamine
Synon: p-Fluoroamphetamine
Synon: 4-FA
Synon: p-FA
Synon: para-Fluoroamphetamine
InChIKey: DGXWNDGLEOIEGT-UHFFFAOYSA-N
Formula: C9H12FN
MW: 153
ExactMass: 153.095378
CASNO: 459029
ID: 3840
Comment: ENFSI / NFI reference from supplier Alfa Aesar / SWGDRUG Monograph available
Num Peaks: 76
38 3; 39 17; 40 3; 41 10; 42 49; 
43 17; 44 999; 45 27; 50 11; 51 12; 
52 3; 53 1; 54 2; 56 6; 57 33; 
59 10; 61 2; 62 9; 63 23; 64 4; 
65 4; 67 1; 69 13; 70 4; 74 4; 
75 13; 76 2; 77 3; 78 1; 80 2; 
81 11; 82 4; 83 74; 84 5; 85 1; 
86 2; 87 2; 88 1; 89 11; 90 2; 
91 9; 92 1; 94 2; 95 5; 96 6; 
97 1; 101 10; 102 1; 103 1; 104 1; 
105 1; 106 1; 107 26; 108 10; 109 155; 
110 22; 111 3; 115 8; 116 1; 117 4; 
118 10; 119 1; 120 2; 121 5; 122 5; 
124 1; 133 12; 134 2; 135 12; 136 9; 
137 5; 138 21; 139 1; 150 1; 151 1; 
152 5; 
