Name: 3-Ethylmethcathinone
Synon: 3-EMC
Synon: 1-(3-ethylphenyl)-2-(methylamino)propan-1-one
InChIKey: XKZMMQQSZJUMDL-UHFFFAOYSA-N
Formula: C12H17NO
MW: 191
ExactMass: 191.131014
CASNO: 0
ID: 3848
Comment: Provided by www.caymanchem.com/app/template/landing%2CForensic.vm / Item #9001082  Lot #0435185 / SWGDRUG Monograph available
Num Peaks: 58
40 2; 41 9; 42 35; 43 19; 44 2; 
50 11; 51 23; 52 5; 53 7; 54 3; 
55 7; 56 76; 58 999; 59 37; 62 4; 
63 16; 64 5; 65 11; 66 1; 74 5; 
75 6; 76 8; 77 60; 78 18; 79 41; 
80 3; 86 1; 87 1; 89 24; 90 17; 
91 13; 92 1; 102 7; 103 29; 104 10; 
105 25; 106 3; 115 4; 116 1; 117 3; 
118 1; 119 4; 128 1; 129 1; 130 1; 
131 2; 132 2; 133 27; 134 3; 144 1; 
146 1; 147 2; 148 2; 160 3; 161 1; 
162 1; 175 1; 176 2; 
