Name: 4-Ethylethcathinone
Synon: 4-EEC
Synon: 2-(ethylamino)-1-(4-ethylphenyl)propan-1-one
Synon: 4-Ethyl-N-ethylcathinone
InChIKey: FAXVCSOMTSWQNT-UHFFFAOYSA-N
Formula: C13H19NO
MW: 205
ExactMass: 205.146665
CASNO: 0
ID: 3850
Comment: Provided by www.caymanchem.com/app/template/landing%2CForensic.vm / Item #11197  Lot #0433939 / SWGDRUG Monograph available
Num Peaks: 62
40 2; 41 6; 42 45; 44 202; 45 5; 
50 8; 51 18; 52 4; 53 5; 54 1; 
55 5; 56 27; 57 5; 62 3; 63 13; 
64 4; 65 10; 66 1; 68 1; 70 33; 
72 999; 73 49; 74 4; 75 4; 76 6; 
77 56; 78 15; 79 42; 80 3; 87 1; 
89 22; 90 21; 91 13; 92 1; 102 5; 
103 30; 104 9; 105 26; 106 3; 115 4; 
116 1; 117 4; 118 3; 119 7; 120 1; 
127 1; 128 2; 129 1; 130 1; 131 3; 
132 3; 133 40; 134 5; 144 1; 146 2; 
147 1; 160 2; 161 2; 162 3; 172 1; 
174 2; 190 2; 
