Name: N-Ethylamphetamine
Synon: N-ethyl-1-phenyl-propan-2-amine
Synon: Etilamfetamine
Synon: Ethylamphetamine
InChIKey: YAGBSNMZQKEFCO-UHFFFAOYSA-N
Formula: C11H17N
MW: 163
ExactMass: 163.1361
CASNO: 457874
ID: 3854
Comment: DEA SWL / SWGDRUG Monograph available
Num Peaks: 57
40 3; 41 21; 42 41; 43 8; 44 272; 
45 7; 50 6; 51 20; 52 6; 53 2; 
54 2; 55 1; 56 32; 57 6; 58 1; 
62 3; 63 13; 64 4; 65 47; 66 3; 
68 1; 70 16; 72 999; 73 46; 74 3; 
75 2; 76 2; 77 18; 78 8; 79 4; 
89 11; 90 5; 91 135; 92 14; 93 2; 
102 3; 103 10; 104 5; 105 4; 106 1; 
115 18; 116 4; 117 16; 118 8; 119 13; 
120 6; 130 3; 131 1; 132 3; 133 1; 
134 1; 146 2; 147 1; 148 18; 149 2; 
162 6; 163 1; 
