Name: N,N-Dipropyltryptamine
Synon: DPT
Synon: TIHKAL #9
InChIKey: BOOQTIHIKDDPRW-UHFFFAOYSA-N
Formula: C16H24N2
MW: 244
ExactMass: 244.193949
CASNO: 61529
ID: 3858
Comment: DEA SWL / SWGDRUG Monograph available
Num Peaks: 71
41 42; 42 33; 43 58; 44 14; 50 1; 
51 4; 52 2; 53 1; 54 2; 55 1; 
56 5; 57 9; 58 2; 62 1; 63 4; 
64 1; 65 3; 68 1; 70 10; 72 53; 
73 2; 74 1; 75 3; 76 5; 77 30; 
78 3; 82 1; 84 22; 86 64; 87 4; 
88 1; 89 9; 90 5; 91 6; 98 2; 
100 3; 101 3; 102 14; 103 23; 104 3; 
108 6; 112 6; 114 999; 115 108; 116 12; 
117 17; 118 3; 127 5; 128 14; 129 2; 
130 158; 131 18; 132 2; 140 2; 141 2; 
142 11; 143 38; 144 70; 145 7; 154 1; 
155 1; 156 2; 157 1; 158 1; 169 2; 
171 1; 172 1; 213 1; 215 1; 244 5; 
245 1; 
