Name: N,N-Diisopropyltryptamine
Synon: DIPT
Synon: TIHKAL #4
Synon: Diisopropyltryptamine
Synon: 3-[2-(diisopropylamino)ethyl]indole
InChIKey: ZRVAAGAZUWXRIP-UHFFFAOYSA-N
Formula: C16H24N2
MW: 244
ExactMass: 244.193949
CASNO: 14780246
ID: 3859
Comment: DEA SWL / SWGDRUG Monograph available
Num Peaks: 72
40 1; 41 49; 42 26; 43 76; 44 7; 
50 3; 51 7; 52 3; 53 1; 54 4; 
55 5; 56 51; 57 10; 58 4; 62 1; 
63 7; 64 1; 65 4; 68 1; 70 23; 
72 223; 73 11; 74 1; 75 5; 76 8; 
77 48; 78 5; 84 5; 86 6; 87 1; 
88 1; 89 12; 90 7; 91 6; 98 4; 
99 2; 100 5; 101 6; 102 24; 103 34; 
104 5; 112 2; 114 999; 115 122; 116 14; 
117 22; 118 4; 127 5; 128 19; 129 16; 
130 217; 131 24; 132 4; 140 2; 141 3; 
142 15; 143 41; 144 72; 145 7; 155 2; 
156 2; 157 3; 158 2; 159 2; 168 1; 
169 1; 185 1; 186 2; 213 2; 227 4; 
229 1; 244 1; 
