Name: Dimethyltryptamine
Synon: DMT
Synon: TIHKAL #6
Synon: N,N-Dimethyltryptamine
InChIKey: DMULVCHRPCFFGV-UHFFFAOYSA-N
Formula: C12H16N2
MW: 188
ExactMass: 188.131349
CASNO: 61507
ID: 3860
Comment: DEA SWL / SWGDRUG Monograph available
Num Peaks: 60
40 1; 41 3; 42 37; 43 8; 44 2; 
50 4; 51 10; 52 4; 53 1; 56 5; 
57 13; 58 999; 59 35; 62 3; 63 10; 
64 3; 65 4; 71 1; 74 3; 75 7; 
76 8; 77 40; 78 5; 86 1; 87 2; 
88 3; 89 13; 90 6; 91 5; 92 1; 
101 5; 102 20; 103 26; 104 3; 113 2; 
114 4; 115 32; 116 8; 117 11; 118 2; 
127 3; 128 14; 129 10; 130 75; 131 8; 
140 2; 141 2; 142 9; 143 23; 144 20; 
145 2; 155 2; 156 1; 157 1; 171 1; 
172 1; 185 1; 186 1; 188 43; 189 6; 
