Name: 2,4-Dimethylmethcathinone
Synon: 2,4-DMMC
Synon: 1-(2,4-Dimethylphenyl)-2-(methylamino)propan-1-one
InChIKey: GMWLLQUZDNDCMN-UHFFFAOYSA-N
Formula: C12H17NO
MW: 191
ExactMass: 191.131014
CASNO: 0
ID: 3862
Comment: Provided by www.caymanchem.com/app/template/landing%2CForensic.vm / Item #11243  Lot#0443056 / SWGDRUG Monograph available
Num Peaks: 79
40 4; 41 12; 42 42; 43 20; 44 2; 
50 7; 51 27; 52 10; 53 13; 54 5; 
55 10; 56 133; 58 999; 59 38; 61 1; 
62 6; 63 22; 64 5; 65 18; 66 2; 
72 1; 74 4; 75 6; 76 8; 77 110; 
78 41; 79 69; 80 4; 86 2; 87 2; 
88 1; 89 12; 90 4; 91 25; 92 1; 
98 1; 101 2; 102 13; 103 63; 104 20; 
105 62; 106 9; 107 1; 115 12; 116 3; 
117 6; 118 3; 119 7; 120 1; 126 1; 
127 1; 128 3; 129 3; 130 2; 131 4; 
133 54; 134 5; 141 1; 142 1; 143 1; 
144 1; 145 3; 146 5; 148 1; 156 1; 
158 7; 159 3; 160 5; 161 1; 172 6; 
173 7; 174 7; 175 2; 176 2; 187 1; 
189 2; 190 1; 191 1; 192 1; 
