Name: 2,3-Dimethylmethcathinone
Synon: 1-(2,3-dimethylphenyl)-2-(methylamino)propan-1-one
Synon: 2,3-DMMC
InChIKey: APVRHNHXZXFDLN-UHFFFAOYSA-N
Formula: C12H17NO
MW: 191
ExactMass: 191.131014
CASNO: 0
ID: 3863
Comment: Provided by www.caymanchem.com/app/template/landing%2CForensic.vm / Item #11225  Lot #0439131 / SWGDRUG Monograph available
Num Peaks: 67
40 2; 41 11; 42 32; 43 19; 44 2; 
50 8; 51 26; 52 9; 53 11; 54 3; 
56 92; 58 999; 59 42; 62 5; 63 17; 
64 5; 65 15; 66 2; 74 3; 75 5; 
77 92; 78 36; 79 54; 80 4; 86 1; 
87 2; 88 1; 89 9; 90 3; 91 20; 
92 2; 93 1; 102 11; 103 52; 104 18; 
105 56; 106 7; 115 12; 116 4; 117 7; 
118 2; 119 7; 127 2; 128 4; 129 3; 
130 2; 131 4; 133 46; 134 5; 143 1; 
144 2; 145 4; 146 5; 147 1; 148 1; 
157 1; 158 3; 159 2; 160 3; 161 2; 
162 1; 173 1; 174 6; 175 2; 176 3; 
189 1; 190 1; 
