Name: DMAA
InChIKey: YAHRDLICUYEDAU-UHFFFAOYSA-N
Synon: 1,3-Dimethylamylamine
Synon: 4-Methylhexan-2-amine
Synon: Methylhexanamine
Synon: Methylhexamine
Synon: 1,3-Dimethylpentylamine
Synon: 4-Methyl-2-hexylamine
Formula: C7H17N
MW: 115
ExactMass: 115.1360993
CASNO: 105419
ID: 3865
Comment: ENFSI / FSL Dublin, Ireland; reference standard from LGC / SWGDRUG Monograph available
Num Peaks: 33
40 5; 41 58; 42 49; 43 29; 44 999; 
45 27; 50 1; 51 3; 52 1; 53 7; 
54 4; 55 21; 56 23; 57 30; 58 17; 
59 3; 65 1; 66 1; 67 3; 68 3; 
69 19; 70 12; 71 1; 81 1; 82 1; 
83 5; 84 2; 86 1; 98 5; 100 36; 
101 3; 114 6; 115 7; 
