Name: 2C-H
Synon: PIHKAL #32
Synon: 2,5-Dimethoxyphenethylamine
Synon: 2-(2,5-Dimethoxyphenyl)ethanamine
InChIKey: WNCUVUUEJZEATP-UHFFFAOYSA-N
Formula: C10H15NO2
MW: 181
ExactMass: 181.110279
CASNO: 3600860
ID: 3866
Comment: DEA SWL / SWGDRUG Monograph available
Num Peaks: 69
41 12; 42 13; 43 7; 44 17; 50 19; 
51 53; 52 24; 53 27; 54 13; 55 22; 
62 8; 63 28; 64 13; 65 98; 66 22; 
67 15; 68 5; 69 5; 74 7; 75 6; 
76 6; 77 114; 78 81; 79 50; 80 11; 
81 6; 82 5; 89 21; 90 9; 91 128; 
92 20; 93 21; 94 22; 95 6; 103 7; 
104 12; 105 29; 106 27; 107 22; 108 30; 
109 36; 117 5; 118 5; 119 5; 120 9; 
121 177; 122 42; 123 23; 132 6; 133 16; 
134 12; 135 10; 136 16; 137 546; 138 45; 
139 5; 148 20; 149 21; 150 41; 151 75; 
152 999; 153 91; 154 7; 162 12; 163 5; 
164 8; 165 4; 181 152; 182 19; 
