Name: 2C-P
Synon: 2-(2,5-dimethoxy-4-propylphenyl)ethanamine
Synon: 2-(2,5-Dimethoxy-4-(n)-propylphenyl)ethanamine
InChIKey: PZJOKFZGPTVNBF-UHFFFAOYSA-N
Formula: C13H21NO2
MW: 223
ExactMass: 223.157228
CASNO: 207740225
ID: 3867
Comment: ENFSI / NBI GC/MS, LC-MS, NMR identified / SWGDRUG Monograph available
Num Peaks: 130
38 4; 39 49; 40 8; 41 35; 42 10; 
43 25; 44 7; 45 13; 46 1; 50 7; 
51 38; 52 18; 53 40; 54 7; 55 27; 
56 2; 57 10; 59 11; 62 5; 63 26; 
64 12; 65 72; 66 18; 67 32; 68 7; 
69 9; 70 1; 71 5; 72 1; 74 6; 
75 8; 76 11; 77 124; 78 64; 79 69; 
80 10; 81 9; 82 4; 83 1; 85 1; 
86 1; 87 2; 88 1; 89 27; 90 21; 
91 274; 92 37; 93 28; 94 9; 95 7; 
96 5; 101 2; 102 12; 103 76; 104 60; 
105 144; 106 24; 107 36; 108 20; 109 15; 
111 1; 113 1; 115 60; 116 30; 117 43; 
118 20; 119 44; 120 54; 121 151; 122 58; 
123 33; 124 4; 127 7; 128 19; 129 19; 
130 10; 131 45; 132 17; 133 45; 134 68; 
135 259; 136 35; 137 52; 138 12; 139 2; 
141 1; 143 1; 144 3; 145 8; 146 13; 
147 30; 148 38; 149 22; 150 17; 151 126; 
152 16; 153 1; 158 1; 159 2; 160 4; 
161 8; 162 11; 163 65; 165 680; 166 77; 
167 8; 173 1; 174 1; 175 1; 176 5; 
177 17; 178 21; 179 146; 180 18; 181 1; 
189 1; 190 5; 191 11; 192 28; 193 213; 
194 999; 195 134; 196 10; 197 1; 206 3; 
207 2; 221 1; 223 181; 224 25; 225 3; 
