Name: DOM
Synon: STP
Synon: PIHKAL #68
Synon: 2,5-Dimethoxy-4-methylamphetamine
Synon: 4-Methyl-2,5-dimethoxy-.alpha.-methylphenethylamine
InChIKey: NTJQREUGJKIARY-UHFFFAOYSA-N
Formula: C12H19NO2
MW: 209
ExactMass: 209.141579
CASNO: 15588951
ID: 3869
Comment: DEA SWL / SWGDRUG Monograph available
Num Peaks: 98
40 6; 41 11; 42 24; 43 11; 44 999; 
45 27; 50 4; 51 16; 52 8; 53 14; 
54 3; 55 6; 56 2; 57 3; 58 1; 
59 1; 62 2; 63 8; 64 4; 65 24; 
66 6; 67 14; 68 4; 69 6; 74 1; 
75 2; 76 2; 77 49; 78 14; 79 39; 
80 7; 81 3; 82 2; 89 4; 90 9; 
91 71; 92 14; 93 8; 94 3; 95 1; 
97 5; 102 2; 103 18; 104 6; 105 20; 
106 5; 107 13; 108 10; 109 2; 115 5; 
116 1; 117 4; 118 4; 119 7; 120 11; 
121 9; 122 16; 123 14; 124 1; 128 1; 
130 2; 131 4; 132 4; 133 4; 134 4; 
135 53; 136 10; 137 11; 138 1; 144 1; 
145 2; 146 4; 147 6; 148 3; 149 4; 
150 6; 151 195; 152 21; 153 1; 160 2; 
161 5; 162 7; 163 5; 164 5; 165 31; 
166 529; 167 57; 168 5; 175 1; 176 5; 
177 3; 178 4; 179 2; 192 1; 193 1; 
194 3; 209 11; 210 1; 
