Name: DOI
Synon: PIHKAL #67
Synon: 2,5-Dimethoxy-4-iodoamphetamine
Synon: 4-Iodo-2,5-Dimethoxyamphetamine
InChIKey: BGMZUEKZENQUJY-UHFFFAOYSA-N
Formula: C11H16INO2
MW: 321
ExactMass: 321.022577
CASNO: 82864026
ID: 3871
Comment: DEA SWL / SWGDRUG Monograph available
Num Peaks: 122
38 3; 39 15; 40 2; 41 5; 42 26; 
43 11; 44 999; 45 27; 47 1; 50 15; 
51 25; 52 6; 53 30; 54 4; 55 3; 
56 2; 57 3; 59 1; 60 1; 61 2; 
62 8; 63 25; 64 20; 65 20; 66 6; 
67 6; 68 2; 69 1; 74 6; 75 9; 
76 13; 77 62; 78 19; 79 13; 80 3; 
81 2; 82 3; 86 1; 87 2; 88 1; 
89 23; 90 27; 91 46; 92 21; 93 10; 
94 3; 102 2; 103 5; 104 6; 105 33; 
106 11; 107 11; 108 11; 109 1; 115 2; 
116 1; 117 3; 118 4; 119 7; 120 12; 
121 32; 122 7; 123 3; 127 4; 128 2; 
130 1; 131 3; 132 3; 133 3; 134 3; 
135 5; 136 11; 137 3; 139 1; 142 1; 
146 13; 147 5; 148 5; 149 7; 150 5; 
151 5; 152 2; 153 4; 160 1; 161 3; 
162 5; 163 4; 164 8; 165 1; 177 1; 
178 3; 179 3; 191 7; 192 1; 204 1; 
205 1; 217 1; 219 3; 220 1; 232 8; 
233 1; 234 4; 235 1; 247 20; 248 2; 
249 2; 262 1; 263 26; 264 2; 274 1; 
275 1; 276 2; 277 7; 278 251; 279 24; 
280 2; 290 1; 305 1; 306 1; 320 1; 
321 5; 322 1; 
