Name: 2C-C
Synon: PIHKAL #22
Synon: 4-Chloro-2,5-dimethoxy-phenethylamine
Synon: 2,5-Dimethoxy-4-chloro-phenethylamine
Synon: 2-(4-Chloro-2,5-dimethoxyphenyl)ethanamine
InChIKey: CGKQFIWIPSIVAS-UHFFFAOYSA-N
Formula: C10H14ClNO2
MW: 215
ExactMass: 215.071306
CASNO: 88441149
ID: 3874
Comment: DEA SWL / SWGDRUG Monograph available
Num Peaks: 150
40 5; 41 8; 42 10; 43 11; 44 6; 
45 1; 46 1; 47 1; 49 3; 50 28; 
51 52; 52 13; 53 48; 54 6; 55 5; 
57 2; 59 1; 60 7; 61 9; 62 20; 
63 52; 64 23; 65 48; 66 10; 67 22; 
68 3; 69 3; 70 1; 72 3; 73 25; 
74 18; 75 57; 76 20; 77 176; 78 32; 
79 38; 80 5; 81 2; 84 2; 85 11; 
86 8; 87 16; 88 11; 89 68; 90 18; 
91 87; 92 34; 93 25; 94 7; 95 2; 
96 1; 97 7; 98 5; 99 95; 100 14; 
101 32; 102 9; 103 8; 104 17; 105 69; 
106 14; 107 18; 108 24; 109 4; 110 3; 
111 22; 112 52; 113 28; 114 19; 115 9; 
116 3; 117 6; 118 4; 119 10; 120 18; 
121 32; 122 23; 123 7; 124 6; 125 60; 
126 12; 127 47; 128 20; 129 14; 130 6; 
131 3; 132 7; 133 7; 134 6; 135 7; 
136 15; 137 5; 138 5; 139 8; 140 20; 
141 13; 142 50; 143 27; 144 16; 145 9; 
146 2; 147 16; 148 16; 149 12; 150 6; 
151 22; 152 3; 153 3; 154 6; 155 120; 
156 19; 157 54; 158 6; 159 5; 161 1; 
162 2; 163 4; 164 8; 165 5; 166 2; 
167 2; 168 7; 169 5; 170 13; 171 312; 
172 32; 173 99; 174 8; 178 1; 179 1; 
182 5; 183 13; 184 16; 185 98; 186 999; 
187 122; 188 309; 189 29; 190 2; 196 1; 
198 4; 199 2; 200 1; 201 1; 213 1; 
214 1; 215 118; 216 13; 217 36; 218 4; 
