Name: Diethylpropion
Synon: Tenuate
Synon: Amfepramon
Synon: Amfepramone
Synon: Diethylcathinone
Synon: Menutil
Synon: Moderatan
Synon: 2-(diethylamino)-1-phenyl-1-propanone
Synon: N,N-Diethylcathinone
InChIKey: XXEPPPIWZFICOJ-UHFFFAOYSA-N
Formula: C13H19NO
MW: 205
ExactMass: 205.146665
CASNO: 90846
ID: 3877
Comment: DEA SWL / SWGDRUG Monograph available
Num Peaks: 55
41 6; 42 32; 43 3; 44 97; 45 2; 
50 8; 51 34; 52 3; 53 1; 54 5; 
55 6; 56 36; 57 6; 58 3; 63 1; 
65 1; 68 2; 70 23; 71 5; 72 77; 
73 4; 74 2; 75 2; 76 4; 77 86; 
78 8; 79 5; 84 4; 85 1; 89 1; 
91 7; 98 4; 100 999; 101 69; 102 3; 
103 3; 104 1; 105 38; 106 3; 115 2; 
116 1; 117 2; 118 1; 130 1; 131 2; 
132 4; 133 3; 134 1; 146 1; 160 2; 
162 1; 174 1; 185 1; 188 2; 190 1; 
