Name: Desoxypipradrol
Synon: 2-DPMP
Synon: 2-diphenylmethylpiperidine
InChIKey: RWTNXJXZVGHMGI-UHFFFAOYSA-N
Formula: C18H21N
MW: 251
ExactMass: 251.167399
CASNO: 519744
ID: 3880
Comment: ENFSI / HIFS, Budapest, Hungary / SWGDRUG Monograph available
Num Peaks: 97
41 9; 42 9; 43 2; 44 1; 50 1; 
51 6; 52 1; 53 2; 54 6; 55 19; 
56 67; 57 6; 62 1; 63 4; 64 1; 
65 7; 67 8; 68 7; 69 1; 70 2; 
74 1; 75 1; 76 4; 77 11; 78 3; 
79 1; 80 3; 82 17; 84 999; 85 68; 
86 2; 87 1; 88 1; 89 13; 90 4; 
91 27; 92 2; 101 1; 102 5; 103 7; 
104 4; 105 2; 106 1; 113 1; 114 1; 
115 25; 116 6; 117 7; 118 2; 119 1; 
126 2; 127 4; 128 11; 129 5; 130 6; 
131 1; 139 8; 140 1; 141 3; 142 1; 
143 1; 144 3; 150 1; 151 6; 152 44; 
153 10; 154 1; 158 1; 163 6; 164 11; 
165 107; 166 39; 167 48; 168 12; 169 1; 
172 1; 173 1; 176 3; 177 2; 178 19; 
179 10; 180 2; 189 2; 190 1; 191 3; 
192 2; 193 3; 194 2; 202 1; 203 1; 
204 1; 205 1; 206 2; 248 2; 249 2; 
250 7; 251 1; 
