Name: CP 47,497
Synon: 5-(1,1-dimethylheptyl)-2-[(1R,3S)-3-hydroxycyclohexyl]-phenol
InChIKey: ZWWRREXSUJTKNN-FUHWJXTLSA-N
Formula: C21H34O2
MW: 318
ExactMass: 318.25588
CASNO: 70434821
ID: 3882
Comment: DEA SWL / SWGDRUG Monograph available
Num Peaks: 162
39 39; 40 5; 41 284; 42 23; 43 383; 
44 38; 45 6; 50 1; 51 8; 52 2; 
53 45; 54 7; 55 168; 56 15; 57 151; 
58 8; 59 1; 63 2; 65 21; 66 5; 
67 28; 68 2; 69 51; 70 4; 71 74; 
72 6; 73 4; 76 3; 77 48; 78 13; 
79 86; 80 10; 81 292; 82 18; 83 5; 
84 1; 85 43; 86 5; 87 1; 88 1; 
89 2; 91 106; 92 10; 93 26; 94 6; 
95 25; 96 2; 97 21; 99 1; 100 2; 
101 1; 102 4; 103 29; 104 9; 105 61; 
106 8; 107 178; 108 18; 109 10; 115 61; 
116 20; 117 46; 118 11; 119 37; 120 19; 
121 78; 122 8; 123 7; 127 25; 128 54; 
129 38; 130 10; 131 58; 132 22; 133 150; 
134 31; 135 139; 136 16; 137 2; 139 1; 
141 22; 142 11; 143 15; 144 21; 145 75; 
146 23; 147 161; 148 79; 149 20; 150 4; 
151 3; 152 5; 153 8; 154 6; 155 11; 
156 3; 157 23; 158 14; 159 46; 160 23; 
161 205; 162 34; 163 6; 165 4; 166 1; 
167 2; 169 4; 170 2; 171 29; 172 21; 
173 83; 174 28; 175 15; 176 6; 177 1; 
183 1; 185 14; 186 8; 187 76; 188 14; 
189 11; 190 2; 191 4; 197 1; 199 8; 
200 1; 201 34; 202 5; 203 5; 205 5; 
207 4; 213 7; 214 7; 215 999; 216 252; 
217 51; 218 6; 219 14; 220 2; 229 2; 
230 5; 231 43; 232 10; 233 675; 234 132; 
235 12; 244 8; 246 35; 247 7; 257 10; 
258 4; 272 1; 273 2; 281 3; 285 2; 
300 62; 301 15; 302 1; 316 3; 318 103; 
319 20; 320 2; 
