Name: AB-001
Synon: (1s,3s)-adamantan-1-yl(1-pentyl-1H-indol-3-yl)methanone
Synon: JWH-018 adamantyl analog
InChIKey: SHWDYCMMUPPWQM-UHFFFAOYSA-N
Formula: C24H31NO
MW: 349
ExactMass: 349.240564
CASNO: 1345973490
ID: 3884
Comment: Provided by www.caymanchem.com/app/template/landing%2CForensic.vm / Item #9000799  Lot #0434633 / SWGDRUG Monograph available
Num Peaks: 106
40 2; 41 31; 42 2; 43 40; 44 2; 
51 2; 52 1; 53 7; 55 17; 56 1; 
57 1; 62 1; 63 2; 65 5; 66 1; 
67 17; 68 1; 69 6; 71 1; 75 2; 
76 2; 77 22; 78 6; 79 39; 80 4; 
81 11; 88 2; 89 13; 90 2; 91 19; 
92 5; 93 30; 94 2; 101 4; 102 16; 
103 9; 104 1; 105 7; 106 1; 107 11; 
108 1; 114 3; 115 15; 116 39; 117 7; 
118 3; 119 1; 127 2; 128 15; 129 25; 
130 33; 131 4; 132 1; 133 1; 135 40; 
136 5; 140 1; 141 1; 142 2; 143 23; 
144 145; 145 15; 146 1; 152 1; 153 1; 
154 3; 155 2; 156 5; 157 6; 158 5; 
165 1; 166 1; 167 3; 168 2; 169 1; 
170 7; 171 1; 180 2; 181 1; 182 1; 
184 4; 185 2; 186 1; 187 1; 192 1; 
193 1; 194 2; 196 1; 198 2; 200 2; 
204 1; 206 1; 207 1; 212 6; 214 999; 
215 159; 216 13; 217 1; 264 2; 292 10; 
293 2; 320 3; 321 1; 349 111; 350 29; 
351 4; 
