Name: AB-PINACA
Synon: (S)-N-(1-amino-3-methyl-1-oxobutan-2-yl)-1-pentyl-1H-indazole-3-carboxamide
Synon: N-(1-amino-3-methyl-1-oxobutan-2-yl)-1-pentyl-1H-indazole-3-carboxamide
InChIKey: GIMHPAQOAAZSHS-UHFFFAOYSA-N
Formula: C18H26N4O2
MW: 330
ExactMass: 330.205576
CASNO: 1445752099
ID: 3885
Comment: Provided by www.caymanchem.com/app/template/landing%2CForensic.vm / Item #14038  Lot #0444441 / SWGDRUG Monograph available
Num Peaks: 109
41 41; 42 9; 43 48; 44 57; 45 3; 
50 1; 51 3; 52 1; 53 3; 55 23; 
56 12; 57 6; 58 1; 62 3; 63 4; 
64 2; 65 2; 66 1; 67 1; 68 2; 
69 6; 70 9; 71 16; 72 28; 73 4; 
74 1; 75 4; 76 11; 77 16; 78 2; 
82 1; 83 2; 84 1; 86 1; 88 21; 
89 22; 90 46; 91 7; 92 2; 98 3; 
99 1; 100 1; 102 23; 103 63; 104 23; 
105 3; 108 1; 115 5; 116 5; 117 28; 
118 10; 119 2; 127 1; 129 21; 130 21; 
131 76; 132 11; 133 1; 142 2; 143 7; 
145 348; 146 35; 147 3; 155 1; 156 2; 
157 6; 158 8; 159 4; 160 2; 161 4; 
169 1; 170 2; 171 11; 172 3; 173 2; 
174 11; 175 5; 185 7; 186 5; 187 7; 
188 2; 199 3; 200 2; 201 1; 210 1; 
213 16; 215 999; 216 150; 217 13; 227 1; 
228 3; 229 1; 230 3; 231 3; 242 1; 
243 1; 256 1; 257 1; 269 1; 270 2; 
271 2; 273 1; 284 2; 286 399; 287 78; 
288 8; 312 1; 330 3; 331 1; 
