Name: 5-Fluoro-AKB48
Synon: 5F-AKB48
Synon: AKB48 N-(5-fluoropentyl) analog
Synon: 5F-APINACA
Synon: 5-Fluoro-APINACA
Synon: N-((3s,5s,7s)-adamantan-1-yl)-1-(5-fluoropentyl)-1H-indazole-3-carboxamide
Synon: N-(adamantan-1-yl)-1-(5-fluoropentyl)-1H-indazole-3-carboxamide
InChIKey: UCMFSGVIEPXYIV-UHFFFAOYSA-N
Formula: C23H30FN3O
MW: 383
ExactMass: 383.237291
CASNO: 1400742133
ID: 3889
Comment: DEA SWL / from sample / SWGDRUG Monograph available
Num Peaks: 275
37 1; 38 1; 39 27; 40 5; 41 166; 
42 19; 43 44; 44 16; 45 1; 46 1; 
47 23; 50 2; 51 12; 52 6; 53 31; 
54 12; 55 67; 56 17; 57 18; 58 20; 
59 9; 60 1; 61 5; 62 4; 63 12; 
64 6; 65 25; 66 17; 67 83; 68 11; 
69 126; 70 15; 71 1; 73 1; 74 1; 
75 7; 76 18; 77 122; 78 32; 79 137; 
80 30; 81 45; 82 16; 83 3; 84 1; 
85 1; 87 3; 88 48; 89 61; 90 144; 
91 149; 92 116; 93 216; 94 128; 95 23; 
96 8; 97 2; 101 3; 102 49; 103 118; 
104 64; 105 42; 106 25; 107 59; 108 48; 
109 40; 110 5; 112 1; 114 1; 115 7; 
116 13; 117 91; 118 28; 119 31; 120 22; 
121 11; 122 5; 123 3; 125 13; 127 3; 
128 8; 129 59; 130 47; 131 283; 132 44; 
133 22; 134 26; 135 224; 136 67; 137 5; 
140 1; 142 4; 143 15; 144 40; 145 874; 
146 85; 147 9; 148 5; 149 20; 150 521; 
151 59; 152 4; 154 6; 155 6; 156 16; 
157 18; 158 20; 159 11; 160 3; 161 9; 
162 2; 163 1; 165 1; 167 2; 168 3; 
169 8; 170 4; 171 32; 172 7; 173 6; 
174 70; 175 27; 176 4; 177 86; 178 8; 
179 1; 180 1; 181 1; 182 2; 183 4; 
184 5; 185 29; 186 14; 187 6; 188 1; 
190 1; 191 2; 192 2; 193 2; 194 1; 
195 1; 196 2; 197 1; 198 2; 199 8; 
200 3; 201 2; 202 1; 203 3; 204 1; 
205 8; 206 4; 207 43; 208 9; 209 4; 
210 3; 211 3; 212 2; 213 96; 214 15; 
215 2; 216 1; 217 1; 218 2; 219 8; 
220 111; 221 17; 222 5; 223 1; 224 1; 
226 2; 228 2; 230 1; 231 9; 232 10; 
233 999; 234 133; 235 13; 236 2; 237 2; 
238 7; 239 1; 245 1; 246 1; 247 3; 
248 7; 249 12; 250 11; 251 7; 252 5; 
253 2; 257 3; 258 3; 259 4; 260 3; 
261 6; 262 3; 263 6; 264 3; 265 24; 
266 6; 267 1; 270 2; 271 2; 272 1; 
273 2; 274 1; 277 5; 278 5; 279 3; 
280 9; 281 5; 283 2; 284 2; 285 1; 
286 1; 287 1; 288 15; 289 24; 290 14; 
291 4; 292 1; 293 1; 294 446; 295 94; 
296 13; 297 8; 298 194; 299 45; 300 5; 
303 1; 306 2; 307 2; 308 29; 309 14; 
310 2; 312 6; 313 3; 314 15; 315 4; 
316 1; 318 1; 319 1; 322 1; 323 1; 
325 1; 326 157; 327 34; 328 6; 335 2; 
336 1; 338 177; 339 54; 340 36; 341 8; 
342 11; 343 2; 348 1; 350 1; 354 16; 
355 512; 356 126; 357 14; 358 1; 362 3; 
363 4; 364 1; 365 1; 366 1; 368 2; 
382 12; 383 372; 384 95; 385 14; 386 1; 
