Name: AM679
Synon: (2-Iodophenyl)(1-pentyl-1H-indol-3-yl)-methanone
InChIKey: GAJBHYUAJOTAEW-UHFFFAOYSA-N
Formula: C20H20INO
MW: 417
ExactMass: 417.058962
CASNO: 335160913
ID: 3891
Comment: Provided by www.caymanchem.com/app/template/landing%2CForensic.vm / Item #11504  Lot #0437656 / SWGDRUG Monograph available
Num Peaks: 197
41 74; 42 7; 43 127; 44 3; 45 1; 
50 19; 51 12; 52 3; 53 6; 55 17; 
56 2; 57 1; 58 1; 61 1; 62 11; 
63 18; 64 3; 65 4; 66 1; 67 1; 
69 3; 71 5; 74 11; 75 34; 76 113; 
77 39; 78 7; 79 2; 82 3; 83 1; 
86 5; 87 10; 88 38; 89 62; 90 9; 
91 3; 94 1; 96 1; 98 3; 99 3; 
100 3; 101 31; 102 79; 103 32; 104 46; 
105 38; 106 3; 109 1; 110 1; 111 3; 
112 1; 113 7; 114 30; 115 70; 116 107; 
117 22; 118 3; 122 2; 123 1; 124 2; 
125 2; 126 7; 127 16; 128 60; 129 52; 
130 133; 131 13; 132 2; 135 2; 136 1; 
137 8; 138 10; 139 13; 140 11; 141 4; 
142 3; 143 29; 144 288; 145 31; 146 1; 
148 1; 149 3; 150 17; 151 32; 152 23; 
153 7; 154 9; 155 3; 156 13; 157 7; 
158 12; 159 2; 161 4; 163 116; 164 176; 
165 140; 166 23; 168 4; 170 21; 171 4; 
172 2; 173 1; 174 5; 176 86; 177 59; 
178 59; 179 15; 180 18; 182 1; 184 13; 
186 80; 187 12; 188 12; 189 21; 190 133; 
191 54; 192 28; 193 9; 194 4; 198 1; 
199 3; 201 5; 203 209; 204 276; 205 58; 
206 17; 207 3; 209 1; 212 3; 214 999; 
215 164; 216 34; 217 37; 218 27; 219 79; 
220 680; 221 102; 222 13; 223 1; 228 1; 
229 2; 231 242; 232 186; 233 86; 234 93; 
235 19; 236 1; 242 2; 243 5; 244 2; 
245 2; 246 14; 247 6; 248 1; 249 1; 
256 54; 257 8; 258 3; 260 4; 261 3; 
262 1; 267 1; 268 1; 270 1; 272 4; 
273 4; 274 5; 275 1; 282 2; 288 5; 
289 14; 290 63; 291 21; 292 4; 313 32; 
314 7; 318 13; 319 2; 332 1; 333 1; 
342 1; 343 1; 346 1; 360 209; 361 48; 
362 8; 363 1; 374 2; 388 1; 400 3; 
401 1; 402 6; 403 2; 415 1; 417 681; 
418 157; 419 17; 
