Name: Amobarbital
Synon: Amylobarbitone
Synon: 5-Ethyl-5-(3-methylbutyl)-1,3-diazinane-2,4,6-trione
Synon: Amytal
InChIKey: VIROVYVQCGLCII-UHFFFAOYSA-N
Formula: C11H18N2O3
MW: 226
ExactMass: 226.1317425
CASNO: 57432
ID: 3893
Comment: DEA SWL / SWGDRUG Monograph available
Num Peaks: 97
40 20; 41 210; 42 37; 43 132; 44 46; 
45 3; 46 1; 50 2; 51 8; 52 9; 
53 53; 54 32; 55 203; 56 42; 57 38; 
58 3; 59 2; 61 2; 63 1; 65 10; 
66 9; 67 28; 68 14; 69 84; 70 53; 
71 32; 72 3; 73 2; 77 9; 78 2; 
79 9; 80 22; 81 13; 82 9; 83 32; 
84 10; 85 20; 86 6; 87 3; 91 3; 
92 1; 93 3; 94 19; 95 14; 96 12; 
97 41; 98 95; 99 8; 100 2; 106 1; 
107 1; 108 3; 109 5; 110 5; 111 5; 
112 74; 113 14; 114 19; 115 1; 121 1; 
122 2; 123 4; 124 5; 125 2; 126 9; 
127 4; 128 5; 129 12; 130 1; 137 1; 
138 3; 139 2; 141 805; 142 141; 143 14; 
144 1; 153 4; 154 6; 155 59; 156 999; 
157 311; 158 28; 159 2; 165 1; 167 4; 
168 3; 169 3; 170 1; 181 11; 182 1; 
183 61; 184 6; 185 2; 197 76; 198 36; 
199 3; 211 5; 
