Name: Amphetamine
Synon: Adderall
Synon: Dexedrine
Synon: .alpha.-Methylbenzeneethaneamine
Synon: 1-Phenyl-2-aminopropane
Synon: Desoxynorephedrine
Synon: Phenedrine
InChIKey: KWTSXDURSIMDCE-UHFFFAOYSA-N
Formula: C9H13N
MW: 135
ExactMass: 135.104799
CASNO: 300629
ID: 3894
Comment: DEA SWL / SWGDRUG Monograph available
Num Peaks: 50
37 1; 38 5; 39 33; 40 4; 41 13; 
42 41; 43 14; 44 999; 45 25; 50 11; 
51 24; 52 7; 53 3; 54 1; 56 2; 
57 1; 59 5; 60 8; 61 1; 62 6; 
63 19; 64 5; 65 54; 66 4; 74 3; 
75 2; 76 2; 77 15; 78 5; 79 2; 
86 1; 87 1; 89 14; 90 6; 91 95; 
92 16; 93 3; 102 2; 103 9; 104 3; 
115 11; 116 3; 117 10; 118 8; 119 3; 
120 21; 121 1; 132 1; 133 1; 134 3; 
