Name: 6-APB
Synon: 6-(2-aminopropyl)benzofuran
Synon: Benzo-Fury
Synon: Benfamine
Synon: .alpha.-methyl-6-benzofuranethanamine
InChIKey: FQDAMYLMQQKPRX-UHFFFAOYSA-N
Formula: C11H13NO
MW: 175
ExactMass: 175.099714
CASNO: 286834842
ID: 3899
Comment: ENFSI / IFS Hungary / SWGDRUG Monograph available
Num Peaks: 79
41 5; 42 28; 43 11; 44 999; 45 24; 
50 13; 51 36; 52 9; 53 10; 54 2; 
55 1; 56 3; 57 1; 59 2; 61 1; 
62 11; 63 28; 64 6; 65 12; 66 14; 
67 1; 72 1; 73 2; 74 10; 75 15; 
76 19; 77 128; 78 17; 79 5; 80 10; 
85 1; 86 4; 87 6; 88 2; 89 16; 
90 5; 91 6; 92 1; 98 2; 99 1; 
101 8; 102 54; 103 31; 104 26; 105 7; 
106 1; 113 2; 114 1; 115 18; 116 4; 
117 5; 118 5; 119 1; 126 2; 127 9; 
128 22; 129 14; 130 19; 131 295; 132 244; 
133 24; 134 2; 142 1; 143 2; 144 6; 
145 1; 146 2; 155 2; 156 1; 157 6; 
158 8; 159 7; 160 14; 161 1; 172 2; 
173 5; 174 5; 175 34; 176 3; 
