Name: 5-APDB
Synon: 3-Desoxy-MDA
Synon: EMA-4
Synon: 5-(2-Aminopropyl)-2,3-dihydrobenzofuran
InChIKey: PZTJXZKNTPCPJL-UHFFFAOYSA-N
Formula: C11H15NO
MW: 177
ExactMass: 177.115364
CASNO: 152623944
ID: 3900
Comment: DEA SFL1 lot N16-P60B / SWGDRUG Monograph available
Num Peaks: 75
38 2; 39 20; 40 3; 41 7; 42 25; 
43 12; 44 999; 45 26; 50 11; 51 35; 
52 14; 53 20; 54 3; 55 14; 56 3; 
57 2; 58 1; 59 2; 62 5; 63 16; 
64 5; 65 20; 66 6; 71 1; 74 3; 
75 3; 76 5; 77 60; 78 21; 79 32; 
80 4; 81 7; 86 1; 87 1; 88 1; 
89 8; 90 4; 91 36; 92 4; 93 1; 
94 1; 101 1; 102 9; 103 29; 104 11; 
105 23; 106 7; 107 4; 115 17; 116 5; 
117 9; 118 5; 119 21; 120 3; 127 2; 
128 3; 129 2; 130 2; 131 18; 132 6; 
133 139; 134 471; 135 46; 136 3; 144 2; 
145 1; 146 2; 159 2; 160 2; 161 4; 
162 6; 175 2; 176 2; 177 10; 178 1; 
