Name: CP 47,497-C8 Homolog
Synon: 5-(1,1-dimethyloctyl)-2-[1R,3S)-3-hydroxycyclohexyl]-phenol
Synon: Cannabicyclohexanol
InChIKey: HNMJDLVMIUDJNH-PKOBYXMFSA-N
Formula: C22H36O2
MW: 332
ExactMass: 332.27153
CASNO: 70434923
ID: 3908
Comment: DEA SWL / SWGDRUG Monograph available
Num Peaks: 175
39 37; 40 5; 41 301; 42 26; 43 359; 
44 35; 45 6; 50 1; 51 7; 52 2; 
53 41; 54 7; 55 189; 56 17; 57 210; 
58 11; 59 1; 63 1; 64 2; 65 17; 
66 4; 67 28; 68 3; 69 47; 70 6; 
71 50; 72 6; 73 2; 77 41; 78 10; 
79 83; 80 12; 81 290; 82 23; 83 16; 
84 2; 85 44; 86 7; 87 1; 89 4; 
91 95; 92 12; 93 23; 94 6; 95 23; 
96 3; 97 24; 98 1; 99 6; 100 2; 
101 1; 102 4; 103 26; 104 7; 105 53; 
106 7; 107 172; 108 18; 109 9; 115 59; 
116 21; 117 49; 118 11; 119 35; 120 16; 
121 83; 122 9; 123 9; 127 20; 128 45; 
129 38; 130 10; 131 62; 132 22; 133 152; 
134 29; 135 146; 136 17; 137 2; 141 24; 
142 9; 143 12; 144 21; 145 69; 146 22; 
147 164; 148 64; 149 23; 150 4; 151 1; 
152 5; 153 5; 154 4; 155 10; 156 4; 
157 23; 158 15; 159 46; 160 23; 161 188; 
162 38; 163 8; 164 1; 165 4; 166 1; 
167 2; 168 1; 169 4; 170 2; 171 28; 
172 18; 173 89; 174 28; 175 19; 176 5; 
177 3; 183 1; 184 1; 185 13; 186 6; 
187 79; 188 15; 189 11; 190 3; 191 3; 
197 1; 199 9; 200 6; 201 35; 202 8; 
203 7; 204 1; 205 2; 207 5; 208 1; 
209 2; 213 9; 214 9; 215 999; 216 257; 
217 43; 218 4; 219 13; 220 1; 228 2; 
229 1; 231 46; 232 9; 233 740; 234 134; 
235 15; 243 4; 244 4; 245 4; 247 2; 
257 3; 258 9; 259 2; 260 33; 261 7; 
271 5; 272 1; 281 1; 286 1; 287 2; 
299 3; 313 2; 314 69; 315 13; 316 3; 
330 4; 331 1; 332 91; 333 23; 334 3; 
