Name: 3,4-Dimethoxyamphetamine
Synon: 3,4-DMA
InChIKey: KAZPHAGSWZTKDW-UHFFFAOYSA-N
Formula: C11H17NO2
MW: 195
ExactMass: 195.125929
CASNO: 120263
ID: 3911
Comment: ENFSI / SWGDRUG Monograph available
Num Peaks: 97
38 3; 39 25; 40 5; 41 9; 42 28; 
43 12; 44 999; 45 29; 46 1; 47 1; 
50 7; 51 24; 52 9; 53 9; 54 3; 
55 6; 56 3; 57 2; 58 4; 60 2; 
61 1; 62 3; 63 12; 64 5; 65 36; 
66 11; 67 6; 68 2; 69 2; 70 1; 
74 2; 75 1; 76 3; 77 31; 78 27; 
79 18; 80 7; 81 5; 82 2; 83 2; 
89 13; 90 17; 91 25; 92 5; 93 6; 
94 11; 95 5; 96 1; 97 1; 98 1; 
102 1; 103 3; 104 2; 105 21; 106 27; 
107 44; 108 11; 109 13; 110 2; 112 1; 
115 2; 116 1; 117 2; 118 5; 119 4; 
120 3; 121 12; 122 6; 123 4; 124 1; 
131 2; 132 1; 133 3; 134 2; 135 12; 
136 8; 137 40; 138 5; 139 1; 146 1; 
147 1; 148 3; 149 3; 150 3; 151 56; 
152 304; 153 32; 154 3; 162 1; 163 1; 
164 3; 165 1; 178 2; 179 1; 180 1; 
194 1; 195 2; 
