Name: Etaqualone
Synon: 4(3H)-Quinazolinone, 3-(2-ethylphenyl)-2-methyl-
Synon: 4(3H)-Quinazolinone, 3-(o-ethylphenyl)-2-methyl-
Synon: Aolan
Synon: Athinazone
Synon: Ethinazone
Synon: 3-(o-Ethylphenyl)-2-methylquinazolin-4(3H)-one
Synon: 3-(o-Ethylphenyl)-2-methyl-4(3H)-quinazolinone
Synon: 3-(2-Ethylphenyl)-2-methyl-4(3H)-quinazolinone
Synon: NSC 96163
InChIKey: UVTJKLLUVOTSOB-UHFFFAOYSA-N
Formula: C17H16N2O
MW: 264
ExactMass: 264.126263
CASNO: 7432259
ID: 3914
Comment: DEA SWL / SWGDRUG Monograph available
Num Peaks: 153
37 2; 38 8; 39 45; 40 6; 41 9; 
42 11; 43 7; 50 72; 51 65; 52 17; 
53 13; 54 2; 55 1; 58 6; 61 1; 
62 12; 63 54; 64 31; 65 35; 66 7; 
72 3; 74 18; 75 42; 76 180; 77 311; 
78 56; 79 112; 80 7; 82 1; 83 3; 
87 3; 88 8; 89 89; 90 79; 91 50; 
92 19; 93 5; 95 3; 97 3; 99 1; 
100 1; 101 10; 102 63; 103 119; 104 54; 
105 56; 106 17; 107 3; 110 28; 113 2; 
114 3; 115 14; 116 71; 117 100; 118 55; 
119 19; 120 17; 121 2; 122 1; 123 9; 
124 14; 126 3; 127 7; 128 47; 129 12; 
130 72; 131 30; 132 67; 133 7; 138 1; 
139 12; 140 12; 141 2; 142 5; 143 73; 
144 48; 145 14; 146 86; 147 14; 148 1; 
150 2; 151 11; 152 21; 153 7; 154 2; 
155 1; 156 5; 157 5; 158 58; 159 14; 
160 12; 161 13; 162 1; 163 2; 164 4; 
165 11; 166 21; 167 14; 168 3; 169 1; 
171 4; 173 7; 176 4; 177 7; 178 17; 
179 13; 180 14; 181 3; 182 1; 189 1; 
190 4; 191 7; 192 7; 193 7; 194 14; 
195 7; 196 2; 202 1; 203 5; 204 19; 
205 24; 206 24; 207 9; 208 6; 209 1; 
216 1; 217 2; 218 4; 219 16; 220 8; 
221 48; 222 13; 223 1; 230 1; 231 11; 
232 52; 233 26; 234 104; 235 253; 236 42; 
237 4; 245 5; 246 4; 247 151; 248 48; 
249 999; 250 180; 251 17; 252 1; 263 30; 
264 209; 265 40; 266 4; 
