Name: 4-Ethylmethcathinone
Synon: 4-EMC
Synon: 4-Ethyl-N-methylcathinone
Synon: 1-(4-ethylphenyl)-2-(methylamino)propan-1-one
InChIKey: FUYPDKFWOHBUFT-UHFFFAOYSA-N
Formula: C12H17NO
MW: 191
ExactMass: 191.131014
CASNO: 1225622149
ID: 3915
Comment: DEA SWL / SWGDRUG Monograph available
Num Peaks: 49
39 6; 40 1; 41 5; 42 20; 43 13; 
44 1; 50 6; 51 14; 52 3; 53 4; 
54 1; 55 4; 56 50; 57 16; 58 999; 
59 34; 62 2; 63 10; 64 3; 65 6; 
74 2; 75 2; 76 4; 77 37; 78 10; 
79 24; 80 1; 89 16; 90 13; 91 10; 
102 3; 103 20; 104 6; 105 13; 106 2; 
115 3; 116 1; 117 2; 118 2; 119 4; 
131 1; 132 1; 133 26; 134 3; 147 1; 
148 2; 160 1; 161 1; 176 1; 
