Name: Ethylone
Synon: 3,4-methylenedioxy-N-ethylcathinone
Synon: MDEC
Synon: bk-MDEA
Synon: 1-(benzo[d][1,3]dioxol-5-yl)-2-(ethylamino)propan-1-one
Synon: N-ethyl-3,4-methylenedioxycathinone
InChIKey: MJEMIOXXNCZZFK-UHFFFAOYSA-N
Formula: C12H15NO3
MW: 221
ExactMass: 221.105193
CASNO: 1112937640
ID: 3917
Comment: QHFSS Lab / SWGDRUG Monograph available
Num Peaks: 57
40 1; 41 6; 42 97; 43 8; 44 163; 
45 4; 50 4; 51 6; 52 1; 53 8; 
54 2; 55 4; 56 18; 57 2; 61 3; 
62 19; 63 53; 64 8; 65 61; 66 4; 
68 2; 70 116; 72 999; 73 46; 74 5; 
75 2; 76 1; 77 4; 78 1; 79 2; 
89 2; 90 1; 91 29; 92 5; 93 2; 
103 1; 118 1; 119 8; 120 5; 121 53; 
122 7; 135 11; 136 1; 146 2; 147 2; 
149 78; 150 8; 151 1; 162 1; 176 4; 
177 3; 178 6; 190 3; 206 1; 219 9; 
220 2; 221 1; 
