Name: Flunitrazepam
Synon: Rohypnol
Synon: 5-(2-fluorophenyl)-1,3-dihydro-1-methyl-7-nitro-2H-1,4-benzodiazepin-2-one
InChIKey: PPTYJKAXVCCBDU-UHFFFAOYSA-N
Formula: C16H12FN3O3
MW: 313
ExactMass: 313.08627
CASNO: 1622624
ID: 3920
Comment: DEA SWL / SWGDRUG Monograph available
Num Peaks: 224
40 12; 41 23; 42 70; 43 14; 44 6; 
45 3; 46 9; 50 53; 51 97; 52 42; 
53 12; 54 8; 55 7; 56 7; 57 38; 
58 7; 59 7; 61 12; 62 52; 63 143; 
64 39; 65 79; 66 60; 67 18; 68 17; 
69 20; 70 18; 71 3; 72 12; 73 9; 
74 74; 75 170; 76 115; 77 77; 78 74; 
79 22; 80 14; 81 54; 82 28; 83 47; 
84 14; 85 38; 86 32; 87 43; 88 52; 
89 102; 90 95; 91 70; 92 64; 93 30; 
94 57; 95 89; 97 6; 98 37; 99 54; 
100 26; 101 27; 102 61; 103 70; 104 41; 
105 58; 106 66; 107 115; 108 50; 109 219; 
110 41; 111 32; 112 24; 113 16; 114 12; 
115 23; 116 48; 117 100; 118 64; 119 107; 
120 70; 121 56; 122 35; 123 39; 124 19; 
125 28; 126 53; 127 15; 128 10; 129 22; 
130 22; 131 53; 132 51; 133 110; 134 89; 
135 44; 136 29; 137 10; 138 13; 139 12; 
140 10; 141 7; 142 11; 143 27; 144 179; 
145 68; 146 41; 147 13; 148 31; 149 46; 
150 44; 151 37; 152 23; 153 13; 154 5; 
155 30; 156 26; 157 99; 158 62; 159 21; 
160 12; 161 14; 162 23; 163 61; 164 51; 
165 48; 166 12; 167 20; 168 78; 169 111; 
170 216; 171 52; 172 17; 173 7; 174 8; 
175 28; 176 63; 177 47; 178 25; 179 20; 
180 33; 181 123; 182 122; 183 373; 184 118; 
185 47; 186 11; 188 12; 189 13; 190 88; 
191 58; 192 46; 193 27; 194 23; 195 109; 
196 84; 197 56; 198 77; 199 35; 200 12; 
201 5; 202 18; 203 33; 204 34; 205 44; 
206 20; 207 23; 208 60; 209 90; 210 151; 
211 145; 212 57; 213 8; 215 3; 216 9; 
217 13; 218 25; 219 62; 220 66; 221 29; 
222 43; 223 204; 224 177; 225 44; 226 61; 
227 49; 228 12; 232 3; 233 6; 234 3; 
235 11; 236 59; 237 222; 238 564; 239 353; 
240 95; 241 13; 247 50; 248 217; 249 39; 
250 5; 251 14; 252 21; 254 85; 255 27; 
256 13; 257 15; 264 7; 266 511; 267 111; 
268 29; 269 17; 270 49; 271 15; 282 10; 
284 267; 285 927; 286 999; 287 175; 288 23; 
294 290; 295 59; 296 22; 297 12; 298 3; 
312 838; 313 608; 314 104; 315 13; 
