Name: 2-Fluoromethamphetamine
Synon: 2-FMA
Synon: o-Fluoromethamphetamine
InChIKey: XNWIKJYFOIDUGD-UHFFFAOYSA-N
Formula: C10H14FN
MW: 167
ExactMass: 167.111028
CASNO: 1017176485
ID: 3923
Comment: ENFSI / NBI Finland; NMI (Australia) / SWGDRUG Monograph available
Num Peaks: 82
38 2; 39 16; 40 1; 41 14; 42 45; 
43 17; 44 2; 50 6; 51 9; 52 2; 
54 4; 55 2; 56 58; 57 33; 58 999; 
59 43; 60 1; 61 1; 62 5; 63 16; 
64 2; 65 3; 67 1; 68 2; 69 3; 
70 5; 71 1; 74 3; 75 13; 76 4; 
77 4; 78 1; 80 1; 81 7; 82 2; 
83 53; 84 3; 86 1; 87 2; 88 1; 
89 8; 90 1; 91 2; 94 2; 95 5; 
96 8; 97 2; 101 7; 102 2; 103 3; 
104 1; 105 1; 107 17; 108 6; 109 115; 
110 11; 111 2; 115 8; 116 1; 117 4; 
118 1; 120 2; 121 3; 122 6; 123 3; 
124 1; 130 1; 131 1; 132 1; 133 11; 
134 3; 135 12; 136 7; 137 11; 138 1; 
148 1; 150 6; 151 4; 152 24; 153 2; 
164 1; 166 7; 
