Name: 3-Fluoromethamphetamine
Synon: 3-FMA
Synon: 1-(3-fluorophenyl)-N-methylpropan-2-amine
Synon: m-Fluoromethamphetamine
InChIKey: RRVAUTPWWWFYQT-UHFFFAOYSA-N
Formula: C10H14FN
MW: 167
ExactMass: 167.111028
CASNO: 1182818149
ID: 3924
Comment: Provided by www.caymanchem.com/app/template/landing%2CForensic.vm / Item #9001185  Lot #0435104 / SWGDRUG Monograph available
Num Peaks: 87
40 3; 41 17; 42 54; 43 19; 44 5; 
50 8; 51 11; 52 2; 53 1; 54 4; 
55 3; 56 73; 58 999; 59 47; 60 1; 
61 2; 62 8; 63 21; 64 3; 65 3; 
66 1; 68 3; 69 5; 70 8; 71 1; 
74 6; 75 19; 76 6; 77 5; 78 1; 
80 1; 81 11; 83 80; 84 4; 85 1; 
86 2; 87 2; 88 1; 89 13; 90 1; 
91 4; 92 1; 93 1; 94 4; 95 9; 
96 14; 97 2; 98 1; 100 1; 101 11; 
102 3; 103 5; 104 1; 105 1; 107 26; 
109 178; 110 16; 111 3; 115 15; 116 4; 
117 6; 118 2; 120 4; 121 7; 122 10; 
123 4; 124 2; 130 2; 131 1; 132 2; 
133 21; 134 6; 135 23; 136 14; 137 17; 
138 2; 148 4; 149 1; 150 12; 151 9; 
152 48; 153 5; 162 1; 164 3; 165 1; 
166 13; 167 1; 
