Name: 2-Fluoromethcathinone
Synon: 2-FMC
Synon: o-Fluoromethcathinone
Synon: 1-(2-fluorophenyl)-2-(methylamino)propan-1-one
InChIKey: DCMOUMKIDLRIBO-UHFFFAOYSA-N
Formula: C10H12FNO
MW: 181
ExactMass: 181.090292
CASNO: 1346599378
ID: 3926
Comment: DEA NCL (contributed by TAD) / SWGDRUG Monograph available
Num Peaks: 83
37 1; 38 2; 39 5; 40 2; 41 13; 
42 61; 43 32; 44 3; 45 1; 49 1; 
50 20; 51 17; 52 2; 53 2; 54 5; 
55 7; 56 107; 57 27; 58 999; 59 35; 
61 1; 62 4; 63 6; 64 1; 65 1; 
68 11; 69 20; 70 4; 73 2; 74 18; 
75 95; 76 11; 77 12; 78 1; 81 2; 
83 3; 86 1; 89 2; 90 1; 91 8; 
92 3; 93 3; 94 13; 95 112; 96 13; 
97 2; 101 3; 102 2; 103 5; 104 2; 
105 2; 107 3; 108 1; 109 11; 110 1; 
115 1; 117 2; 118 3; 120 1; 121 1; 
122 2; 123 76; 124 6; 125 1; 130 1; 
131 1; 132 7; 133 4; 135 1; 136 1; 
138 4; 146 1; 148 1; 150 4; 151 3; 
152 2; 160 1; 161 7; 162 1; 164 1; 
165 2; 166 6; 181 1; 
