Name: 3-Fluoromethcathinone
Synon: 3-FMC
Synon: m-Fluoromethcathinone
Synon: 1-(3-fluorophenyl)-2-(methylamino)propan-1-one
Synon: 3-Fluoro-N-methylcathinone
InChIKey: PQIBROLLUQSNQI-UHFFFAOYSA-N
Formula: C10H12FNO
MW: 181
ExactMass: 181.090292
CASNO: 1049677771
ID: 3928
Comment: DEA NCL (contributed by TAD) / SWGDRUG Monograph available
Num Peaks: 66
38 2; 39 4; 40 2; 41 14; 42 54; 
43 32; 44 3; 45 1; 49 1; 50 18; 
51 13; 52 2; 53 2; 54 5; 55 8; 
56 82; 57 26; 58 999; 59 35; 61 2; 
62 4; 63 5; 68 10; 69 19; 70 4; 
73 1; 74 18; 75 100; 76 9; 77 5; 
81 2; 82 1; 83 3; 86 1; 89 1; 
92 2; 93 3; 94 14; 95 158; 96 17; 
97 3; 101 3; 102 1; 103 3; 107 4; 
108 1; 109 8; 120 1; 121 3; 122 2; 
123 53; 124 4; 133 3; 134 1; 135 2; 
136 1; 138 3; 148 1; 149 1; 150 4; 
151 6; 152 2; 164 1; 165 2; 166 8; 
180 1; 
