Name: JWH-018 N-(5-chloropentyl) analog
Synon: (1-(5-chloropentyl)-1H-indol-3-yl)(naphthalen-1-yl)methanone
InChIKey: NZQRTHJPVKPTBV-UHFFFAOYSA-N
Formula: C24H22ClNO
MW: 375
ExactMass: 375.138992
CASNO: 1445578562
ID: 3933
Comment: Provided by www.caymanchem.com/app/template/landing%2CForensic.vm / Item 10521  Lot #0434099 / SWGDRUG Monograph available
Num Peaks: 142
40 11; 41 185; 43 40; 44 2; 51 11; 
53 14; 55 13; 63 37; 65 15; 67 16; 
69 110; 73 28; 74 11; 75 54; 76 36; 
77 132; 78 18; 87 14; 88 29; 89 88; 
90 21; 94 9; 96 10; 101 86; 102 90; 
103 44; 107 10; 113 46; 114 42; 115 106; 
116 206; 117 42; 120 36; 121 11; 125 22; 
126 163; 127 999; 128 295; 129 156; 130 105; 
131 15; 133 16; 135 19; 139 28; 140 14; 
142 318; 143 55; 144 534; 145 53; 149 14; 
151 12; 152 13; 154 34; 155 568; 156 84; 
157 25; 158 27; 163 19; 167 270; 168 64; 
170 67; 176 10; 181 10; 184 15; 185 10; 
187 22; 188 12; 189 42; 190 10; 200 17; 
201 14; 202 19; 209 2; 211 13; 212 95; 
213 128; 214 67; 215 101; 216 28; 220 17; 
221 19; 222 12; 224 25; 225 23; 226 103; 
227 55; 228 52; 229 18; 238 35; 239 47; 
240 168; 241 277; 242 133; 243 40; 244 15; 
248 864; 249 130; 250 282; 251 60; 252 14; 
253 55; 254 283; 255 123; 256 171; 257 43; 
265 16; 266 63; 267 83; 268 72; 269 142; 
270 435; 271 115; 272 23; 280 28; 281 12; 
282 73; 284 959; 285 193; 286 25; 294 17; 
296 28; 312 13; 322 22; 323 9; 331 13; 
338 24; 339 26; 340 46; 341 25; 346 14; 
347 10; 356 15; 358 447; 359 142; 360 159; 
361 35; 362 12; 374 397; 375 835; 376 330; 
377 309; 378 53; 
