Name: 5-Methoxy-.alpha.-methyltryptamine
Synon: 5-MeO-AMT
InChIKey: OGNJZVNNKBZFRM-UHFFFAOYSA-N
Formula: C12H16N2O
MW: 204
ExactMass: 204.126264
CASNO: 1137048
ID: 3940
Comment: DEA SWL / SWGDRUG Monograph available
Num Peaks: 93
40 4; 41 8; 42 29; 44 787; 45 21; 
50 9; 51 21; 52 14; 53 7; 54 3; 
55 1; 56 3; 59 5; 61 2; 62 13; 
63 40; 64 16; 65 16; 66 4; 67 2; 
72 3; 73 8; 74 9; 75 16; 76 17; 
77 28; 78 13; 79 6; 80 8; 86 3; 
87 11; 88 8; 89 83; 90 76; 91 26; 
92 6; 93 1; 94 3; 95 1; 98 2; 
100 2; 101 9; 102 26; 103 18; 104 15; 
105 3; 106 1; 113 2; 114 4; 115 15; 
116 47; 117 234; 118 75; 119 9; 127 4; 
128 22; 129 17; 130 54; 131 11; 132 13; 
133 4; 140 2; 141 2; 142 6; 143 10; 
144 27; 145 213; 146 237; 147 31; 148 2; 
154 3; 155 4; 156 5; 157 4; 158 8; 
160 538; 161 999; 162 112; 163 8; 169 1; 
170 2; 171 3; 172 6; 173 6; 174 4; 
185 1; 186 3; 187 5; 188 7; 189 9; 
202 1; 204 34; 205 5; 
