Name: 4-Methoxymethamphetamine
Synon: para-methoxymethamphetamine
Synon: PMMA
Synon: 4-MMA
Synon: PIHKAL #130
InChIKey: UGFMBZYKVQSQFX-UHFFFAOYSA-N
Formula: C11H17NO
MW: 179
ExactMass: 179.131014
CASNO: 22331700
ID: 3942
Comment: DEA SWL / SWGDRUG Monograph available
Num Peaks: 66
40 1; 41 9; 42 25; 43 12; 44 3; 
50 5; 51 15; 52 11; 53 5; 54 2; 
55 3; 56 38; 57 12; 58 999; 59 36; 
62 2; 63 9; 64 4; 65 11; 66 1; 
67 1; 70 1; 74 1; 75 1; 76 2; 
77 32; 78 38; 79 8; 80 1; 82 4; 
89 10; 90 4; 91 22; 92 4; 93 1; 
94 1; 102 1; 103 4; 104 2; 105 3; 
106 5; 107 4; 108 2; 115 4; 116 1; 
117 4; 118 2; 119 2; 120 2; 121 66; 
122 18; 123 2; 131 1; 132 3; 133 3; 
134 3; 135 1; 146 1; 147 3; 148 8; 
149 5; 162 2; 163 2; 164 5; 177 1; 
178 2; 
