Name: 1-(3-Methoxyphenyl)piperazine
Synon: 3-MeOPP
Synon: m-MeOPP
Synon: m-Methoxyphenylpiperazine
InChIKey: PZIBVWUXWNYTNL-UHFFFAOYSA-N
Formula: C11H16N2O
MW: 192
ExactMass: 192.126264
CASNO: 6968769
ID: 3943
Comment: DEA SWL / SWGDRUG Monograph available
Num Peaks: 87
40 3; 41 11; 42 25; 43 7; 44 6; 
50 10; 51 15; 52 9; 53 7; 54 8; 
55 6; 56 87; 57 32; 58 3; 62 6; 
63 31; 64 37; 65 41; 66 10; 67 2; 
68 3; 69 1; 74 3; 75 4; 76 10; 
77 69; 78 39; 79 17; 80 4; 81 3; 
82 1; 83 3; 85 2; 89 2; 90 4; 
91 18; 92 56; 93 18; 94 5; 95 6; 
96 11; 102 1; 103 3; 104 25; 105 9; 
106 20; 107 53; 108 28; 109 6; 116 1; 
117 6; 118 10; 119 9; 120 8; 121 28; 
122 8; 123 2; 130 2; 131 3; 132 7; 
133 5; 134 52; 135 139; 136 56; 137 20; 
138 2; 145 1; 146 4; 147 4; 148 10; 
150 999; 151 100; 152 6; 159 1; 160 2; 
161 2; 162 10; 163 2; 164 1; 175 1; 
176 1; 177 5; 189 1; 190 3; 192 286; 
193 33; 194 2; 
