Name: 4,5-MDAI
Synon: 4,5-(methylenedioxy)-2-amino-indan
Synon: 7,8-Dihydro-6H-indeno[4,5-d][1,3]dioxol-7-amine
InChIKey: AHYFDWHTTFREHS-UHFFFAOYSA-N
Formula: C10H11NO2
MW: 177
ExactMass: 177.078979
CASNO: 0
ID: 3946
Comment: DEA SFL1 / Lot N16-P75C / SWGDRUG Monograph available
Num Peaks: 111
29 54; 30 103; 31 12; 32 4; 36 2; 
37 11; 38 38; 39 144; 40 27; 41 55; 
42 83; 43 59; 44 4; 46 7; 47 23; 
49 6; 50 115; 51 192; 52 83; 53 87; 
54 35; 55 20; 56 16; 58 4; 59 100; 
60 34; 61 14; 62 50; 63 151; 64 56; 
65 194; 66 41; 67 29; 68 14; 69 2; 
70 2; 74 56; 75 59; 76 71; 77 195; 
78 86; 79 75; 80 51; 81 8; 82 2; 
83 1; 85 3; 86 11; 88 31; 89 196; 
90 72; 91 444; 92 148; 93 56; 94 23; 
95 5; 98 4; 99 2; 100 2; 101 23; 
102 232; 103 118; 104 138; 105 67; 106 46; 
107 45; 108 11; 109 2; 110 1; 114 3; 
115 10; 116 39; 117 143; 118 334; 119 133; 
120 190; 121 62; 122 14; 123 2; 128 26; 
129 10; 130 317; 131 95; 132 132; 133 49; 
134 42; 135 275; 136 29; 137 4; 142 1; 
144 5; 145 13; 146 179; 147 129; 148 158; 
149 692; 150 154; 151 15; 158 34; 159 33; 
160 759; 161 129; 162 55; 163 5; 172 2; 
174 23; 175 12; 176 160; 177 999; 178 112; 
179 10; 
