Name: 3,4-Methylenedioxyamphetamine
Synon: MDA
Synon: 3,4-MDA
Synon: PIHKAL #100
Synon: Tenamfetamine
InChIKey: NGBBVGZWCFBOGO-UHFFFAOYSA-N
Formula: C10H13NO2
MW: 179
ExactMass: 179.094628
CASNO: 4764174
ID: 3947
Comment: DEA SWL / SWGDRUG Monograph available
Num Peaks: 56
37 1; 38 6; 39 20; 40 5; 41 7; 
42 34; 43 9; 44 999; 45 26; 50 18; 
51 77; 52 18; 53 13; 54 3; 55 2; 
56 4; 59 1; 61 1; 62 7; 63 14; 
64 3; 65 7; 66 2; 67 3; 74 5; 
75 3; 76 8; 77 74; 78 30; 79 15; 
80 4; 82 17; 89 6; 90 1; 91 4; 
92 1; 102 2; 103 7; 104 7; 105 19; 
106 16; 107 6; 120 2; 121 3; 131 3; 
133 2; 134 7; 135 106; 136 220; 137 20; 
147 1; 162 1; 163 2; 164 4; 178 2; 
179 10; 
