Name: 3,4-Methylenedioxymethamphetamine
Synon: MDMA
Synon: Ecstasy
Synon: MDM
Synon: PIHKAL #109
Synon: 3,4-Methylenedioxy-N-methylamphetamine
Synon: (RS)-1-(benzo[d][1,3]dioxol-5-yl)-N-methylpropan-2-amine
Synon: XTC
InChIKey: SHXWCVYOXRDMCX-UHFFFAOYSA-N
Formula: C11H15NO2
MW: 193
ExactMass: 193.110279
CASNO: 42542109
ID: 3949
Comment: DEA SWL / SWGDRUG Monograph available
Num Peaks: 69
38 2; 39 16; 40 2; 41 9; 42 31; 
43 15; 44 6; 50 11; 51 48; 52 9; 
53 8; 54 2; 55 3; 56 55; 57 13; 
58 999; 59 35; 60 1; 62 4; 63 10; 
64 2; 65 7; 66 1; 67 2; 70 1; 
74 2; 75 3; 76 6; 77 52; 78 14; 
79 10; 80 2; 81 1; 87 1; 89 14; 
90 1; 91 4; 92 1; 96 1; 102 1; 
103 8; 104 6; 105 13; 106 4; 107 1; 
117 1; 118 3; 119 1; 120 3; 121 2; 
131 1; 132 1; 133 2; 134 3; 135 50; 
136 26; 137 3; 147 2; 148 3; 149 1; 
161 1; 162 2; 163 2; 176 2; 177 1; 
178 3; 191 1; 192 1; 193 2; 
