Name: 25B-NBOMe
InChIKey: SUXGNJVVBGJEFB-UHFFFAOYSA-N
Synon: 2-(4-Bromo-2,5-dimethoxyphenyl)-N-[(2-methoxyphenyl)methyl]ethanamine
Synon: 2C-B-NBOMe
Synon: 2C-B-NB2OMe
Synon: NBOMe-2C-B
Synon: Cimbi-36
Synon: 2-(4-Bromo-2,5-dimethoxyphenyl)-N-(2-methoxybenzyl)ethanamine
Synon: 25B-NB2OMe
Formula: C18H22BrNO3
MW: 379
ExactMass: 379.078306
CASNO: 1026511909
ID: 3954
Comment: ENFSI / NFI case sample blotter paper / SWGDRUG Monograph available
Num Peaks: 107
29 1; 30 2; 38 1; 39 7; 41 3; 
42 4; 43 3; 50 4; 51 15; 52 7; 
53 9; 54 1; 55 1; 62 1; 63 10; 
64 5; 65 39; 66 4; 67 2; 74 1; 
75 3; 76 5; 77 45; 78 28; 79 10; 
80 2; 89 15; 90 13; 91 255; 92 29; 
93 32; 94 4; 102 1; 103 2; 104 5; 
105 24; 106 9; 107 18; 108 4; 109 1; 
116 1; 117 4; 118 9; 119 10; 120 14; 
121 999; 122 93; 123 6; 131 1; 132 3; 
133 5; 134 9; 135 6; 136 5; 143 4; 
145 4; 146 1; 147 2; 148 17; 149 8; 
150 559; 151 60; 152 4; 155 1; 156 1; 
157 2; 158 1; 159 1; 162 1; 163 1; 
164 3; 165 1; 169 3; 170 1; 171 5; 
172 1; 173 2; 184 2; 185 1; 186 5; 
187 1; 188 3; 189 1; 199 13; 200 1; 
201 13; 202 1; 213 4; 214 1; 215 5; 
216 1; 217 2; 227 1; 228 4; 229 12; 
230 16; 231 12; 232 11; 233 1; 243 2; 
244 1; 245 2; 346 1; 347 1; 348 5; 
349 1; 350 3; 
