Name: 25C-NBOMe
InChIKey: FJFPOGCVVLUYAQ-UHFFFAOYSA-N
Synon: 2-(4-Chloro-2,5-dimethoxyphenyl)-N-[(2-methoxyphenyl)methyl]ethanamine
Synon: 2C-C-NBOMe
Synon: 25C-NB2OMe
Synon: 2C-C-NB2OMe
Synon: NBOMe-2C-C
Synon: Cimbi-82
Synon: Pandora
Synon: Dime
Synon: 2-(4-Chloro-2,5-dimethoxyphenyl)-N-(2-methoxybenzyl)ethanamine
Formula: C18H22ClNO3
MW: 335
ExactMass: 335.12882
CASNO: 1227608027
ID: 3955
Comment: ENFSI / FCL Finland, confirmed by LC-MS / SWGDRUG Monograph available
Num Peaks: 109
31 3; 32 105; 39 7; 40 8; 41 3; 
42 7; 43 10; 44 99; 45 3; 50 1; 
51 9; 52 6; 53 3; 61 1; 63 5; 
64 2; 65 29; 66 1; 70 1; 73 6; 
75 5; 76 4; 77 42; 78 24; 79 9; 
80 1; 87 1; 88 1; 89 13; 90 8; 
91 227; 92 22; 93 21; 94 1; 96 2; 
99 7; 100 1; 101 1; 102 2; 103 6; 
104 5; 105 20; 106 5; 107 16; 108 1; 
111 1; 112 6; 113 3; 114 4; 115 2; 
116 2; 117 8; 118 8; 119 8; 120 8; 
121 999; 122 98; 123 8; 125 10; 127 5; 
132 9; 133 11; 134 9; 135 3; 136 5; 
140 2; 141 2; 142 11; 143 1; 144 4; 
147 4; 148 107; 149 21; 150 508; 151 46; 
152 5; 155 28; 157 8; 158 1; 159 1; 
164 5; 168 2; 169 8; 170 2; 171 8; 
172 1; 183 3; 184 16; 185 31; 186 32; 
187 16; 188 7; 191 2; 193 1; 196 2; 
198 4; 199 6; 200 1; 201 1; 207 35; 
208 7; 209 2; 281 4; 302 97; 303 15; 
304 40; 305 4; 333 1; 334 1; 
