Name: 25D-NBOMe
InChIKey: UTVHBNXCFSATDB-UHFFFAOYSA-N
Synon: 2-(2,5-dimethoxy-4-methylphenyl)-N-(2-methoxybenzyl)ethanamine
Synon: Cimbi-138
Synon: 2C-D-NBOMe
Synon: 25D-NB2OMe
Synon: 2C-D-NB2OMe
Formula: C19H25NO3
MW: 315
ExactMass: 315.183443
CASNO: 1354632022
ID: 3956
Comment: Provided by www.caymanchem.com/app/template/landing%2CForensic.vm / Item #11946  Lot #0443535 / SWGDRUG Monograph available
Num Peaks: 83
40 4; 41 6; 42 4; 43 4; 44 1; 
50 3; 51 15; 52 9; 53 12; 55 3; 
63 8; 64 4; 65 55; 66 7; 67 8; 
68 3; 69 2; 74 2; 75 2; 77 75; 
78 44; 79 45; 80 6; 81 2; 89 14; 
91 394; 92 44; 93 41; 94 6; 95 2; 
96 2; 102 3; 103 24; 104 12; 105 25; 
106 9; 107 29; 108 7; 109 2; 115 3; 
116 2; 117 9; 118 13; 119 13; 121 999; 
122 109; 123 10; 130 1; 131 3; 132 4; 
133 5; 134 10; 135 57; 136 15; 137 7; 
138 1; 142 1; 146 4; 147 5; 148 25; 
150 299; 151 47; 152 4; 157 1; 161 1; 
162 6; 163 7; 164 11; 165 41; 166 190; 
167 17; 168 2; 176 2; 177 1; 178 5; 
179 8; 208 1; 209 1; 281 1; 282 11; 
283 5; 284 24; 285 4; 
