Name: 25E-NBOMe
InChIKey: PXDVGFGXPVCNAB-UHFFFAOYSA-N
Synon: 2-(4-Ethyl-2,5-dimethoxyphenyl)-N-(2-methoxybenzyl)ethanamine
Synon: 2C-E-NBOMe
Synon: 2-(4-Ethyl-2,5-dimethoxyphenyl)-N-(2-methoxybenzyl)ethan-1-amine
Synon: NBOMe-2C-E
Synon: 25E-NB2OMe
Synon: 2C-E-NB2OMe
Formula: C20H27NO3
MW: 329
ExactMass: 329.199093
CASNO: 1539266391
ID: 3957
Comment: Provided by www.caymanchem.com/app/template/landing%2CForensic.vm / Item #14727  Lot #0451918 / SWGDRUG Monograph available
Num Peaks: 110
40 1; 41 5; 42 3; 43 3; 45 1; 
50 2; 51 8; 52 5; 53 6; 54 1; 
55 3; 57 1; 62 1; 63 6; 65 43; 
66 5; 67 6; 68 1; 69 1; 73 1; 
74 1; 75 3; 77 52; 78 37; 79 21; 
80 3; 81 1; 89 11; 91 357; 92 34; 
93 39; 94 6; 95 2; 102 3; 103 16; 
104 14; 105 25; 106 9; 107 22; 108 6; 
109 4; 115 25; 116 8; 117 30; 118 16; 
119 25; 121 999; 122 96; 123 10; 127 1; 
128 1; 129 1; 130 2; 131 5; 132 6; 
133 14; 134 31; 135 18; 136 17; 137 3; 
142 1; 144 1; 145 1; 146 2; 147 6; 
148 25; 150 397; 151 43; 152 3; 157 2; 
160 1; 161 2; 162 4; 163 13; 164 11; 
165 24; 166 4; 175 1; 176 5; 177 7; 
178 15; 179 62; 180 279; 181 33; 182 3; 
190 2; 191 2; 192 4; 193 10; 194 1; 
195 1; 197 1; 207 11; 208 3; 209 1; 
222 1; 253 6; 254 1; 255 1; 281 1; 
282 1; 296 11; 297 7; 298 30; 299 6; 
300 1; 327 2; 328 1; 329 1; 331 1; 
