Name: 25H-NBOMe
InChIKey: RMLXCDMTGWSEOU-UHFFFAOYSA-N
Synon: 2-(2,5-dimethoxyphenyl)-N-(2-methoxybenzyl)ethanamine
Synon: 2C-H-NBOMe
Synon: 25H-NB2OMe
Synon: 2C-H-NB2OMe
Formula: C18H23NO3
MW: 301
ExactMass: 301.167793
CASNO: 1566571525
ID: 3958
Comment: Provided by www.caymanchem.com/app/template/landing%2CForensic.vm / Item #12061  Lot #0441102 / SWGDRUG Monograph available
Num Peaks: 67
40 1; 41 3; 42 5; 43 2; 50 2; 
51 12; 52 5; 53 5; 54 2; 55 3; 
62 1; 63 7; 64 5; 65 51; 66 6; 
67 2; 74 1; 75 1; 77 50; 78 40; 
79 18; 80 2; 81 1; 89 10; 91 306; 
92 29; 93 36; 94 6; 95 1; 102 1; 
103 4; 104 6; 105 11; 106 10; 107 20; 
108 16; 109 4; 116 2; 117 4; 118 8; 
119 7; 121 999; 122 90; 123 11; 132 3; 
133 6; 134 8; 135 18; 136 11; 137 11; 
138 2; 143 1; 148 26; 150 439; 151 72; 
152 66; 153 5; 154 1; 160 1; 162 4; 
163 2; 164 4; 165 8; 166 1; 268 9; 
270 18; 271 4; 
