Name: Oxycodone
Synon: OxyContin
Synon: (5R,9R,13S,14S)-4,5.alpha.-epoxy-14-hydroxy-3-methoxy-17-methylmorphinan-6-one
Synon: Roxicodone
Synon: Dihydrohydroxycodeinone
Synon: Pancodine
InChIKey: BRUQQQPBMZOVGD-UHFFFAOYSA-N
Formula: C18H21NO4
MW: 315
ExactMass: 315.147058
CASNO: 76426
ID: 3960
Comment: DEA SWL / SWGDRUG Monograph available
Num Peaks: 216
36 2; 38 4; 39 46; 40 10; 41 47; 
42 390; 43 81; 44 406; 45 19; 50 16; 
51 56; 52 22; 53 39; 54 8; 55 141; 
56 53; 57 103; 58 127; 59 31; 62 7; 
63 51; 64 18; 65 49; 66 13; 67 13; 
68 13; 69 11; 70 422; 71 70; 72 10; 
73 5; 74 7; 75 26; 76 26; 77 101; 
78 37; 79 16; 80 10; 81 13; 82 30; 
83 20; 84 101; 85 17; 86 16; 87 7; 
88 7; 89 58; 90 22; 91 91; 92 15; 
93 7; 94 42; 95 8; 96 15; 97 15; 
98 108; 99 17; 100 9; 101 28; 102 67; 
103 76; 104 17; 105 24; 106 7; 107 19; 
108 28; 109 6; 110 12; 111 25; 112 117; 
113 27; 114 25; 115 302; 116 86; 117 62; 
118 32; 119 19; 120 12; 121 10; 122 9; 
123 3; 126 22; 127 112; 128 142; 129 81; 
130 41; 131 86; 132 44; 133 16; 134 4; 
135 29; 137 19; 138 3; 139 35; 140 272; 
141 77; 142 28; 143 56; 144 89; 145 76; 
146 39; 147 32; 148 6; 149 5; 150 24; 
151 15; 152 30; 153 26; 154 25; 155 57; 
156 44; 157 56; 158 57; 159 71; 160 43; 
161 69; 162 38; 163 8; 164 3; 165 22; 
166 13; 167 12; 168 37; 169 44; 170 45; 
171 76; 172 41; 173 75; 174 63; 175 100; 
176 46; 177 13; 178 45; 179 51; 180 11; 
181 21; 182 20; 183 43; 184 61; 185 160; 
186 88; 187 170; 188 176; 189 62; 190 33; 
191 5; 192 7; 193 8; 194 7; 195 11; 
196 19; 197 32; 198 61; 199 94; 200 71; 
201 247; 202 118; 203 36; 204 14; 207 1; 
208 11; 209 8; 210 7; 211 27; 212 39; 
213 38; 214 111; 215 117; 216 100; 217 98; 
218 30; 219 3; 224 4; 225 12; 226 23; 
227 16; 228 38; 229 92; 230 448; 231 96; 
232 22; 238 6; 239 21; 240 26; 241 18; 
242 17; 243 10; 244 42; 245 7; 253 6; 
254 7; 255 7; 256 9; 257 5; 258 148; 
259 80; 260 16; 268 9; 270 6; 272 34; 
281 7; 282 3; 284 3; 285 2; 286 12; 
287 4; 296 3; 298 15; 299 4; 300 42; 
301 6; 313 8; 314 45; 315 999; 316 182; 
317 24; 
