Name: .alpha.-PBP
Synon: .alpha.-Pyrrolidinobutiophenone
Synon: 1-phenyl-2-(1-pyrrolidinyl)-1-butanone
Synon: .alpha.-Pyrrolidinobutyrophenone
InChIKey: GSESDIFGJCCBHN-UHFFFAOYSA-N
Formula: C14H19NO
MW: 217
ExactMass: 217.146665
CASNO: 13415548
ID: 3961
Comment: DEA SWL / SWGDRUG Monograph available
Num Peaks: 61
39 13; 40 2; 41 51; 42 36; 43 15; 
44 3; 50 7; 51 31; 52 3; 53 6; 
54 19; 55 53; 56 13; 57 1; 58 11; 
63 1; 65 2; 67 2; 68 10; 69 11; 
70 48; 71 2; 74 1; 75 1; 76 3; 
77 67; 78 6; 79 1; 80 2; 81 1; 
82 4; 83 2; 84 4; 89 1; 91 8; 
94 2; 95 1; 96 20; 97 14; 98 1; 
102 1; 103 1; 104 1; 105 34; 106 3; 
108 3; 110 35; 111 7; 112 999; 113 79; 
114 2; 115 2; 116 1; 117 1; 128 1; 
130 1; 131 1; 160 2; 186 1; 188 4; 
215 1; 
