Name: Sertraline
Synon: Zoloft
Synon: Lustral
Synon: (1S,4S)-4-(3,4-dichlorophenyl)-N-methyl-1,2,3,4-tetrahydronaphthalen-1-amine
InChIKey: VGKDLMBJGBXTGI-UHFFFAOYSA-N
Formula: C17H17Cl2N
MW: 305
ExactMass: 305.073805
CASNO: 79617962
ID: 3963
Comment: DEA SWL / from sample / SWGDRUG Monograph available
Num Peaks: 237
40 2; 41 11; 42 53; 43 5; 44 15; 
49 2; 50 12; 51 24; 52 6; 53 4; 
54 5; 55 4; 56 16; 57 11; 58 1; 
61 2; 62 8; 63 29; 64 5; 65 17; 
66 1; 67 3; 68 8; 69 1; 70 61; 
71 4; 72 1; 73 8; 74 20; 75 40; 
76 28; 77 55; 78 20; 79 6; 80 1; 
82 14; 84 5; 85 6; 86 8; 87 19; 
88 44; 89 95; 90 26; 91 95; 92 9; 
93 10; 95 23; 96 31; 97 6; 98 6; 
99 21; 100 27; 101 96; 102 122; 104 179; 
105 12; 106 22; 107 9; 108 1; 109 33; 
110 13; 111 24; 112 9; 113 21; 114 17; 
115 195; 116 193; 117 82; 118 120; 119 15; 
121 93; 123 28; 124 14; 125 25; 126 29; 
127 86; 128 221; 129 229; 130 139; 131 66; 
132 221; 133 211; 134 23; 135 15; 136 13; 
137 18; 139 30; 140 9; 141 7; 142 6; 
143 45; 144 95; 145 27; 146 30; 147 9; 
148 15; 149 18; 150 29; 151 35; 152 33; 
153 9; 154 6; 155 2; 156 7; 157 7; 
158 66; 159 502; 160 53; 161 191; 162 38; 
163 101; 164 47; 165 104; 166 23; 167 5; 
168 2; 170 3; 171 3; 172 14; 173 8; 
174 21; 175 21; 176 89; 177 38; 178 147; 
179 30; 180 5; 181 1; 183 5; 184 2; 
185 6; 186 11; 187 14; 188 19; 189 70; 
190 70; 191 41; 192 17; 193 4; 194 2; 
196 2; 197 8; 198 9; 199 59; 200 42; 
201 43; 202 128; 203 110; 204 91; 205 33; 
206 21; 207 11; 208 2; 209 1; 210 4; 
211 18; 212 100; 213 54; 214 40; 215 17; 
216 5; 217 4; 218 3; 219 1; 220 1; 
222 1; 223 5; 224 8; 225 22; 226 18; 
227 27; 228 11; 229 7; 230 2; 231 1; 
232 1; 233 11; 234 4; 235 8; 236 9; 
237 8; 238 46; 239 148; 240 50; 241 70; 
242 43; 243 12; 244 11; 246 85; 247 25; 
248 58; 249 16; 250 12; 251 4; 252 1; 
253 2; 254 2; 255 1; 259 41; 260 15; 
261 46; 262 313; 263 63; 264 195; 265 32; 
266 32; 267 6; 268 2; 269 3; 270 2; 
271 1; 272 4; 273 1; 274 999; 275 214; 
276 828; 277 207; 278 233; 279 69; 280 27; 
281 8; 282 1; 287 1; 288 4; 289 2; 
290 11; 291 2; 292 6; 293 1; 302 4; 
303 6; 304 120; 305 35; 306 79; 307 20; 
308 15; 309 3; 
