Name: STS-135
Synon: 1-(5-fluoropentyl)-N-tricyclo[3.3.1.13,7]dec-1-yl-1H-indole-3-carboxamide
Synon: N-adamantyl-1-fluoropentylindole-3-carboxamide
Synon: 5F-2NE1
InChIKey: COYHGVCHRRXECF-UHFFFAOYSA-N
Formula: C24H31FN2O
MW: 382
ExactMass: 382.242043
CASNO: 1354631267
ID: 3964
Comment: Provided by www.caymanchem.com/app/template/landing%2CForensic.vm / Item #11564  Lot #0436854 / SWGDRUG Monograph available
Num Peaks: 211
40 3; 41 64; 42 8; 43 24; 44 2; 
45 1; 47 10; 50 1; 51 3; 52 1; 
53 10; 54 5; 55 23; 56 5; 57 3; 
58 7; 59 3; 61 5; 62 1; 63 2; 
65 8; 66 8; 67 26; 68 4; 69 15; 
70 2; 71 1; 73 1; 74 2; 75 3; 
77 37; 78 9; 79 45; 80 7; 81 11; 
82 3; 87 3; 88 4; 89 22; 90 5; 
91 37; 92 37; 93 46; 94 19; 95 4; 
97 1; 101 8; 102 20; 103 17; 104 3; 
105 9; 106 5; 107 10; 108 10; 109 3; 
110 1; 114 7; 115 35; 116 80; 117 17; 
118 14; 119 6; 120 5; 121 1; 124 2; 
125 11; 127 3; 128 34; 129 47; 130 58; 
131 10; 132 7; 133 3; 134 3; 135 42; 
136 5; 137 1; 138 1; 141 3; 142 6; 
143 50; 144 289; 145 38; 146 3; 147 4; 
148 3; 149 9; 150 6; 151 3; 153 8; 
154 4; 155 12; 156 15; 157 18; 158 12; 
159 1; 160 3; 162 1; 164 3; 165 5; 
166 2; 167 3; 168 5; 169 2; 170 19; 
171 6; 172 4; 173 61; 174 12; 176 4; 
178 2; 179 2; 180 2; 181 3; 182 2; 
183 3; 184 10; 185 2; 186 4; 187 2; 
188 1; 190 2; 192 2; 194 1; 195 1; 
197 2; 198 4; 199 1; 200 1; 201 1; 
203 2; 204 31; 205 9; 206 14; 207 6; 
208 1; 210 2; 211 1; 212 15; 213 4; 
217 2; 218 10; 219 6; 220 1; 221 2; 
226 1; 227 1; 230 10; 232 999; 233 151; 
234 14; 235 4; 236 5; 237 2; 238 1; 
247 1; 248 19; 249 5; 250 4; 251 3; 
252 1; 255 1; 257 1; 262 3; 264 53; 
265 14; 266 1; 267 2; 269 1; 270 1; 
276 1; 277 1; 278 4; 279 14; 282 1; 
283 1; 287 1; 289 1; 290 3; 291 1; 
293 2; 294 2; 295 1; 304 2; 305 2; 
307 182; 308 38; 309 6; 317 1; 318 1; 
319 1; 321 1; 325 7; 326 1; 327 1; 
335 8; 336 1; 337 1; 338 1; 339 1; 
341 1; 343 1; 345 1; 346 1; 362 1; 
365 34; 366 7; 367 1; 382 111; 383 33; 
384 6; 
