Name: Testosterone Cypionate
Synon: 17.beta.-Hydroxyandrost-4-ene-3-one cyclopentane propionate
Synon: Depo-Testosterone
Synon: Virolon
InChIKey: HPFVBGJFAYZEBE-UHFFFAOYSA-N
Formula: C27H40O3
MW: 412
ExactMass: 412.297745
CASNO: 58208
ID: 3966
Comment: DEA SWL / SWGDRUG Monograph available
Num Peaks: 235
40 10; 41 219; 42 22; 43 75; 44 4; 
45 4; 50 1; 51 5; 52 4; 53 61; 
54 30; 55 669; 56 34; 57 28; 58 2; 
59 1; 60 13; 63 2; 64 1; 65 29; 
66 17; 67 217; 68 39; 69 205; 70 14; 
71 19; 72 1; 73 16; 74 2; 75 1; 
76 1; 77 118; 78 30; 79 402; 80 66; 
81 338; 82 33; 83 78; 84 7; 85 9; 
86 6; 87 2; 89 2; 90 1; 91 277; 
92 43; 93 218; 94 84; 95 233; 96 41; 
97 168; 98 13; 99 10; 100 8; 101 2; 
102 2; 103 20; 104 19; 105 233; 106 61; 
107 471; 108 88; 109 148; 110 32; 111 55; 
112 7; 113 3; 114 4; 115 30; 116 15; 
117 72; 118 27; 119 140; 120 55; 121 134; 
122 92; 123 185; 124 999; 125 511; 126 41; 
127 8; 128 21; 129 43; 130 18; 131 134; 
132 43; 133 164; 134 137; 135 96; 136 54; 
137 76; 138 31; 139 4; 141 16; 142 17; 
143 37; 144 63; 145 129; 146 272; 147 739; 
148 172; 149 123; 150 21; 151 13; 152 3; 
153 3; 154 1; 155 17; 156 8; 157 38; 
158 27; 159 73; 160 41; 161 74; 162 54; 
163 37; 164 15; 165 24; 166 5; 167 5; 
168 3; 169 11; 170 8; 171 30; 172 28; 
173 42; 174 39; 175 34; 176 24; 177 17; 
178 4; 179 4; 180 1; 181 4; 182 3; 
183 12; 184 7; 185 104; 186 33; 187 29; 
188 16; 189 19; 190 5; 191 2; 193 1; 
194 1; 195 7; 196 5; 197 12; 198 5; 
199 28; 200 21; 201 16; 202 6; 203 8; 
204 3; 205 2; 206 1; 209 6; 210 4; 
211 16; 212 7; 213 57; 214 21; 215 12; 
216 2; 217 4; 218 2; 223 3; 224 4; 
225 8; 226 10; 227 36; 228 153; 229 58; 
230 168; 231 38; 232 5; 233 1; 237 17; 
238 2; 239 1; 241 10; 242 14; 243 13; 
244 6; 245 39; 246 17; 247 2; 251 3; 
252 17; 253 39; 254 7; 255 31; 256 6; 
257 3; 258 1; 259 3; 260 29; 261 6; 
268 1; 269 5; 270 50; 271 116; 272 22; 
273 36; 274 9; 275 1; 281 1; 286 2; 
287 11; 288 85; 289 23; 290 2; 301 3; 
314 2; 315 1; 327 11; 328 7; 329 1; 
330 5; 331 2; 352 1; 356 1; 369 1; 
370 35; 371 9; 372 1; 384 1; 394 1; 
397 3; 398 1; 412 42; 413 11; 414 1; 
