Name: Testosterone Enanthate
Synon: 17.beta.-Hydroxyandrost-4-ene-3-one 17-enanthate
Synon: Andro LA
Synon: Testo-Enant
Synon: Delatestryl
Synon: Testosterone Heptanoate
InChIKey: VOCBWIIFXDYGNZ-UHFFFAOYSA-N
Formula: C26H40O3
MW: 400
ExactMass: 400.297745
CASNO: 315377
ID: 3968
Comment: DEA SWL / SWGDRUG Monograph available
Num Peaks: 271
40 9; 41 226; 42 49; 43 712; 44 42; 
45 17; 50 2; 51 7; 52 5; 53 54; 
54 12; 55 306; 56 35; 57 144; 58 9; 
59 6; 60 33; 61 3; 63 2; 64 1; 
65 29; 66 13; 67 141; 68 28; 69 83; 
70 10; 71 15; 72 2; 73 34; 74 2; 
75 1; 76 1; 77 119; 78 30; 79 214; 
80 33; 81 153; 82 17; 83 63; 84 16; 
85 205; 86 19; 87 12; 89 4; 91 270; 
92 49; 93 211; 94 81; 95 201; 96 37; 
97 67; 98 7; 99 4; 101 10; 102 2; 
103 22; 104 22; 105 228; 106 57; 107 193; 
108 57; 109 157; 110 38; 111 60; 113 647; 
114 50; 115 38; 116 15; 117 83; 118 33; 
119 151; 120 60; 121 130; 122 100; 123 199; 
124 999; 125 112; 126 6; 127 7; 128 25; 
129 44; 130 22; 131 158; 132 52; 133 173; 
134 153; 135 102; 136 53; 137 76; 138 27; 
139 4; 140 1; 141 16; 142 16; 143 49; 
144 62; 145 135; 146 273; 147 763; 148 177; 
149 127; 150 22; 151 10; 152 5; 153 6; 
154 4; 155 17; 156 10; 157 43; 158 32; 
159 79; 160 44; 161 77; 162 51; 163 42; 
164 14; 165 24; 166 4; 167 6; 168 3; 
169 16; 170 12; 171 37; 172 39; 173 48; 
174 41; 175 34; 176 22; 177 21; 178 4; 
179 4; 180 2; 181 6; 182 4; 183 14; 
184 8; 185 133; 186 38; 187 37; 188 18; 
189 22; 190 5; 191 5; 192 1; 193 4; 
194 1; 195 11; 196 6; 197 18; 198 8; 
199 35; 200 30; 201 22; 202 9; 203 11; 
204 3; 205 2; 207 24; 208 6; 209 13; 
210 6; 211 14; 212 8; 213 75; 214 22; 
215 14; 216 5; 217 5; 218 2; 219 1; 
221 1; 223 6; 224 6; 225 7; 226 14; 
227 47; 228 216; 229 66; 230 195; 231 46; 
232 5; 233 1; 235 1; 236 1; 237 19; 
238 5; 239 2; 241 15; 242 21; 243 13; 
244 13; 245 58; 246 23; 247 3; 249 1; 
250 1; 251 8; 252 33; 253 51; 254 10; 
255 47; 256 10; 257 2; 259 4; 260 38; 
261 7; 265 1; 267 3; 268 2; 269 12; 
270 86; 271 85; 272 16; 273 62; 274 12; 
275 1; 276 5; 277 4; 281 12; 282 3; 
283 2; 284 1; 285 1; 286 3; 287 18; 
288 143; 289 35; 290 5; 291 1; 301 1; 
302 4; 303 1; 311 1; 315 31; 316 17; 
317 3; 318 2; 325 1; 327 4; 328 1; 
329 1; 330 3; 331 2; 340 3; 341 5; 
342 2; 343 2; 344 2; 346 1; 355 1; 
356 2; 357 3; 358 142; 359 36; 360 4; 
371 1; 372 6; 373 1; 377 1; 382 5; 
383 3; 384 1; 385 19; 386 3; 389 1; 
399 1; 400 208; 401 61; 402 10; 403 1; 
405 2; 
