Name: Testosterone Isocaproate
Synon: 17.beta.-Hydroxyandrost-4-ene-3-one isocaproate
Synon: Testosterone 4-methylvalerate
InChIKey: PPYHLSBUTAPNGT-UHFFFAOYSA-N
Formula: C25H38O3
MW: 386
ExactMass: 386.282095
CASNO: 15262869
ID: 3969
Comment: DEA SWL / SWGDRUG Monograph available
Num Peaks: 213
40 15; 41 257; 42 50; 43 668; 44 28; 
45 12; 50 4; 51 9; 52 13; 53 68; 
55 314; 56 63; 57 70; 58 8; 59 12; 
60 20; 61 4; 65 46; 66 22; 67 169; 
68 26; 69 90; 71 216; 72 16; 73 34; 
74 9; 77 170; 78 48; 79 295; 80 56; 
81 629; 82 45; 83 68; 84 6; 85 8; 
86 6; 87 5; 91 400; 92 61; 93 268; 
94 98; 95 211; 96 50; 97 103; 99 766; 
100 55; 101 32; 102 3; 103 37; 104 32; 
105 309; 106 77; 107 230; 108 75; 109 172; 
110 35; 111 59; 112 6; 113 3; 115 75; 
116 28; 117 128; 118 56; 119 217; 120 72; 
121 172; 122 139; 123 272; 124 999; 125 125; 
126 9; 127 11; 128 52; 129 88; 130 38; 
131 199; 132 71; 133 246; 134 202; 135 146; 
136 72; 137 101; 138 46; 139 6; 141 40; 
142 23; 143 71; 144 85; 145 197; 146 313; 
147 907; 148 199; 149 153; 150 27; 151 13; 
152 9; 153 13; 154 5; 155 30; 156 21; 
157 67; 158 51; 159 121; 160 60; 161 125; 
162 63; 163 68; 164 21; 165 33; 166 10; 
167 14; 168 13; 169 21; 170 16; 171 60; 
172 56; 173 75; 174 59; 175 56; 176 31; 
177 33; 178 9; 179 5; 181 8; 182 9; 
183 25; 185 193; 186 60; 187 61; 188 25; 
189 27; 190 5; 191 5; 193 4; 195 12; 
196 8; 197 18; 198 8; 199 57; 200 43; 
201 26; 202 8; 203 11; 204 3; 207 19; 
208 4; 209 21; 210 7; 211 21; 212 14; 
213 109; 214 38; 215 20; 216 12; 217 13; 
223 11; 224 10; 225 13; 226 17; 227 89; 
228 299; 229 100; 230 223; 231 60; 232 10; 
236 4; 237 25; 238 11; 241 19; 242 31; 
243 26; 244 18; 245 71; 246 30; 247 6; 
251 13; 252 38; 253 64; 254 19; 255 59; 
256 19; 259 7; 260 45; 261 12; 262 10; 
263 4; 270 101; 271 146; 272 37; 273 92; 
274 19; 281 7; 287 31; 288 164; 289 39; 
290 4; 301 47; 302 30; 304 5; 326 3; 
327 3; 330 6; 331 4; 343 10; 344 125; 
345 34; 358 6; 368 11; 371 20; 372 9; 
386 192; 387 63; 388 5; 
