Name: XLR11
Synon: (1-(5-fluoropentyl)-1H-indol-3-yl)(2,2,3,3-tetramethylcyclopropyl)methanone
Synon: 5F-UR-144
Synon: UR-144 N-(5-fluoropentyl) analog
Synon: 5-Fluoro-UR-144
InChIKey: PXLDPUUMIHVLEC-UHFFFAOYSA-N
Formula: C21H28FNO
MW: 329
ExactMass: 329.215492
CASNO: 1364933549
ID: 3972
Comment: Provided by www.caymanchem.com/app/template/landing%2CForensic.vm / Item #11565  Lot #0437258 / SWGDRUG Monograph available
Num Peaks: 173
41 53; 42 3; 43 24; 47 9; 50 1; 
51 2; 53 8; 55 35; 56 2; 57 7; 
59 8; 61 3; 62 1; 63 2; 64 1; 
65 3; 66 1; 67 8; 69 15; 70 1; 
75 3; 76 4; 77 9; 78 2; 79 9; 
80 1; 81 22; 82 2; 83 25; 84 2; 
87 1; 88 4; 89 21; 90 5; 91 4; 
93 1; 95 2; 96 3; 97 5; 101 8; 
102 20; 103 11; 104 2; 105 1; 109 24; 
110 2; 111 1; 113 8; 114 6; 115 32; 
116 60; 117 14; 118 7; 120 4; 125 6; 
126 2; 127 7; 128 26; 129 36; 130 56; 
131 9; 132 2; 139 3; 140 3; 141 6; 
142 7; 143 32; 144 188; 145 21; 146 2; 
148 1; 151 1; 152 5; 153 4; 154 16; 
155 7; 156 11; 157 14; 158 7; 159 1; 
164 1; 165 3; 166 6; 167 36; 168 28; 
169 6; 170 14; 171 3; 172 5; 173 1; 
176 1; 177 1; 178 2; 179 3; 180 31; 
181 23; 182 27; 183 9; 184 9; 185 2; 
186 1; 191 1; 192 2; 193 4; 194 16; 
195 7; 196 33; 197 11; 198 7; 199 1; 
203 1; 204 4; 205 29; 206 22; 207 4; 
208 4; 210 26; 211 6; 212 15; 213 2; 
218 5; 219 1; 220 1; 222 2; 223 1; 
224 15; 225 5; 226 2; 227 1; 230 6; 
232 999; 233 158; 234 17; 235 1; 236 1; 
238 2; 239 3; 240 1; 246 15; 247 67; 
248 11; 249 1; 252 2; 253 1; 254 10; 
256 59; 257 11; 258 3; 259 1; 260 1; 
261 2; 270 76; 271 44; 272 11; 273 2; 
281 1; 284 1; 286 31; 287 7; 288 16; 
289 3; 294 1; 298 1; 299 7; 300 2; 
309 1; 312 7; 314 115; 315 26; 316 3; 
329 90; 330 22; 331 2; 
