Name: AM1248
Synon: [1-[(1-methyl-2-piperidinyl)methyl]-1H-indol-3-yl]tricyclo[3.3.1.13,7]dec-1-yl-methanone
InChIKey: JRECAXBHMULNJQ-UHFFFAOYSA-N
Formula: C26H34N2O
MW: 390
ExactMass: 390.267115
CASNO: 335160662
ID: 3974
Comment: Provided by www.caymanchem.com/app/template/landing%2CForensic.vm / Item #11282  Lot #0434989 / SWGDRUG Monograph available
Num Peaks: 87
40 1; 41 18; 42 33; 43 4; 44 8; 
51 1; 52 1; 53 5; 54 3; 55 18; 
56 5; 57 3; 58 4; 65 3; 66 1; 
67 13; 68 10; 70 67; 71 3; 75 1; 
76 1; 77 14; 78 3; 79 28; 80 4; 
81 11; 82 11; 83 5; 84 2; 88 1; 
89 2; 91 10; 92 1; 93 21; 94 6; 
96 26; 98 999; 99 71; 100 2; 101 2; 
102 7; 103 3; 105 2; 107 8; 108 1; 
110 4; 111 3; 112 15; 113 1; 114 1; 
115 5; 116 2; 117 2; 127 1; 128 6; 
129 20; 130 6; 131 1; 135 29; 136 3; 
143 4; 144 5; 152 1; 154 2; 155 1; 
156 2; 157 6; 158 6; 159 1; 166 1; 
167 2; 168 1; 170 1; 180 1; 182 1; 
183 1; 184 1; 197 1; 199 1; 225 1; 
253 2; 255 1; 264 1; 292 8; 293 2; 
388 2; 389 1; 
