Name: 4-AcO-DPT
Synon: 4-Acetoxy-N,N-dipropyltryptamine
Synon: 3-[2-(dipropylamino)ethyl]-1H-indol-4-yl acetate
InChIKey: KRUGABVNKKKCJN-UHFFFAOYSA-N
Formula: C18H26N2O2
MW: 302
ExactMass: 302.199429
CASNO: 0
ID: 3976
Comment: ENFSI
Num Peaks: 89
29 1; 30 30; 39 3; 41 23; 42 19; 
43 75; 44 14; 51 2; 52 1; 53 1; 
54 1; 55 1; 56 5; 57 5; 58 2; 
63 3; 64 1; 65 3; 68 1; 70 10; 
71 2; 72 46; 73 2; 75 1; 76 1; 
77 7; 78 3; 79 1; 84 16; 85 2; 
86 53; 87 4; 89 6; 90 5; 91 5; 
92 1; 98 2; 100 4; 101 1; 102 3; 
103 6; 104 3; 105 2; 112 10; 113 4; 
114 999; 115 99; 116 7; 117 14; 118 10; 
119 1; 128 3; 129 3; 130 23; 131 8; 
132 3; 133 2; 140 2; 141 1; 142 2; 
143 1; 144 3; 145 6; 146 46; 147 8; 
148 1; 156 1; 157 2; 158 6; 159 20; 
160 40; 161 5; 170 1; 171 1; 172 1; 
174 1; 185 2; 186 1; 187 1; 188 3; 
201 3; 202 8; 203 1; 229 1; 230 1; 
259 1; 271 1; 273 1; 302 3; 
