Name: 2,5-Dimethylmethcathinone
Synon: 1-(2,5-dimethylphenyl)-2-(methylamino)propan-1-one
Synon: 2,5-DMMC
InChIKey: DXMZEFZHFMLFKR-UHFFFAOYSA-N
Formula: C12H17NO
MW: 191
ExactMass: 191.131014
CASNO: 0
ID: 3978
Comment: SFL1 lot N17-P95D / SWGDRUG Monograph available
Num Peaks: 68
30 31; 38 1; 39 11; 40 1; 41 7; 
42 24; 43 14; 44 2; 50 5; 51 19; 
52 7; 53 9; 54 2; 55 3; 56 48; 
57 15; 58 999; 59 38; 62 3; 63 13; 
64 3; 65 10; 66 1; 74 2; 75 3; 
76 3; 77 62; 78 24; 79 38; 80 2; 
86 1; 87 1; 89 6; 90 2; 91 16; 
92 1; 101 1; 102 7; 103 41; 104 13; 
105 48; 106 7; 107 1; 115 8; 116 2; 
117 5; 118 1; 119 5; 127 1; 128 3; 
129 2; 130 1; 131 3; 132 2; 133 32; 
134 3; 144 1; 145 2; 146 2; 148 1; 
158 2; 159 1; 160 1; 161 1; 174 1; 
175 1; 176 1; 192 1; 
