Name: Etaqualone 4-ethylphenyl analog
Synon: 3-(4-ethylphenyl)-2-methyl-quinazolin-4-one
InChIKey: VZGDBHQLZVBGDG-UHFFFAOYSA-N
Formula: C17H16N2O
MW: 264
ExactMass: 264.126263
CASNO: 0
ID: 3979
Comment: SFL1 lot N17-P62A / SWGDRUG Monograph available
Num Peaks: 148
37 3; 38 11; 39 68; 40 8; 41 11; 
42 12; 43 5; 49 1; 50 100; 51 81; 
52 25; 53 22; 54 3; 55 2; 59 7; 
61 3; 62 23; 63 112; 64 64; 65 53; 
66 12; 67 2; 73 5; 74 31; 75 67; 
76 275; 77 435; 78 88; 79 231; 80 16; 
83 1; 84 6; 86 1; 87 6; 88 13; 
89 177; 90 223; 91 78; 92 23; 93 7; 
94 1; 96 1; 98 3; 99 1; 100 2; 
101 13; 102 108; 103 181; 104 80; 105 75; 
106 11; 107 3; 110 4; 112 1; 113 2; 
114 5; 115 13; 116 173; 117 137; 118 31; 
119 13; 120 7; 121 2; 122 1; 124 9; 
126 2; 127 6; 128 18; 129 7; 130 25; 
131 9; 132 49; 133 5; 138 2; 139 11; 
140 13; 141 3; 142 7; 143 544; 144 93; 
145 10; 146 64; 147 7; 150 2; 151 10; 
152 18; 153 6; 154 3; 155 1; 156 1; 
157 1; 159 2; 160 10; 161 4; 163 2; 
164 6; 165 10; 166 40; 167 14; 168 2; 
176 2; 177 6; 178 17; 179 14; 180 13; 
181 2; 182 1; 190 4; 191 7; 192 14; 
193 11; 194 41; 195 11; 196 4; 203 8; 
204 4; 205 18; 206 19; 207 6; 208 4; 
217 1; 218 3; 219 9; 220 10; 221 26; 
222 7; 223 1; 231 1; 232 1; 233 8; 
234 24; 235 105; 236 21; 237 2; 246 1; 
247 10; 248 9; 249 725; 250 134; 251 13; 
252 1; 261 3; 262 1; 263 852; 264 999; 
265 184; 266 18; 267 1; 
