Name: Etaqualone 3-ethylphenyl analog
Synon: 3-(3-ethylphenyl)-2-methyl-quinazolin-4-one
InChIKey: LHRHPFGPORLUKK-UHFFFAOYSA-N
Formula: C17H16N2O
MW: 264
ExactMass: 264.126263
CASNO: 0
ID: 3980
Comment: SFL1 lot N17-P60A / SWGDRUG Monograph available
Num Peaks: 150
37 2; 38 9; 39 56; 40 6; 41 9; 
42 10; 43 5; 50 83; 51 67; 52 20; 
53 21; 54 2; 55 2; 59 5; 61 3; 
62 20; 63 88; 64 52; 65 47; 66 9; 
67 1; 73 3; 74 26; 75 57; 76 243; 
77 398; 78 80; 79 236; 80 16; 84 4; 
86 1; 87 4; 88 10; 89 131; 90 167; 
91 56; 92 18; 93 4; 96 1; 97 2; 
99 1; 100 1; 101 11; 102 83; 103 186; 
104 64; 105 107; 106 12; 107 2; 110 3; 
113 2; 114 5; 115 13; 116 110; 117 98; 
118 23; 119 12; 120 6; 121 1; 124 18; 
126 2; 127 4; 128 11; 129 5; 130 12; 
131 6; 132 28; 133 4; 137 1; 138 1; 
139 11; 140 13; 141 3; 142 5; 143 248; 
144 52; 145 9; 146 59; 147 7; 150 2; 
151 8; 152 13; 153 5; 154 2; 155 1; 
157 2; 158 1; 159 2; 160 8; 161 6; 
162 1; 163 1; 164 6; 165 9; 166 45; 
167 17; 168 3; 173 1; 176 2; 177 5; 
178 14; 179 12; 180 12; 181 3; 182 1; 
190 3; 191 6; 192 16; 193 17; 194 35; 
195 12; 196 4; 203 9; 204 5; 205 18; 
206 21; 207 8; 208 5; 209 1; 216 1; 
217 1; 218 4; 219 8; 220 9; 221 21; 
222 6; 223 1; 231 1; 232 2; 233 9; 
234 22; 235 137; 236 71; 237 11; 238 1; 
245 1; 246 1; 247 12; 248 11; 249 606; 
250 111; 251 10; 252 1; 261 3; 262 2; 
263 968; 264 999; 265 181; 266 18; 267 1; 
