Name: Allylescaline
Synon: 4-allyloxy-3,5-dimethoxy-phenethylamine
Synon: AL
InChIKey: JNUAYHHGCXYBHX-UHFFFAOYSA-N
Formula: C13H19NO3
MW: 237
ExactMass: 237.136494
CASNO: 39201757
ID: 3984
Comment: ENFSI / Dissolved in methanol. Seizure. Identified by the section of forensic chemistry i Odense, DK.
Num Peaks: 102
40 3; 41 25; 42 7; 43 3; 44 5; 
45 1; 50 2; 51 6; 52 9; 53 11; 
54 1; 55 3; 57 1; 63 4; 64 5; 
65 12; 66 8; 67 5; 68 1; 69 2; 
75 1; 76 3; 77 16; 78 14; 79 12; 
80 10; 81 5; 82 2; 83 1; 85 1; 
89 3; 90 3; 91 9; 92 8; 93 7; 
94 5; 95 6; 96 2; 97 1; 103 1; 
104 3; 105 6; 106 14; 107 12; 108 4; 
109 6; 110 2; 111 1; 115 4; 116 1; 
117 3; 118 2; 119 2; 120 8; 121 9; 
122 17; 123 25; 124 11; 125 4; 131 1; 
132 3; 133 2; 134 6; 135 5; 136 12; 
137 11; 138 4; 139 9; 147 5; 148 16; 
149 6; 150 2; 151 14; 152 8; 153 8; 
154 1; 160 1; 161 1; 162 1; 163 1; 
164 3; 165 13; 167 999; 168 119; 169 12; 
175 7; 176 2; 177 2; 178 2; 179 5; 
180 2; 192 1; 194 4; 195 1; 196 1; 
197 3; 207 6; 208 38; 209 5; 237 72; 
238 10; 239 1; 
