Name: Methiopropamine
Synon: MPA
Synon: 1-(thiophen-2-yl)-2-methylaminopropane
Synon: 2-MPA
InChIKey: HPHUWHKFQXTZPS-UHFFFAOYSA-N
Formula: C8H13NS
MW: 155
ExactMass: 155.07687
CASNO: 801156478
ID: 3985
Comment: ENFSI / Customs Lab, Finland / SWGDRUG Monograph available
Num Peaks: 71
30 50; 32 1; 37 1; 38 3; 39 19; 
40 2; 41 13; 42 37; 43 16; 44 3; 
45 33; 46 1; 47 3; 50 4; 51 8; 
52 4; 53 22; 54 4; 55 2; 56 62; 
57 18; 58 999; 59 38; 60 1; 61 1; 
62 3; 63 7; 64 1; 65 6; 66 2; 
67 1; 68 1; 69 10; 70 7; 71 6; 
74 1; 77 6; 78 2; 79 4; 80 3; 
81 2; 82 2; 83 1; 84 3; 85 2; 
91 3; 92 1; 93 2; 94 2; 95 3; 
96 2; 97 67; 98 6; 99 9; 106 1; 
107 1; 108 1; 109 2; 110 2; 111 2; 
120 1; 121 1; 122 1; 123 5; 124 4; 
125 5; 138 2; 139 2; 140 7; 153 1; 
154 2; 
