Name: AM6527
Synon: 1-pentyl-N-(naphthalen-1-yl)-1H-indole-3-carboxamide
InChIKey: GWCQNKRMTGVYIZ-UHFFFAOYSA-N
Formula: C24H24N2O
MW: 356
ExactMass: 356.188864
CASNO: 0
ID: 3989
Comment: ENFSI/DWG
Num Peaks: 94
39 3; 41 15; 43 35; 44 2; 51 1; 
55 4; 62 1; 63 4; 65 2; 69 1; 
71 1; 73 1; 74 1; 75 3; 76 3; 
77 4; 78 2; 87 1; 88 5; 89 20; 
90 3; 91 1; 101 6; 102 15; 103 6; 
113 3; 114 11; 115 80; 116 61; 117 7; 
118 1; 126 2; 127 5; 128 16; 129 31; 
130 18; 131 2; 135 2; 140 6; 141 3; 
142 13; 143 35; 144 199; 145 20; 146 1; 
150 5; 154 3; 155 4; 156 5; 157 6; 
158 5; 168 1; 169 2; 170 8; 171 1; 
178 3; 182 1; 184 3; 185 1; 186 2; 
187 1; 198 1; 207 4; 212 10; 214 999; 
215 154; 216 13; 217 1; 227 1; 228 1; 
240 1; 241 1; 242 1; 253 1; 254 1; 
255 3; 256 4; 257 2; 266 1; 267 3; 
268 2; 269 2; 281 2; 282 1; 283 1; 
284 1; 285 8; 286 1; 299 3; 327 2; 
355 3; 356 140; 357 37; 358 5; 
