Name: Methyl-(3,4-dichlorophenyl)acetate
InChIKey: JSAPFNPRLYFXQD-UHFFFAOYSA-N
Formula: C9H8Cl2O2
MW: 218
ExactMass: 217.990135
CASNO: 0
ID: 3990
Comment: ENFSI/DWG / product from 3,4-CTMP in GC injector
Num Peaks: 115
35 1; 36 1; 37 5; 38 8; 39 23; 
40 1; 42 2; 43 6; 44 6; 47 1; 
49 6; 50 18; 51 12; 52 1; 53 1; 
59 140; 60 7; 61 24; 62 51; 63 87; 
64 7; 65 2; 71 1; 72 7; 73 53; 
74 19; 75 30; 76 3; 77 10; 78 2; 
80 9; 81 7; 83 3; 84 10; 85 20; 
86 25; 87 36; 88 13; 89 184; 90 15; 
91 5; 95 1; 96 5; 97 34; 98 5; 
99 35; 100 2; 101 8; 102 1; 103 7; 
104 2; 105 4; 107 9; 108 2; 109 12; 
110 2; 111 10; 112 4; 113 3; 114 1; 
119 1; 120 2; 121 1; 123 188; 124 123; 
125 79; 126 41; 127 5; 131 1; 133 39; 
134 2; 135 23; 136 1; 137 4; 138 1; 
139 98; 140 12; 141 36; 142 3; 145 2; 
146 2; 147 2; 148 3; 149 1; 151 1; 
153 1; 155 4; 157 4; 159 999; 160 84; 
161 638; 162 51; 163 104; 164 7; 168 1; 
173 4; 174 1; 175 4; 176 2; 177 1; 
178 1; 183 1; 186 10; 187 5; 188 7; 
189 6; 190 1; 191 1; 203 1; 218 256; 
219 27; 220 165; 221 17; 222 27; 223 2; 
