Name: Homoamphetamine
Synon: 3-amino-1-phenylbutane
InChIKey: WECUIGDEWBNQJJ-UHFFFAOYSA-N
Formula: C10H15N
MW: 149
ExactMass: 149.120449
CASNO: 0
ID: 3994
Comment: ENFSI/DWG
Num Peaks: 67
38 4; 39 39; 40 5; 41 20; 42 57; 
43 31; 44 999; 45 29; 50 19; 51 53; 
52 14; 53 8; 54 6; 55 2; 56 13; 
57 17; 58 14; 61 1; 62 7; 63 30; 
64 7; 65 97; 66 7; 67 1; 70 10; 
71 30; 72 1; 74 8; 75 7; 76 8; 
77 89; 78 48; 79 36; 80 3; 86 1; 
87 2; 89 25; 90 2; 91 460; 92 51; 
93 3; 101 1; 102 11; 103 47; 104 39; 
105 28; 106 7; 115 41; 116 11; 117 233; 
118 25; 119 1; 120 3; 127 3; 128 6; 
129 5; 130 6; 131 22; 132 378; 133 42; 
134 28; 135 2; 146 3; 147 2; 148 13; 
149 16; 150 2; 
