Name: PB-22 indazole methylester analogue
Synon: Methyl-1-pentyl-1H-indazole-3-carboxylate
InChIKey: ANLYUUPCLRNWLJ-UHFFFAOYSA-N
Formula: C14H18N2O2
MW: 246
ExactMass: 246.136827
CASNO: 0
ID: 3997
Comment: ENFSI/DWG / product from PB-22 indazole in GC injector
Num Peaks: 81
41 58; 42 26; 44 19; 45 56; 50 15; 
51 24; 52 13; 55 29; 58 14; 59 82; 
63 47; 64 27; 65 20; 69 24; 73 4; 
75 13; 76 63; 77 71; 78 2; 88 111; 
89 72; 90 54; 91 36; 92 24; 102 69; 
103 153; 104 55; 106 12; 108 17; 109 18; 
115 29; 116 6; 117 83; 118 29; 119 25; 
120 21; 121 13; 128 27; 129 139; 130 75; 
131 96; 132 12; 133 22; 134 22; 135 14; 
144 94; 145 262; 147 19; 154 12; 156 13; 
157 34; 158 49; 159 41; 170 37; 171 72; 
172 21; 175 17; 176 289; 177 32; 185 31; 
186 18; 187 392; 189 999; 190 180; 191 49; 
193 24; 199 58; 200 14; 207 83; 208 34; 
209 19; 213 140; 214 16; 215 91; 216 23; 
217 41; 223 18; 231 529; 232 45; 246 182; 
247 35; 
