Name: BB-22 ethylester analogue
Synon: Ethyl-1-(cyclohexylmethyl)-1H-indole-3-carboxylate
InChIKey: RVYJNZHWDSTQBN-UHFFFAOYSA-N
Formula: C18H23NO2
MW: 285
ExactMass: 285.172878
CASNO: 0
ID: 3998
Comment: ENFSI/DWG / product from BB-22 in GC injector
Num Peaks: 103
39 14; 41 37; 42 15; 45 6; 53 22; 
54 15; 55 85; 56 16; 63 23; 65 19; 
67 17; 69 1; 73 11; 74 8; 75 8; 
76 18; 77 32; 78 9; 79 10; 81 2; 
83 12; 87 16; 88 14; 89 20; 90 6; 
91 12; 95 21; 96 6; 97 2; 101 29; 
102 43; 103 40; 104 5; 105 5; 114 14; 
115 31; 116 42; 117 33; 118 18; 127 16; 
128 82; 129 84; 130 308; 131 33; 132 28; 
134 7; 135 10; 143 43; 144 161; 145 18; 
146 18; 147 9; 148 1; 149 3; 154 19; 
155 23; 156 21; 157 12; 158 31; 161 14; 
165 2; 166 15; 167 31; 168 23; 174 336; 
175 47; 176 14; 179 2; 181 3; 182 14; 
184 14; 189 19; 191 2; 192 3; 193 6; 
196 18; 197 2; 202 907; 203 285; 204 39; 
205 15; 207 33; 210 6; 211 9; 212 100; 
213 31; 214 16; 238 18; 239 4; 240 264; 
241 55; 249 7; 251 3; 253 7; 254 2; 
255 1; 256 67; 269 5; 270 24; 283 13; 
284 41; 285 999; 286 200; 
