Name: BB-22 pentafluorpropil analogue
Synon: 2,2,3,3,3-pentafluoropropyl-1-(cyclohexylmethyl)-1H-indole-3-carboxylate
InChIKey: SCSDQAXERQPNRL-UHFFFAOYSA-N
Formula: C19H20F5NO2
MW: 389
ExactMass: 389.14142
CASNO: 0
ID: 4000
Comment: ENFSI/DWG
Num Peaks: 193
39 23; 40 3; 41 93; 42 5; 43 11; 
44 1; 45 1; 50 5; 51 33; 52 4; 
53 19; 54 9; 55 223; 56 12; 57 1; 
61 2; 62 6; 63 10; 64 9; 65 12; 
66 4; 67 38; 68 7; 69 48; 70 2; 
73 2; 74 3; 75 14; 76 17; 77 30; 
78 11; 79 13; 80 2; 81 13; 82 3; 
83 38; 84 3; 85 1; 87 4; 88 15; 
89 33; 90 13; 91 10; 92 1; 93 4; 
94 3; 95 22; 96 3; 97 16; 98 3; 
99 2; 100 5; 101 33; 102 83; 103 52; 
104 11; 105 1; 106 1; 107 2; 110 1; 
111 1; 112 1; 113 7; 114 18; 115 54; 
116 49; 117 32; 118 16; 119 3; 120 1; 
121 1; 122 2; 125 2; 126 2; 127 12; 
128 157; 129 273; 130 498; 131 60; 132 11; 
133 13; 134 1; 135 1; 136 1; 139 2; 
140 3; 141 4; 142 6; 143 61; 144 239; 
145 45; 146 10; 147 3; 151 2; 152 3; 
153 5; 154 39; 155 14; 156 41; 157 18; 
158 62; 159 13; 161 1; 162 1; 163 1; 
165 1; 166 4; 167 19; 168 22; 169 6; 
170 13; 171 2; 172 2; 173 3; 174 156; 
175 19; 176 6; 177 3; 178 2; 179 1; 
180 7; 181 3; 182 11; 183 3; 184 23; 
185 4; 192 1; 193 1; 194 2; 195 2; 
196 5; 197 2; 198 5; 205 1; 207 6; 
208 1; 209 1; 210 6; 211 8; 212 79; 
213 15; 214 2; 238 16; 239 5; 240 173; 
241 33; 242 4; 253 4; 254 1; 255 1; 
256 25; 257 5; 258 1; 259 3; 264 12; 
265 2; 269 1; 270 2; 274 3; 281 2; 
288 1; 293 31; 294 9; 295 2; 305 4; 
306 999; 307 358; 308 53; 309 6; 315 1; 
320 2; 325 1; 327 2; 330 1; 331 1; 
332 1; 333 2; 341 3; 342 1; 343 1; 
344 3; 345 1; 346 9; 347 2; 356 1; 
370 36; 371 8; 387 6; 388 22; 389 597; 
390 132; 391 16; 392 1; 
