Name: PB-22 pentafluorpropyl analogue
Synon: 2,2,3,3,3-pentafluoropropyl-1-pentyl-1H-indole-3-carboxylate
InChIKey: VMWCDOXVHOANNY-UHFFFAOYSA-N
Formula: C17H18F5NO2
MW: 363
ExactMass: 363.12577
CASNO: 0
ID: 4001
Comment: ENFSI/DWG
Num Peaks: 133
39 14; 40 4; 41 36; 42 3; 43 29; 
44 2; 45 5; 50 5; 51 20; 52 2; 
53 2; 55 6; 58 1; 62 8; 63 11; 
64 8; 65 6; 67 2; 69 31; 74 4; 
75 11; 76 12; 77 16; 78 10; 83 3; 
86 2; 87 5; 88 15; 89 28; 90 8; 
91 5; 100 3; 101 25; 102 44; 103 35; 
104 7; 105 2; 113 5; 114 19; 115 61; 
116 64; 117 22; 118 8; 119 6; 127 7; 
128 96; 129 175; 130 301; 131 40; 132 11; 
133 9; 140 5; 141 5; 142 9; 143 55; 
144 194; 145 29; 146 6; 154 20; 155 10; 
156 34; 157 20; 158 16; 159 4; 160 2; 
161 2; 166 2; 167 4; 168 3; 169 3; 
170 43; 171 6; 172 7; 173 3; 174 26; 
175 4; 178 1; 179 2; 182 4; 183 3; 
184 31; 185 7; 186 93; 187 15; 188 1; 
193 2; 196 2; 198 4; 200 3; 201 4; 
202 2; 210 2; 212 18; 213 4; 214 290; 
215 45; 216 2; 228 2; 229 2; 230 12; 
244 4; 264 22; 265 3; 273 1; 278 3; 
279 1; 281 2; 288 2; 292 2; 293 16; 
294 7; 295 1; 306 999; 307 226; 308 31; 
309 5; 319 6; 320 17; 321 4; 332 6; 
333 6; 334 43; 335 9; 344 56; 345 14; 
346 5; 348 27; 349 5; 361 14; 362 36; 
363 744; 364 122; 365 13; 
