Name: PB-22 methylester analogue
Synon: Methyl-1-pentyl-1H-indole-3-carboxylate
InChIKey: FMSUKWLGFFSMTP-UHFFFAOYSA-N
Formula: C15H19NO2
MW: 245
ExactMass: 245.141579
CASNO: 0
ID: 4002
Comment: ENFSI/DWG / product from PB-22 in GC injector
Num Peaks: 118
39 15; 40 2; 41 33; 42 3; 43 21; 
44 2; 45 2; 50 3; 51 9; 52 3; 
53 3; 55 5; 56 1; 57 1; 59 19; 
61 1; 62 9; 63 14; 64 5; 65 4; 
67 1; 69 4; 74 4; 75 15; 76 16; 
77 22; 78 6; 86 2; 87 7; 88 18; 
89 41; 90 10; 91 11; 92 1; 94 1; 
98 1; 101 28; 102 59; 103 37; 104 8; 
105 1; 107 1; 113 1; 114 20; 115 77; 
116 75; 117 35; 118 11; 119 1; 126 1; 
127 9; 128 124; 129 124; 130 278; 131 35; 
132 8; 139 1; 140 3; 141 5; 142 15; 
143 82; 144 202; 145 38; 146 36; 147 3; 
153 1; 154 21; 155 8; 156 36; 157 24; 
158 21; 159 4; 160 6; 161 1; 166 1; 
167 3; 168 5; 169 2; 170 48; 171 10; 
172 4; 173 2; 174 25; 175 16; 176 4; 
177 1; 182 3; 183 2; 184 34; 185 10; 
186 134; 188 999; 189 239; 190 32; 191 3; 
196 1; 198 3; 200 3; 201 5; 202 15; 
203 3; 207 1; 210 1; 212 22; 214 376; 
215 67; 216 38; 217 7; 228 3; 229 1; 
230 47; 231 8; 243 6; 244 39; 245 834; 
246 146; 247 15; 248 1; 
