Name: 5F-PB-22 indazole methylester analogue
Synon: Methyl-1-(5-fluoropentyl)-1H-indazole-3-carboxylate
InChIKey: KAUTWXSUBGZEOE-UHFFFAOYSA-N
Formula: C14H17FN2O2
MW: 264
ExactMass: 264.127405
CASNO: 0
ID: 4003
Comment: ENFSI/DWG / product from 5F-PB-22 indazole in GC injector
Num Peaks: 125
41 29; 42 9; 43 6; 44 14; 45 7; 
47 10; 50 3; 51 21; 52 1; 53 8; 
54 3; 55 22; 59 84; 60 8; 61 3; 
62 13; 63 19; 64 12; 65 16; 66 6; 
67 7; 69 10; 74 7; 75 24; 76 36; 
77 44; 78 6; 87 11; 88 67; 89 43; 
90 53; 91 34; 92 5; 93 5; 96 3; 
97 7; 101 11; 102 80; 103 131; 104 37; 
105 7; 115 9; 116 19; 117 86; 118 25; 
119 10; 120 12; 127 3; 128 29; 129 114; 
130 58; 131 99; 132 12; 133 9; 135 3; 
142 7; 143 14; 144 82; 145 109; 146 15; 
147 3; 154 3; 155 4; 156 10; 157 34; 
158 61; 159 10; 160 9; 161 11; 163 3; 
168 8; 169 3; 170 3; 171 21; 172 7; 
174 4; 175 26; 176 153; 177 31; 178 6; 
180 3; 182 2; 183 5; 184 16; 185 72; 
186 10; 189 999; 190 242; 191 31; 194 6; 
195 4; 196 4; 199 58; 200 5; 201 5; 
202 3; 203 32; 204 9; 205 32; 206 3; 
207 1; 208 7; 211 3; 212 3; 213 13; 
214 4; 215 4; 220 3; 222 3; 229 15; 
231 26; 232 7; 233 51; 234 10; 243 19; 
244 14; 249 273; 250 53; 251 8; 253 3; 
262 3; 263 3; 264 250; 265 38; 266 5; 
