Name: 5F-PB-22 indazole ethylester analogue
Synon: Ethyl-1-(5-fluoropentyl)-1H-indazole-3-carboxylate
InChIKey: FIOXLIIGPSPCBV-UHFFFAOYSA-N
Formula: C15H19FN2O2
MW: 278
ExactMass: 278.143057
CASNO: 0
ID: 4004
Comment: ENFSI/DWG / product from 5F-PB-22 indazole in GC injector
Num Peaks: 115
41 63; 43 15; 44 21; 46 5; 47 27; 
50 11; 51 36; 52 26; 53 11; 55 21; 
56 5; 57 4; 59 12; 61 11; 62 28; 
63 22; 64 26; 65 15; 67 20; 68 6; 
69 18; 73 8; 74 7; 75 38; 76 55; 
77 94; 78 7; 79 6; 87 18; 88 111; 
89 59; 90 94; 91 33; 92 11; 96 1; 
100 6; 101 7; 102 113; 103 168; 104 96; 
105 12; 106 8; 115 20; 116 19; 117 38; 
118 46; 119 12; 120 5; 129 150; 130 132; 
131 378; 132 51; 133 11; 142 6; 143 19; 
144 63; 145 203; 146 22; 147 11; 155 12; 
156 11; 157 63; 158 98; 159 11; 161 2; 
162 40; 169 7; 170 8; 171 25; 174 9; 
175 130; 176 18; 177 30; 178 10; 183 7; 
184 19; 185 66; 186 15; 189 5; 190 130; 
191 26; 193 9; 199 53; 200 15; 201 19; 
203 999; 204 218; 205 71; 206 4; 207 5; 
208 1; 211 6; 213 8; 214 5; 221 5; 
224 4; 229 25; 230 11; 231 36; 232 6; 
233 87; 234 12; 237 4; 248 8; 249 429; 
250 60; 251 13; 253 5; 257 12; 258 9; 
265 9; 267 15; 277 4; 278 187; 279 30; 
