Name: 5F-PB-22 ethylester analogue
Synon: Ethyl-1-(5-fluoropentyl)-1H-indole-3-carboxylate
InChIKey: YFKKMHHUFHXUBB-UHFFFAOYSA-N
Formula: C16H20FNO2
MW: 277
ExactMass: 277.147806
CASNO: 0
ID: 4005
Comment: ENFSI/DWG / product from 5F-PB-22 in GC injector
Num Peaks: 171
38 2; 39 26; 40 1; 41 71; 42 7; 
43 30; 44 2; 45 8; 46 2; 47 24; 
48 1; 50 6; 51 18; 52 5; 53 9; 
55 10; 56 1; 59 15; 60 1; 61 6; 
62 14; 63 26; 64 8; 65 11; 66 1; 
67 6; 69 11; 70 1; 72 1; 73 1; 
74 8; 75 26; 76 24; 77 75; 78 13; 
79 5; 83 1; 84 1; 85 2; 86 3; 
87 11; 88 24; 89 72; 90 18; 91 26; 
92 4; 93 1; 98 1; 99 1; 100 2; 
101 50; 102 96; 103 75; 104 14; 105 6; 
106 1; 109 1; 112 1; 113 3; 114 36; 
115 113; 116 141; 117 45; 118 16; 119 2; 
126 2; 127 12; 128 165; 129 123; 130 472; 
131 64; 132 45; 133 6; 134 1; 135 1; 
137 1; 139 1; 140 7; 141 8; 142 19; 
143 119; 144 336; 145 40; 146 37; 147 4; 
148 8; 149 1; 150 1; 152 1; 153 2; 
154 28; 155 12; 156 47; 157 25; 158 30; 
159 5; 160 3; 161 14; 162 3; 166 2; 
167 11; 168 11; 169 5; 170 62; 171 13; 
172 10; 174 554; 175 82; 176 14; 177 2; 
178 1; 180 2; 182 7; 183 3; 184 35; 
185 7; 186 3; 187 6; 188 5; 189 3; 
190 1; 192 1; 194 1; 196 2; 198 5; 
199 1; 200 4; 202 932; 203 181; 204 140; 
205 74; 206 10; 208 1; 210 5; 212 15; 
213 3; 214 3; 215 2; 216 5; 217 1; 
218 3; 220 2; 221 1; 226 1; 227 1; 
228 7; 229 4; 230 22; 232 874; 233 146; 
234 16; 242 2; 244 4; 248 26; 249 106; 
250 15; 251 2; 255 1; 256 1; 257 12; 
259 1; 260 1; 262 64; 263 9; 264 1; 
265 1; 275 3; 277 999; 278 184; 279 17; 
280 2; 
