Name: 5F-PB-22 indazole analogue
Synon: Quinolin-8-yl-1-(5-fluoropentyl)-1H-indazole-3-carboxylate
InChIKey: DZNDVBLSHUYZLI-UHFFFAOYSA-N
Formula: C22H20FN3O2
MW: 377
ExactMass: 377.153955
CASNO: 0
ID: 4007
Comment: ENFSI/DWG
Num Peaks: 132
41 56; 42 3; 43 17; 44 2; 47 14; 
50 7; 51 13; 52 3; 53 4; 54 1; 
55 4; 58 1; 59 5; 61 6; 62 14; 
63 36; 64 9; 65 5; 66 2; 67 5; 
69 52; 70 3; 74 3; 75 12; 76 20; 
77 17; 78 2; 83 1; 86 2; 87 6; 
88 38; 89 97; 90 98; 91 9; 92 1; 
100 2; 101 10; 102 41; 103 74; 104 12; 
105 1; 106 1; 114 4; 115 8; 116 106; 
117 76; 118 10; 120 1; 121 3; 127 3; 
128 20; 129 33; 130 20; 131 14; 132 1; 
133 3; 136 2; 137 4; 142 2; 143 6; 
145 435; 146 41; 147 4; 149 1; 152 3; 
155 2; 156 1; 157 5; 158 4; 159 2; 
167 1; 168 1; 169 1; 170 1; 171 12; 
172 5; 175 1; 177 76; 178 9; 183 1; 
184 1; 185 7; 186 2; 187 1; 189 1; 
191 1; 195 1; 199 1; 202 2; 203 4; 
204 2; 205 1; 207 3; 213 109; 214 16; 
215 3; 216 1; 230 1; 231 13; 233 999; 
234 155; 235 11; 236 1; 243 2; 244 1; 
245 1; 253 1; 254 2; 256 2; 258 1; 
259 1; 260 14; 261 3; 272 1; 274 3; 
281 1; 282 1; 288 1; 302 3; 303 1; 
325 1; 332 3; 333 1; 348 1; 349 3; 
355 3; 357 2; 375 1; 377 199; 378 47; 
379 7; 380 1; 
