Name: 4-Chloromethamphetamine
Synon: 4-CMA
Synon: p-CMA
InChIKey: XXLWNLKEOWWHDC-UHFFFAOYSA-N
Formula: C10H14ClN
MW: 183
ExactMass: 183.081477
CASNO: 0
ID: 4010
Comment: ENFSI/DWG
Num Peaks: 98
37 1; 38 3; 39 22; 40 3; 41 17; 
42 47; 43 18; 44 5; 49 1; 50 13; 
51 18; 52 4; 53 1; 54 4; 55 2; 
56 60; 58 999; 59 35; 60 1; 61 3; 
62 13; 63 46; 64 10; 65 16; 67 8; 
70 2; 71 1; 72 1; 73 13; 74 9; 
75 25; 76 6; 77 17; 78 3; 79 1; 
80 1; 84 2; 85 4; 86 5; 87 6; 
89 95; 90 33; 91 29; 92 3; 97 2; 
98 1; 99 33; 100 2; 101 17; 102 10; 
103 11; 104 4; 105 1; 106 1; 111 3; 
112 3; 113 3; 114 4; 115 40; 116 16; 
117 28; 118 7; 123 2; 125 133; 126 11; 
127 45; 128 4; 130 8; 131 5; 132 8; 
133 18; 134 1; 136 1; 137 1; 138 4; 
139 2; 140 1; 144 1; 146 1; 147 1; 
149 2; 150 1; 151 2; 152 3; 153 8; 
154 1; 155 2; 164 1; 166 5; 167 6; 
168 29; 169 4; 170 9; 171 1; 180 1; 
182 10; 183 1; 184 3; 
