Name: 1,2-dimethyl-1,2-dihydro-3H-indol-3-one
InChIKey: NHSYIANWSUXVRY-UHFFFAOYSA-N
Formula: C10H11NO
MW: 161
ExactMass: 161.084064
CASNO: 0
ID: 4011
Comment: ENFSI/DWG / product from 2-FMC in GC injector
Num Peaks: 84
37 7; 38 13; 39 41; 40 8; 41 18; 
42 146; 43 7; 45 2; 49 6; 50 84; 
51 108; 52 29; 53 17; 54 25; 55 26; 
56 74; 57 2; 58 3; 59 14; 61 8; 
62 24; 63 72; 64 50; 65 79; 67 2; 
71 1; 73 10; 74 64; 75 59; 76 114; 
77 380; 78 56; 79 27; 81 24; 85 2; 
86 7; 87 9; 88 11; 89 93; 90 86; 
91 711; 92 180; 93 14; 95 1; 96 2; 
98 3; 99 1; 100 1; 101 5; 102 20; 
103 59; 104 147; 105 113; 106 29; 107 4; 
108 1; 111 1; 114 4; 115 15; 116 50; 
117 236; 118 420; 119 47; 120 2; 128 17; 
129 6; 130 139; 131 50; 132 803; 133 154; 
134 12; 142 3; 143 3; 144 37; 145 30; 
146 150; 147 16; 152 2; 158 14; 159 72; 
160 77; 161 999; 162 115; 163 3; 
