Name: AL-NBF
Synon: 2-[3,5-dimethoxy-4-(prop-2-en-1-yloxy)phenyl]-N-(2-fluorobenzyl)ethanamine
InChIKey: SEFLQIUCJGAYAA-UHFFFAOYSA-N
Formula: C20H24FNO3
MW: 345
ExactMass: 345.174023
CASNO: 0
ID: 4014
Comment: ENFSI/DWG
Num Peaks: 106
39 7; 40 1; 41 2; 42 2; 43 3; 
50 2; 51 6; 52 5; 53 11; 54 1; 
55 4; 57 5; 59 3; 62 1; 63 7; 
64 5; 65 10; 66 10; 67 4; 68 2; 
69 3; 70 1; 73 1; 75 3; 76 4; 
77 15; 78 18; 79 8; 80 3; 81 9; 
82 3; 83 43; 84 2; 85 1; 89 8; 
90 3; 91 9; 92 6; 93 4; 94 7; 
95 5; 96 4; 97 1; 102 1; 103 1; 
104 2; 105 5; 106 15; 107 18; 108 13; 
109 999; 110 81; 111 3; 117 1; 118 5; 
119 2; 120 5; 121 7; 122 30; 123 29; 
124 11; 125 5; 132 1; 133 2; 134 5; 
135 8; 136 31; 137 19; 138 700; 139 67; 
140 2; 147 1; 148 2; 149 2; 150 3; 
151 9; 152 5; 153 14; 154 2; 163 1; 
165 3; 166 3; 167 114; 168 409; 169 42; 
170 4; 177 1; 178 3; 179 1; 180 5; 
181 4; 195 1; 197 1; 207 1; 209 1; 
244 1; 253 1; 258 1; 261 1; 273 1; 
303 7; 304 1; 305 8; 306 2; 327 1; 
341 1; 
