Name: 5F-AMBICA
Synon: N-(1-amino-3-methyl-1-oxobutan-2-yl)-1-(5-fluoropentyl)-1H-indole-3-carboxamide
Synon: 5-Fluoro-AMBICA
InChIKey: GQYZBLMAONPUNX-UHFFFAOYSA-N
Formula: C19H26FN3O2
MW: 347
ExactMass: 347.200905
CASNO: 0
ID: 4015
Comment: ENFSI/DWG
Num Peaks: 144
39 9; 40 1; 41 47; 42 5; 43 27; 
44 15; 45 1; 47 9; 50 1; 51 3; 
52 1; 53 3; 54 1; 55 14; 56 5; 
57 2; 59 4; 61 3; 62 2; 63 4; 
64 1; 65 2; 67 2; 68 1; 69 12; 
70 2; 72 3; 73 1; 74 1; 75 4; 
76 5; 77 8; 78 3; 79 1; 83 1; 
87 2; 88 7; 89 24; 90 4; 91 2; 
98 1; 99 1; 100 1; 101 10; 102 25; 
103 11; 104 2; 106 1; 113 1; 114 11; 
115 36; 116 67; 117 10; 118 4; 127 3; 
128 24; 129 45; 130 37; 131 6; 132 1; 
140 1; 141 2; 142 6; 143 47; 144 196; 
145 21; 146 2; 148 1; 152 3; 153 1; 
154 5; 155 9; 156 9; 157 14; 158 7; 
159 1; 167 2; 168 3; 169 2; 170 14; 
171 4; 172 1; 173 22; 174 6; 176 2; 
181 1; 182 2; 183 2; 184 7; 185 2; 
186 1; 197 1; 198 3; 199 1; 200 1; 
203 1; 204 4; 205 3; 206 2; 207 1; 
210 1; 211 2; 212 41; 213 7; 214 2; 
215 1; 227 5; 228 2; 229 1; 230 12; 
232 999; 233 166; 234 14; 235 1; 247 1; 
248 84; 249 13; 250 1; 253 1; 254 1; 
260 1; 267 6; 268 1; 271 2; 272 3; 
281 1; 286 3; 287 39; 288 11; 289 1; 
302 1; 303 32; 304 7; 305 2; 310 3; 
315 3; 327 1; 329 3; 330 19; 331 4; 
332 1; 347 49; 348 11; 349 1; 
