Name: 4-DOC-N-methylimine
Synon: N-[1-(4-chloro-2,5-dimethoxyphenyl)propan-2-yl]methanimine
InChIKey: HVMSSLDKOMMRQE-UHFFFAOYSA-N
Formula: C12H16ClNO2
MW: 241
ExactMass: 241.086956
CASNO: 0
ID: 4019
Comment: ENFSI/DWG
Num Peaks: 160
36 1; 38 4; 39 16; 40 2; 41 17; 
42 7; 43 6; 44 1; 45 1; 49 1; 
50 11; 51 20; 52 6; 53 21; 54 16; 
55 21; 56 999; 57 40; 58 3; 59 1; 
60 2; 61 3; 62 8; 63 25; 64 9; 
65 22; 66 4; 67 9; 68 1; 69 2; 
70 6; 72 1; 73 10; 74 7; 75 26; 
76 9; 77 80; 78 13; 79 17; 80 2; 
81 1; 83 1; 85 5; 86 4; 87 8; 
88 7; 89 33; 90 12; 91 56; 92 14; 
93 5; 95 1; 96 1; 97 3; 98 3; 
99 39; 100 4; 101 17; 102 12; 103 21; 
104 7; 105 42; 106 5; 107 6; 108 3; 
110 1; 111 10; 112 23; 113 16; 114 10; 
115 13; 116 5; 117 6; 118 5; 119 13; 
120 8; 121 6; 122 15; 123 5; 124 2; 
125 38; 126 7; 127 23; 128 5; 129 7; 
130 3; 131 9; 132 7; 133 9; 134 6; 
135 7; 137 3; 138 1; 139 7; 140 11; 
141 8; 142 26; 143 6; 144 8; 145 4; 
146 5; 147 11; 148 6; 149 5; 151 1; 
154 5; 155 118; 156 13; 157 49; 158 5; 
159 5; 160 6; 161 6; 162 10; 163 5; 
164 1; 165 3; 166 2; 167 6; 168 4; 
169 10; 170 8; 171 10; 172 5; 174 7; 
175 7; 176 7; 177 3; 178 8; 179 2; 
180 2; 181 4; 182 3; 183 25; 184 5; 
185 204; 186 23; 187 61; 188 7; 190 4; 
191 4; 193 1; 194 6; 195 5; 196 8; 
197 9; 198 17; 199 4; 200 4; 207 1; 
208 7; 210 444; 211 56; 212 156; 213 21; 
214 4; 226 2; 241 80; 242 12; 243 27; 
