Name: 3-Methylephedrine
InChIKey: NOCSNKPPOMMDRR-UHFFFAOYSA-N
Formula: C11H17NO
MW: 179
ExactMass: 179.131014
CASNO: 0
ID: 4022
Comment: ENFSI/DWG
Num Peaks: 73
38 1; 39 14; 40 2; 41 9; 42 22; 
43 16; 44 11; 50 4; 51 15; 52 4; 
53 5; 54 2; 55 4; 56 40; 57 18; 
58 999; 59 46; 60 1; 62 3; 63 14; 
64 4; 65 37; 66 4; 70 1; 71 1; 
72 1; 74 2; 75 2; 76 2; 77 73; 
78 17; 79 7; 80 1; 86 1; 87 1; 
88 1; 89 12; 90 5; 91 120; 92 16; 
93 30; 94 2; 102 3; 103 8; 104 4; 
105 12; 106 1; 107 3; 115 11; 116 4; 
117 10; 118 3; 119 28; 120 13; 121 11; 
122 1; 127 1; 128 3; 129 2; 130 5; 
131 12; 132 4; 133 2; 134 1; 144 8; 
145 9; 146 10; 147 3; 148 1; 158 1; 
160 8; 161 2; 162 1; 
