Name: 25T2-NB4OMe-imine
InChIKey: UMSHSYBJBWLCJS-KGENOOAVSA-N
Synon: N-{2-[4-(ethylsulfanyl)-2,5-dimethoxyphenyl]ethyl}-1-(4-methoxybenzyl)methanimine
Synon: 2C-T-2-NB4OMe-imine
Formula: C20H25NO3S
MW: 359
ExactMass: 359.155514
CASNO: 0
ID: 4023
Comment: ENFSI/DWG / product from 25-T2-NB4OMe in GC injector
Num Peaks: 200
38 1; 39 11; 41 6; 42 1; 43 2; 
45 13; 46 1; 47 2; 50 5; 51 21; 
52 9; 53 14; 54 2; 55 5; 57 2; 
58 3; 59 15; 60 1; 61 3; 62 2; 
63 15; 64 11; 65 35; 66 9; 67 9; 
68 1; 69 10; 70 3; 71 4; 72 1; 
73 4; 74 2; 75 9; 76 8; 77 83; 
78 70; 79 42; 80 4; 81 4; 82 3; 
83 3; 84 4; 85 14; 86 1; 87 2; 
88 1; 89 25; 90 26; 91 173; 92 25; 
93 11; 94 4; 95 10; 96 7; 97 15; 
98 3; 99 2; 101 1; 102 5; 103 10; 
104 45; 105 61; 106 24; 107 14; 108 13; 
109 25; 110 22; 111 11; 112 3; 113 1; 
114 1; 115 5; 116 7; 117 35; 118 11; 
119 15; 120 13; 121 555; 122 72; 123 23; 
124 9; 125 15; 126 2; 127 3; 128 2; 
129 1; 130 1; 131 3; 132 28; 133 54; 
134 25; 135 18; 136 16; 137 23; 138 27; 
139 10; 140 13; 141 2; 142 1; 143 1; 
144 1; 145 2; 146 4; 147 16; 148 765; 
149 88; 151 22; 152 26; 153 84; 154 13; 
155 5; 156 1; 157 1; 158 1; 159 1; 
160 2; 161 2; 162 4; 163 3; 164 4; 
165 8; 166 9; 167 29; 168 6; 169 3; 
170 1; 171 1; 175 2; 176 1; 177 2; 
178 1; 179 4; 180 5; 181 83; 182 15; 
183 8; 184 1; 185 1; 186 1; 190 1; 
191 1; 192 1; 193 3; 194 2; 195 6; 
196 3; 198 2; 199 1; 206 1; 207 3; 
208 3; 209 6; 210 6; 211 999; 213 36; 
220 1; 222 2; 223 2; 224 15; 225 4; 
226 2; 227 1; 237 1; 238 1; 240 1; 
250 1; 252 3; 253 3; 254 1; 255 1; 
266 2; 267 1; 268 6; 269 1; 270 1; 
272 1; 280 5; 281 2; 283 1; 284 1; 
285 1; 296 1; 298 4; 299 2; 300 2; 
317 1; 326 1; 327 1; 328 330; 329 72; 
330 25; 331 4; 341 1; 344 1; 357 1; 
358 1; 359 143; 360 33; 361 10; 362 2; 
