Name: 25T2-NB4OMe
Synon: 2-[4-(ethylsulfanyl)-2,5-dimethoxyphenyl]-N-(4-methoxybenzyl)ethanamine
Synon: 2C-T-2-NB4OMe
InChIKey: QXNYDPYCCBZWGF-UHFFFAOYSA-N
Formula: C20H27NO3S
MW: 361
ExactMass: 361.171165
CASNO: 0
ID: 4024
Comment: ENFSI/DWG
Num Peaks: 131
39 4; 40 1; 41 3; 42 3; 43 1; 
45 4; 47 1; 50 2; 51 8; 52 5; 
53 5; 55 3; 59 5; 62 2; 63 5; 
64 3; 65 12; 66 3; 67 4; 69 3; 
71 1; 73 7; 74 1; 75 4; 76 2; 
77 44; 78 36; 79 11; 80 3; 85 4; 
87 1; 89 9; 90 12; 91 37; 92 7; 
93 4; 94 2; 95 3; 96 2; 97 3; 
102 1; 103 2; 104 3; 105 6; 106 11; 
107 12; 108 6; 109 8; 110 6; 111 3; 
115 1; 116 1; 117 2; 118 4; 119 5; 
120 5; 121 999; 122 97; 123 12; 124 3; 
125 6; 131 2; 132 4; 133 5; 134 8; 
135 8; 136 5; 137 8; 138 10; 139 4; 
140 3; 141 1; 147 3; 148 16; 149 5; 
150 57; 151 14; 152 7; 153 22; 154 3; 
155 2; 158 1; 161 1; 162 3; 163 2; 
164 2; 165 2; 166 3; 167 8; 168 3; 
169 2; 177 2; 178 1; 179 1; 180 2; 
181 18; 182 4; 183 14; 184 2; 191 3; 
192 1; 194 1; 195 2; 196 2; 197 13; 
198 3; 205 1; 207 3; 209 1; 210 1; 
211 53; 212 348; 213 48; 214 20; 215 2; 
224 2; 225 6; 253 2; 267 1; 268 2; 
281 3; 282 1; 283 1; 315 1; 326 1; 
328 1; 329 1; 331 1; 342 1; 357 1; 
361 1; 
