Name: 25I-NB-3-F
InChIKey: YUPYVAMTOIRDSJ-UHFFFAOYSA-N
Synon: 2-(4-iodo-2,5-dimethoxyphenyl)-N-(3-fluorobenzyl)ethanamine
Synon: 2C-I-NB-3-F
Formula: C17H19FINO2
MW: 415
ExactMass: 415.044455
CASNO: 0
ID: 4026
Comment: ENFSI/DWG
Num Peaks: 149
38 1; 39 12; 40 1; 41 3; 42 5; 
43 4; 45 1; 50 8; 51 20; 52 4; 
53 17; 54 1; 55 2; 57 8; 59 4; 
61 1; 62 5; 63 22; 64 15; 65 15; 
66 3; 67 3; 68 1; 69 3; 70 2; 
73 2; 74 3; 75 11; 76 12; 77 62; 
78 18; 79 14; 80 2; 81 4; 82 2; 
83 54; 84 3; 86 1; 87 2; 88 1; 
89 33; 90 34; 91 48; 92 21; 93 7; 
94 3; 95 6; 96 4; 97 2; 102 2; 
103 5; 104 6; 105 44; 106 14; 107 27; 
108 19; 109 999; 110 77; 111 3; 115 1; 
116 1; 117 3; 118 4; 119 10; 120 15; 
121 26; 122 14; 123 4; 124 3; 127 14; 
128 15; 131 1; 132 3; 133 8; 134 10; 
135 20; 136 73; 137 12; 138 899; 139 79; 
140 3; 146 1; 147 5; 148 9; 149 6; 
150 10; 151 6; 152 7; 153 2; 160 1; 
162 2; 163 3; 164 8; 165 3; 177 2; 
178 1; 179 1; 183 1; 191 8; 196 1; 
197 1; 199 1; 203 1; 204 1; 205 2; 
207 1; 208 1; 217 2; 219 4; 220 1; 
231 1; 232 18; 233 3; 234 8; 235 1; 
240 1; 247 43; 248 4; 249 2; 253 1; 
254 1; 255 1; 256 2; 257 1; 258 1; 
260 1; 261 7; 262 1; 263 15; 264 1; 
272 1; 274 1; 275 3; 276 6; 277 44; 
278 302; 279 28; 280 2; 286 1; 288 1; 
290 4; 291 3; 382 19; 383 5; 384 2; 
413 4; 414 1; 415 4; 416 1; 
