Name: 25E-NB-3-F-imine
InChIKey: GUYMCZYSOCSWIW-FYJGNVAPSA-N
Synon: N-[2-(4-ethyl-2,5-dimethoxyphenyl)ethyl]-1-(3-fluorobenzyl)methanimine
Synon: 2C-E-NB-3-F-imine
Formula: C19H22FNO2
MW: 315
ExactMass: 315.163458
CASNO: 0
ID: 4030
Comment: ENFSI/DWG
Num Peaks: 164
39 12; 40 1; 41 13; 42 1; 43 5; 
45 3; 50 4; 51 10; 52 5; 53 14; 
54 2; 55 7; 56 1; 57 8; 59 4; 
62 2; 63 10; 64 3; 65 19; 66 4; 
67 10; 68 2; 69 4; 70 2; 71 1; 
73 1; 74 2; 75 11; 76 4; 77 55; 
78 21; 79 29; 80 3; 81 6; 82 3; 
83 27; 84 1; 87 1; 88 1; 89 15; 
90 6; 91 144; 92 16; 93 21; 94 7; 
95 14; 96 5; 97 1; 101 2; 102 6; 
103 31; 104 20; 105 37; 106 9; 107 36; 
108 35; 109 324; 110 24; 111 1; 115 61; 
116 18; 117 68; 118 14; 119 55; 120 9; 
121 48; 122 16; 123 18; 124 10; 125 1; 
127 2; 128 4; 129 2; 130 1; 131 10; 
132 5; 133 21; 134 62; 135 63; 136 217; 
137 22; 138 4; 139 1; 142 2; 143 1; 
144 1; 145 3; 146 4; 147 12; 148 8; 
149 114; 150 19; 151 22; 152 3; 158 1; 
159 2; 160 2; 161 7; 162 3; 163 16; 
164 8; 165 6; 166 6; 170 1; 172 1; 
173 1; 174 2; 175 2; 176 4; 177 17; 
178 12; 179 999; 180 122; 181 11; 182 1; 
183 2; 184 1; 185 1; 188 3; 189 1; 
190 4; 191 4; 192 16; 193 4; 194 1; 
196 1; 197 1; 198 1; 207 1; 209 1; 
210 1; 211 1; 212 1; 220 3; 222 1; 
224 1; 226 1; 238 1; 240 1; 241 1; 
252 1; 253 1; 254 3; 255 1; 256 3; 
257 1; 266 1; 268 7; 269 3; 270 2; 
271 1; 272 2; 273 2; 282 3; 283 2; 
284 545; 285 111; 286 13; 287 1; 300 2; 
314 1; 315 174; 316 36; 317 4; 
