Name: 25E-NB-3-F
InChIKey: WQABYGKYVCMYFX-UHFFFAOYSA-N
Synon: 2-(4-ethyl-2,5-dimethoxyphenyl)-N-(3-fluorobenzyl)ethanamine
Synon: 2C-E-NB-3-F
Formula: C19H24FNO2
MW: 317
ExactMass: 317.179108
CASNO: 0
ID: 4031
Comment: ENFSI/DWG
Num Peaks: 121
39 10; 40 1; 41 8; 42 3; 43 4; 
45 2; 50 2; 51 7; 52 3; 53 9; 
54 1; 55 5; 57 6; 59 4; 62 1; 
63 8; 64 2; 65 14; 66 3; 67 7; 
68 1; 69 3; 70 1; 74 1; 75 4; 
76 2; 77 41; 78 15; 79 22; 80 3; 
81 4; 82 2; 83 47; 84 2; 89 13; 
90 6; 91 92; 92 10; 93 13; 94 4; 
95 5; 96 4; 97 1; 101 1; 102 3; 
103 21; 104 13; 105 26; 106 6; 107 18; 
108 14; 109 999; 110 79; 111 4; 115 33; 
116 10; 117 33; 118 10; 119 24; 120 6; 
121 27; 122 13; 123 7; 124 4; 127 1; 
128 2; 129 1; 130 2; 131 6; 132 4; 
133 14; 134 28; 135 24; 136 44; 137 13; 
138 692; 139 62; 140 2; 144 1; 145 2; 
146 2; 147 8; 148 7; 149 31; 150 10; 
151 13; 152 5; 158 1; 159 1; 160 2; 
161 2; 162 4; 163 13; 164 12; 165 121; 
166 14; 167 1; 175 1; 176 9; 177 9; 
178 12; 179 92; 180 902; 181 108; 182 9; 
183 1; 190 2; 191 1; 192 7; 193 6; 
194 1; 207 3; 270 3; 284 23; 285 11; 
286 5; 287 1; 315 6; 316 2; 317 20; 
318 4; 
