Name: 25C-NB4OMe-imine
InChIKey: AVAGNGZGMCWPAQ-UDWIEESQSA-N
Synon: N-[2-(4-chloro-2,5-dimethoxyphenyl)ethyl]-1-(4-methoxybenzyl)methanimine
Synon: 2C-C-NB4OMe-imine
Formula: C18H20ClNO3
MW: 333
ExactMass: 333.11317
CASNO: 0
ID: 4035
Comment: ENFSI/DWG / product from 25C-NB-4-OMe in GC injector
Num Peaks: 177
36 1; 38 2; 39 16; 40 1; 41 6; 
42 1; 43 2; 49 1; 50 10; 51 35; 
52 11; 53 15; 54 2; 55 3; 57 1; 
59 1; 60 1; 61 1; 62 5; 63 26; 
64 15; 65 34; 66 4; 67 5; 69 1; 
73 6; 74 4; 75 16; 76 15; 77 126; 
78 75; 79 35; 80 3; 81 1; 84 1; 
85 2; 86 2; 87 4; 88 4; 89 47; 
90 33; 91 182; 92 28; 93 4; 94 1; 
95 1; 97 1; 98 2; 99 27; 100 3; 
101 10; 102 6; 103 11; 104 54; 105 77; 
106 21; 107 5; 108 1; 109 1; 110 1; 
111 7; 112 20; 113 13; 114 7; 115 6; 
116 8; 117 42; 118 10; 119 11; 120 9; 
121 765; 122 74; 123 6; 124 3; 125 22; 
126 6; 127 17; 128 4; 129 4; 130 2; 
131 1; 132 22; 133 52; 134 18; 135 6; 
136 10; 137 2; 138 1; 139 4; 140 8; 
141 6; 142 21; 143 4; 144 6; 145 1; 
146 4; 147 11; 148 999; 149 105; 152 3; 
153 2; 154 3; 155 47; 156 6; 157 19; 
158 1; 159 2; 160 2; 161 1; 162 1; 
164 2; 165 1; 166 2; 167 4; 168 2; 
169 16; 170 5; 171 5; 172 2; 174 1; 
178 1; 179 1; 180 2; 181 1; 182 3; 
183 10; 184 10; 185 38; 187 10; 190 1; 
193 1; 194 2; 195 1; 196 2; 197 3; 
198 11; 199 2; 200 3; 207 1; 208 1; 
209 1; 210 1; 211 1; 212 1; 224 2; 
225 1; 226 3; 227 1; 228 1; 237 1; 
238 1; 240 1; 250 1; 252 2; 253 1; 
266 2; 268 3; 270 1; 271 1; 272 1; 
273 1; 274 1; 286 1; 287 4; 288 1; 
289 1; 300 1; 301 1; 302 442; 303 83; 
304 148; 305 29; 306 3; 332 1; 333 10; 
334 2; 335 2; 
