Name: RH-34 imine analogue
InChIKey: NJIHGYNOCHMSQB-XDHOZWIPSA-N
Formula: C18H17N3O3
MW: 323
ExactMass: 323.126991
CASNO: 0
ID: 4040
Comment: ENFSI/DWG / product from RH-34 in GC injector
Num Peaks: 80
39 50; 40 6; 41 25; 42 68; 43 99; 
50 27; 51 55; 52 31; 63 72; 64 77; 
65 103; 73 36; 74 6; 75 9; 76 27; 
77 99; 78 107; 79 48; 83 29; 89 81; 
90 251; 91 549; 92 176; 96 55; 102 33; 
103 40; 104 132; 105 150; 106 37; 107 74; 
115 30; 116 30; 117 156; 118 314; 119 999; 
120 142; 121 802; 122 61; 130 75; 131 36; 
132 136; 133 167; 134 313; 135 61; 136 56; 
145 54; 146 609; 147 75; 148 676; 149 85; 
150 30; 160 110; 161 99; 162 379; 163 117; 
175 31; 176 38; 177 23; 179 26; 186 46; 
187 33; 188 27; 189 90; 190 80; 191 20; 
204 113; 205 30; 207 27; 209 8; 221 3; 
239 4; 249 16; 253 20; 254 10; 255 5; 
265 9; 281 25; 307 5; 323 736; 324 168; 
