Name: N-Ethylnorpentedrone Acetyl derivative
InChIKey: MRLWZXKBPMJTHW-UHFFFAOYSA-N
Formula: C15H21NO2
MW: 247
ExactMass: 247.157228
CASNO: 0
ID: 4041
Comment: ENFSI/DWG
Num Peaks: 84
39 7; 40 1; 41 12; 42 20; 43 104; 
44 19; 45 1; 46 1; 50 9; 51 41; 
52 4; 53 4; 54 5; 55 22; 56 42; 
57 4; 58 67; 59 2; 63 2; 65 2; 
67 1; 68 4; 69 2; 70 18; 71 18; 
72 11; 74 2; 75 2; 76 7; 77 152; 
78 14; 79 5; 80 1; 82 1; 83 1; 
84 15; 85 1; 86 1; 88 1; 89 2; 
90 1; 91 12; 92 1; 98 9; 100 999; 
101 79; 102 3; 103 3; 104 2; 105 72; 
106 8; 112 4; 113 1; 115 5; 116 2; 
117 3; 118 3; 120 1; 127 1; 128 2; 
129 1; 130 1; 131 2; 132 1; 133 4; 
134 3; 142 445; 143 44; 144 5; 145 1; 
146 3; 149 1; 160 1; 161 2; 162 9; 
163 2; 176 2; 186 1; 188 1; 190 1; 
204 8; 205 2; 218 2; 247 2; 
