Name: bk-MPA Acetyl derivative
InChIKey: GXWWLFJTCPWILA-UHFFFAOYSA-N
Formula: C10H13NO2S
MW: 211
ExactMass: 211.0667
CASNO: 0
ID: 4042
Comment: ENFSI/DWG
Num Peaks: 74
37 2; 38 9; 39 99; 40 6; 41 10; 
42 84; 43 159; 44 7; 45 19; 47 1; 
49 1; 50 6; 51 4; 52 2; 53 9; 
54 10; 55 11; 56 96; 57 58; 58 999; 
59 37; 60 1; 62 1; 63 2; 65 3; 
66 2; 67 3; 68 1; 69 6; 70 2; 
71 3; 74 1; 77 7; 78 2; 80 1; 
81 13; 82 17; 83 50; 84 9; 85 8; 
86 1; 93 1; 95 1; 96 1; 97 13; 
98 1; 100 583; 101 33; 102 1; 108 1; 
109 5; 111 193; 112 13; 113 9; 121 1; 
122 1; 124 1; 125 1; 126 2; 136 1; 
137 1; 138 2; 139 5; 140 19; 141 1; 
142 1; 152 5; 153 1; 154 9; 168 5; 
169 3; 194 1; 211 18; 212 3; 
