Name: AL-NBF Acetyl derivative
InChIKey: GSXADOHZSAZGCL-UHFFFAOYSA-N
Formula: C22H26FNO4
MW: 387
ExactMass: 387.184587
CASNO: 0
ID: 4044
Comment: ENFSI/DWG
Num Peaks: 150
39 5; 41 1; 42 3; 43 53; 45 1; 
50 2; 51 5; 52 3; 53 7; 54 2; 
55 6; 56 1; 57 6; 59 2; 60 1; 
62 1; 63 5; 64 4; 65 8; 66 9; 
67 3; 68 2; 69 4; 72 5; 73 6; 
74 1; 75 3; 76 5; 77 14; 78 17; 
79 7; 80 4; 81 7; 82 4; 83 27; 
84 1; 85 1; 89 6; 90 3; 91 12; 
92 6; 93 6; 94 10; 95 5; 96 2; 
97 6; 102 1; 103 2; 104 5; 105 5; 
106 15; 107 13; 108 9; 109 451; 110 39; 
111 2; 117 1; 118 4; 119 5; 120 4; 
121 8; 122 30; 123 28; 124 20; 125 2; 
131 3; 132 2; 133 3; 134 8; 135 8; 
136 16; 137 21; 138 381; 139 33; 140 1; 
147 3; 148 3; 149 4; 150 4; 151 10; 
152 2; 153 6; 154 3; 156 1; 157 2; 
158 4; 162 4; 163 3; 164 3; 165 36; 
166 7; 167 122; 168 28; 169 3; 177 1; 
178 5; 179 9; 180 999; 181 117; 182 13; 
183 1; 194 1; 195 4; 196 6; 197 9; 
198 3; 207 12; 208 3; 209 3; 210 2; 
211 2; 223 1; 238 2; 250 2; 253 7; 
254 1; 257 2; 269 3; 270 2; 282 2; 
283 1; 302 1; 303 2; 304 1; 311 3; 
314 1; 315 1; 316 2; 325 2; 327 2; 
330 1; 331 3; 332 1; 333 2; 341 2; 
342 4; 345 3; 347 25; 348 4; 355 1; 
356 1; 359 2; 377 1; 401 2; 403 2; 
404 2; 405 1; 415 1; 429 2; 430 1; 
