Name: 6-APB Acetyl derivative
InChIKey: LKTXRPUICSMHNE-UHFFFAOYSA-N
Formula: C13H15NO2
MW: 217
ExactMass: 217.110279
CASNO: 0
ID: 4045
Comment: ENFSI/DWG
Num Peaks: 92
40 5; 41 7; 42 26; 43 106; 44 700; 
45 19; 50 11; 51 34; 52 9; 53 7; 
54 1; 55 1; 56 3; 57 6; 58 1; 
59 1; 60 1; 61 1; 62 7; 63 27; 
64 7; 65 6; 68 1; 69 1; 70 3; 
72 1; 74 7; 75 14; 76 21; 77 150; 
78 15; 79 3; 80 1; 86 198; 87 13; 
88 3; 89 14; 90 5; 91 11; 92 1; 
95 2; 96 1; 98 1; 99 1; 100 1; 
101 8; 102 54; 103 27; 104 11; 105 4; 
106 1; 109 1; 113 1; 115 30; 116 9; 
117 5; 118 7; 119 1; 126 2; 127 17; 
128 42; 129 86; 130 28; 131 364; 132 76; 
133 8; 139 1; 140 1; 142 1; 143 5; 
144 6; 145 2; 146 1; 147 1; 155 2; 
156 3; 157 90; 158 999; 159 133; 160 19; 
161 2; 170 1; 171 1; 172 1; 173 4; 
174 7; 175 1; 184 1; 198 1; 199 1; 
217 17; 218 3; 
