Name: 5-APDB Acetyl derivative
InChIKey: CCNNDLIRIMCQPE-UHFFFAOYSA-N
Formula: C13H17NO2
MW: 219
ExactMass: 219.125929
CASNO: 0
ID: 4046
Comment: ENFSI/DWG
Num Peaks: 95
38 2; 39 21; 40 4; 41 11; 42 33; 
43 142; 44 456; 45 12; 50 11; 51 36; 
52 16; 53 19; 54 2; 55 23; 56 3; 
57 4; 58 3; 59 1; 60 1; 61 1; 
62 5; 63 19; 64 6; 65 30; 66 5; 
67 2; 68 1; 69 1; 74 4; 75 6; 
76 11; 77 127; 78 38; 79 78; 80 7; 
81 1; 85 1; 86 81; 87 6; 88 1; 
89 14; 90 8; 91 53; 92 6; 93 1; 
94 1; 101 2; 102 21; 103 74; 104 30; 
105 50; 106 7; 107 6; 110 1; 114 1; 
115 41; 116 12; 117 26; 118 10; 119 14; 
120 9; 121 2; 126 1; 127 7; 128 12; 
129 8; 130 7; 131 62; 132 32; 133 514; 
134 140; 135 12; 141 5; 142 1; 143 3; 
144 9; 145 22; 146 8; 147 3; 148 1; 
157 2; 158 10; 159 106; 160 999; 161 132; 
162 17; 163 1; 172 1; 173 1; 174 1; 
175 3; 176 7; 177 1; 219 28; 220 4; 
