Name: 4-EMC Acetyl derivative
InChIKey: SHFCAWBHCVXYAS-UHFFFAOYSA-N
Formula: C14H19NO2
MW: 233
ExactMass: 233.141579
CASNO: 0
ID: 4047
Comment: ENFSI/DWG
Num Peaks: 72
38 1; 39 10; 40 1; 41 5; 42 41; 
43 89; 44 4; 50 8; 51 19; 52 5; 
53 6; 54 4; 55 8; 56 55; 57 25; 
58 999; 59 40; 62 3; 63 14; 64 4; 
65 11; 66 1; 71 2; 74 3; 75 4; 
76 7; 77 77; 78 20; 79 60; 80 4; 
86 1; 87 1; 89 28; 90 24; 91 14; 
92 1; 100 755; 101 48; 102 9; 103 42; 
104 12; 105 37; 106 4; 115 5; 116 1; 
117 4; 118 2; 119 4; 127 1; 128 2; 
129 1; 130 1; 131 3; 132 2; 133 85; 
134 9; 144 1; 145 1; 146 1; 147 1; 
148 2; 160 2; 161 4; 162 9; 163 1; 
174 2; 175 1; 176 2; 190 4; 191 1; 
233 13; 234 2; 
