Name: 4-EMA Acetyl derivative
InChIKey: XUBPIHDLOPBXQH-UHFFFAOYSA-N
Formula: C14H21NO
MW: 219
ExactMass: 219.162314
CASNO: 0
ID: 4048
Comment: ENFSI/DWG
Num Peaks: 82
39 13; 40 1; 41 17; 42 54; 43 101; 
44 4; 50 3; 51 13; 52 5; 53 6; 
54 4; 55 4; 56 63; 57 29; 58 999; 
59 39; 62 2; 63 11; 64 4; 65 20; 
66 2; 67 1; 70 2; 71 6; 72 2; 
74 18; 75 3; 76 4; 77 43; 78 31; 
79 15; 80 1; 86 1; 87 1; 89 14; 
90 4; 91 101; 92 8; 93 3; 100 743; 
101 46; 102 12; 103 40; 104 58; 105 23; 
106 2; 115 54; 116 19; 117 68; 118 11; 
119 69; 120 8; 127 4; 128 13; 129 10; 
130 7; 131 68; 132 14; 133 4; 134 1; 
141 1; 142 1; 143 2; 144 5; 145 8; 
146 251; 147 40; 148 3; 149 1; 158 1; 
159 1; 160 11; 161 4; 162 10; 163 1; 
174 2; 175 4; 176 10; 177 1; 204 2; 
219 16; 220 3; 
