Name: 4-APB Acetyl derivative
InChIKey: ZGERXUCBEZJUDY-UHFFFAOYSA-N
Formula: C13H15NO2
MW: 217
ExactMass: 217.110279
CASNO: 0
ID: 4053
Comment: ENFSI/DWG
Num Peaks: 36
40 11; 41 8; 42 25; 43 110; 44 878; 
45 38; 51 44; 55 24; 63 33; 65 21; 
73 8; 75 24; 76 38; 77 189; 78 34; 
86 310; 87 28; 91 20; 94 32; 101 3; 
102 102; 103 50; 115 62; 127 22; 128 60; 
129 93; 130 43; 131 470; 132 86; 147 22; 
157 93; 158 999; 159 161; 160 26; 208 22; 
217 46; 
