Name: 3-Thienoamphetamine Acetyl derivative
InChIKey: UTUHVXPNQIUYQP-UHFFFAOYSA-N
Formula: C9H13NOS
MW: 183
ExactMass: 183.071785
CASNO: 0
ID: 4054
Comment: ENFSI/DWG
Num Peaks: 88
37 1; 38 6; 39 40; 40 6; 41 20; 
42 61; 43 229; 44 999; 45 140; 46 4; 
47 8; 50 10; 51 21; 52 9; 53 63; 
54 6; 55 1; 56 5; 57 15; 58 17; 
59 5; 60 10; 61 1; 62 4; 63 11; 
64 2; 65 17; 66 5; 67 3; 68 2; 
69 30; 70 14; 71 20; 72 2; 73 1; 
74 1; 75 1; 76 1; 77 16; 78 10; 
79 18; 80 12; 81 7; 82 8; 83 3; 
84 10; 85 9; 86 214; 87 10; 89 2; 
90 1; 91 35; 92 5; 93 8; 94 4; 
95 8; 96 11; 97 341; 98 41; 99 30; 
100 2; 101 1; 106 5; 107 6; 108 4; 
109 9; 110 8; 111 4; 112 4; 113 1; 
121 6; 122 5; 123 113; 124 852; 125 86; 
126 68; 127 6; 128 1; 136 1; 138 2; 
139 1; 140 13; 141 2; 150 2; 165 1; 
183 44; 184 5; 185 2; 
