Name: 3-MPA Acetyl derivative
InChIKey: XVBBLSPSQXBERD-UHFFFAOYSA-N
Formula: C10H15NOS
MW: 197
ExactMass: 197.087435
CASNO: 0
ID: 4055
Comment: ENFSI/DWG
Num Peaks: 89
37 1; 38 3; 39 26; 40 3; 41 15; 
42 69; 43 136; 44 9; 45 60; 46 2; 
47 4; 50 5; 51 12; 52 5; 53 30; 
54 8; 55 5; 56 72; 57 24; 58 999; 
59 37; 60 1; 62 1; 63 6; 64 1; 
65 10; 66 4; 67 2; 68 1; 69 15; 
70 8; 71 17; 72 4; 73 1; 74 19; 
75 2; 77 12; 78 6; 79 9; 80 3; 
81 3; 82 4; 83 1; 84 7; 85 5; 
86 1; 89 1; 91 13; 92 2; 93 2; 
94 4; 95 6; 96 6; 97 152; 98 14; 
99 12; 100 492; 101 28; 102 1; 106 2; 
107 2; 108 3; 109 7; 110 7; 111 4; 
112 2; 113 2; 120 4; 121 8; 122 6; 
123 37; 124 114; 125 20; 126 6; 127 1; 
136 1; 137 1; 138 6; 139 4; 140 20; 
141 2; 152 3; 153 1; 154 8; 155 1; 
182 1; 197 33; 198 3; 199 1; 
