Name: 25I-NBF Acetyl derivative
InChIKey: VMBLEBQHAVGQOS-UHFFFAOYSA-N
Synon: 2C-I-NBF Acetyl derivative
Formula: C19H21FINO3
MW: 457
ExactMass: 457.05502
CASNO: 0
ID: 4057
Comment: ENFSI/DWG
Num Peaks: 170
38 1; 39 12; 40 1; 41 4; 42 11; 
43 142; 44 3; 45 1; 50 9; 51 21; 
52 5; 53 16; 54 2; 55 3; 56 2; 
57 7; 59 4; 61 1; 62 5; 63 23; 
64 17; 65 15; 66 3; 67 4; 68 1; 
69 1; 70 1; 72 1; 73 2; 74 3; 
75 9; 76 13; 77 75; 78 21; 79 20; 
80 2; 81 3; 82 2; 83 49; 84 3; 
86 1; 87 1; 88 2; 89 36; 90 42; 
91 54; 92 25; 93 6; 94 2; 95 2; 
96 3; 97 4; 101 1; 102 5; 103 11; 
104 7; 105 57; 106 16; 107 26; 108 17; 
109 731; 110 56; 111 2; 115 1; 116 1; 
117 4; 118 13; 119 13; 120 21; 121 13; 
122 11; 123 3; 124 21; 125 2; 127 12; 
128 14; 131 2; 132 4; 133 19; 134 11; 
135 16; 136 16; 138 743; 139 67; 140 2; 
146 1; 147 5; 148 50; 149 14; 150 12; 
151 5; 152 2; 161 2; 162 4; 163 7; 
164 26; 165 12; 166 1; 167 1; 176 1; 
177 1; 178 7; 179 5; 180 27; 181 3; 
183 1; 191 10; 192 1; 194 4; 195 1; 
196 1; 197 1; 203 1; 204 2; 205 2; 
207 1; 217 2; 218 1; 219 5; 220 1; 
221 1; 226 1; 227 1; 232 23; 233 4; 
234 10; 235 1; 244 1; 246 1; 247 57; 
248 5; 249 2; 253 1; 255 1; 256 2; 
257 1; 258 2; 259 2; 260 1; 261 10; 
262 2; 263 4; 270 1; 272 3; 273 2; 
274 2; 275 40; 276 18; 277 49; 278 6; 
281 1; 286 1; 287 1; 288 4; 290 999; 
291 118; 292 10; 300 2; 305 1; 306 4; 
315 1; 330 1; 331 2; 368 2; 383 2; 
414 2; 426 1; 457 80; 458 17; 459 2; 
