Name: 25T2-NB4OMe Acetyl derivative
InChIKey: VJOVOROEPQSQIL-UHFFFAOYSA-N
Synon: 2C-T-2-NB4OMe Acetyl derivative
Formula: C22H29NO4S
MW: 403
ExactMass: 403.18173
CASNO: 0
ID: 4058
Comment: ENFSI/DWG
Num Peaks: 177
38 1; 39 6; 40 1; 41 6; 42 6; 
43 69; 45 6; 46 1; 47 2; 50 2; 
51 10; 52 6; 53 9; 54 1; 55 5; 
56 1; 57 1; 58 1; 59 17; 60 1; 
61 2; 62 2; 63 6; 64 4; 65 18; 
66 5; 67 6; 68 1; 69 4; 70 1; 
71 3; 72 1; 73 7; 74 1; 75 5; 
76 2; 77 65; 78 51; 79 20; 80 3; 
81 2; 82 2; 83 1; 84 1; 85 7; 
86 1; 87 1; 89 12; 90 16; 91 63; 
92 11; 93 7; 94 7; 95 4; 96 4; 
97 9; 98 1; 99 1; 102 2; 103 5; 
104 5; 105 14; 106 13; 107 15; 108 8; 
109 21; 110 10; 111 6; 112 1; 115 2; 
116 1; 117 3; 118 4; 119 10; 121 970; 
122 99; 123 15; 124 5; 125 7; 126 2; 
127 1; 129 1; 131 2; 132 6; 133 10; 
134 16; 135 18; 136 56; 137 16; 138 14; 
139 5; 140 6; 141 1; 145 1; 146 1; 
147 8; 148 22; 149 16; 150 14; 151 14; 
152 14; 153 39; 154 6; 155 3; 156 1; 
158 1; 159 1; 160 1; 161 2; 162 4; 
163 4; 164 9; 165 7; 166 7; 167 15; 
168 3; 169 2; 175 5; 176 3; 177 4; 
178 4; 179 5; 180 7; 181 36; 182 8; 
183 8; 184 1; 190 1; 191 1; 192 2; 
193 1; 194 7; 195 10; 196 7; 197 5; 
198 1; 207 2; 208 1; 209 45; 210 15; 
211 145; 212 19; 213 8; 221 1; 222 1; 
224 999; 225 151; 226 58; 227 7; 228 1; 
237 1; 239 1; 240 2; 241 1; 252 1; 
253 6; 254 1; 255 1; 268 1; 269 1; 
270 1; 281 1; 282 1; 283 1; 327 1; 
329 1; 330 1; 331 1; 333 1; 342 1; 
345 1; 346 1; 360 3; 403 80; 404 21; 
405 7; 406 2; 
