Name: 25I-NB-3-F Acetyl derivative
InChIKey: LULFEYPFUXXLNK-UHFFFAOYSA-N
Synon: 2C-I-NB-3-F Acetyl derivative
Formula: C19H21FINO3
MW: 457
ExactMass: 457.05502
CASNO: 0
ID: 4059
Comment: ENFSI/DWG
Num Peaks: 187
38 2; 39 13; 40 2; 41 5; 42 13; 
43 211; 44 3; 45 1; 50 10; 51 25; 
52 6; 53 20; 54 2; 55 4; 56 2; 
57 9; 58 1; 59 4; 60 1; 61 1; 
62 6; 63 27; 64 19; 65 17; 66 4; 
67 4; 68 1; 69 2; 70 1; 72 1; 
73 4; 74 4; 75 11; 76 13; 77 83; 
78 24; 79 22; 80 2; 81 3; 82 2; 
83 54; 84 3; 86 1; 87 2; 88 2; 
89 41; 90 48; 91 61; 92 29; 93 8; 
94 3; 95 5; 96 4; 97 6; 101 1; 
102 4; 103 14; 104 8; 105 63; 106 16; 
107 29; 108 15; 109 653; 110 50; 111 2; 
115 1; 116 1; 117 4; 118 14; 119 15; 
120 22; 121 16; 122 13; 123 4; 124 24; 
125 3; 127 14; 128 17; 131 2; 132 5; 
133 22; 134 13; 135 22; 136 23; 138 716; 
139 64; 140 2; 146 2; 147 6; 148 60; 
149 17; 150 14; 151 5; 152 2; 156 1; 
157 1; 160 1; 161 2; 162 4; 163 7; 
164 31; 165 15; 166 2; 167 1; 168 1; 
176 1; 177 1; 178 6; 179 5; 180 17; 
181 2; 183 1; 184 1; 190 1; 191 9; 
192 3; 193 1; 194 5; 195 1; 196 1; 
197 1; 200 1; 203 1; 204 3; 205 2; 
206 1; 207 4; 217 3; 218 1; 219 5; 
220 1; 221 1; 223 1; 226 1; 227 1; 
229 1; 231 1; 232 22; 233 3; 234 10; 
235 1; 240 1; 244 1; 246 1; 247 54; 
248 5; 249 2; 253 1; 255 1; 256 3; 
257 1; 258 2; 259 2; 260 1; 261 9; 
262 2; 263 5; 264 1; 272 3; 273 1; 
274 2; 275 42; 276 18; 277 52; 278 6; 
282 1; 286 1; 287 1; 288 4; 290 999; 
291 117; 292 10; 300 1; 305 1; 306 3; 
315 1; 329 1; 331 1; 341 1; 368 1; 
383 1; 414 2; 415 1; 429 1; 457 57; 
458 12; 459 1; 
