Name: 2-FMC Acetyl derivative
InChIKey: OUDPFZWXJWJCPG-UHFFFAOYSA-N
Formula: C12H14FNO2
MW: 223
ExactMass: 223.100857
CASNO: 0
ID: 4068
Comment: ENFSI/DWG
Num Peaks: 98
38 1; 39 4; 40 2; 41 8; 42 84; 
43 156; 44 5; 45 1; 50 17; 51 14; 
52 1; 53 2; 54 9; 55 12; 56 90; 
57 34; 58 999; 59 36; 60 1; 61 1; 
62 2; 63 6; 64 1; 68 13; 69 21; 
70 6; 71 4; 72 1; 73 2; 74 18; 
75 130; 76 12; 77 11; 78 1; 81 3; 
82 1; 83 3; 87 1; 89 2; 91 1; 
92 2; 93 4; 94 23; 95 203; 96 20; 
97 4; 99 4; 100 555; 101 37; 102 5; 
103 8; 104 2; 105 2; 107 4; 108 2; 
109 13; 110 1; 115 2; 117 1; 118 1; 
120 3; 121 4; 123 186; 124 16; 125 2; 
128 1; 131 2; 132 1; 133 6; 134 2; 
135 2; 136 2; 137 1; 138 6; 139 1; 
146 1; 148 3; 149 5; 150 4; 151 5; 
152 8; 153 1; 160 3; 162 3; 163 1; 
164 7; 165 9; 166 18; 167 2; 178 1; 
180 18; 181 7; 182 1; 205 2; 206 2; 
208 1; 223 14; 224 2; 
