Name: 2-Chloroamphetamine Acetyl derivative
Synon: 2-CA Acetyl derivative
InChIKey: PFSOVACLKWRYAX-UHFFFAOYSA-N
Formula: C11H14ClNO
MW: 211
ExactMass: 211.076392
CASNO: 0
ID: 4069
Comment: ENFSI/DWG
Num Peaks: 102
36 1; 37 1; 38 5; 39 33; 40 4; 
41 16; 42 64; 43 243; 44 999; 45 28; 
49 2; 50 14; 51 23; 52 4; 53 1; 
54 1; 55 1; 56 4; 57 9; 58 5; 
60 13; 61 4; 62 18; 63 67; 64 13; 
65 31; 66 2; 68 1; 70 2; 72 1; 
73 13; 74 7; 75 24; 76 6; 77 22; 
78 6; 79 2; 84 1; 86 665; 87 40; 
88 7; 89 154; 90 43; 91 77; 92 6; 
93 1; 97 2; 98 1; 99 44; 100 3; 
101 22; 102 11; 103 10; 104 2; 105 2; 
106 2; 107 4; 111 2; 112 2; 113 2; 
114 6; 115 80; 116 27; 117 101; 118 41; 
119 11; 120 1; 123 2; 125 173; 126 17; 
127 56; 128 7; 130 8; 131 4; 132 10; 
133 6; 134 2; 137 1; 138 2; 139 1; 
140 1; 141 1; 144 1; 149 1; 151 3; 
152 70; 153 11; 154 52; 155 6; 156 11; 
157 1; 158 2; 159 1; 167 1; 168 12; 
169 2; 170 3; 175 1; 176 22; 177 3; 
211 3; 213 1; 
