Name: 3,4-CTMP Acetyl derivative
Synon: 3,4-Dichloromethylphenidate Acetyl derivative
InChIKey: UYMHOGDZNDKCRS-UHFFFAOYSA-N
Formula: C16H19Cl2NO3
MW: 343
ExactMass: 343.0742
CASNO: 0
ID: 4071
Comment: ENFSI/DWG
Num Peaks: 169
39 7; 40 1; 41 17; 42 17; 43 103; 
44 6; 45 1; 50 1; 51 2; 52 1; 
53 4; 54 11; 55 49; 56 82; 57 6; 
59 7; 61 1; 62 3; 63 5; 65 3; 
67 9; 68 11; 69 3; 70 2; 72 1; 
73 7; 74 3; 75 8; 76 1; 77 2; 
80 5; 81 1; 82 27; 83 21; 84 999; 
85 57; 86 4; 87 6; 88 2; 89 9; 
90 1; 91 3; 96 2; 97 6; 98 1; 
99 6; 100 1; 101 4; 102 4; 103 1; 
109 3; 110 1; 111 7; 112 1; 113 5; 
114 6; 115 24; 116 4; 117 1; 123 45; 
124 8; 125 29; 126 711; 127 64; 128 13; 
129 3; 130 1; 133 1; 135 5; 136 8; 
137 4; 138 3; 139 4; 140 1; 141 4; 
142 5; 143 2; 144 1; 145 3; 146 2; 
147 3; 148 3; 149 17; 150 12; 151 11; 
152 5; 153 3; 154 2; 155 3; 156 1; 
157 2; 158 12; 159 23; 160 10; 161 15; 
162 8; 163 7; 164 9; 165 4; 166 3; 
167 4; 168 1; 169 1; 170 4; 171 3; 
172 5; 173 11; 174 5; 175 8; 176 3; 
177 5; 178 3; 179 2; 180 1; 182 1; 
183 3; 184 3; 185 7; 186 20; 187 5; 
188 13; 189 26; 190 5; 191 16; 192 1; 
193 3; 197 1; 198 5; 199 2; 200 4; 
201 1; 202 2; 203 1; 204 3; 205 5; 
206 2; 207 2; 211 1; 212 2; 213 1; 
214 2; 215 1; 216 1; 217 2; 218 1; 
219 1; 220 1; 224 1; 226 1; 240 7; 
241 4; 242 17; 243 4; 244 9; 245 1; 
246 1; 252 1; 254 1; 266 1; 268 2; 
269 1; 270 1; 300 3; 302 2; 312 8; 
313 1; 314 5; 315 1; 316 1; 
