Name: bk-MPA TFA derivative
InChIKey: YFTAXJLXYIXIDZ-UHFFFAOYSA-N
Formula: C10H10F3NO2S
MW: 265
ExactMass: 265.038435
CASNO: 0
ID: 4073
Comment: ENFSI/DWG
Num Peaks: 92
37 4; 38 13; 39 157; 40 9; 41 8; 
42 246; 43 8; 44 2; 45 27; 46 2; 
47 23; 48 1; 49 2; 50 12; 51 7; 
52 2; 53 13; 54 12; 55 22; 56 96; 
57 74; 58 25; 59 4; 60 2; 61 1; 
62 2; 63 3; 64 1; 65 4; 66 4; 
67 5; 69 190; 70 7; 71 2; 72 1; 
74 1; 75 1; 76 1; 77 10; 78 13; 
79 1; 80 23; 81 16; 82 23; 83 76; 
84 26; 85 10; 86 1; 91 1; 92 13; 
93 1; 95 2; 96 4; 97 17; 98 4; 
99 1; 104 3; 108 1; 110 381; 111 770; 
112 51; 113 35; 114 1; 119 1; 121 1; 
122 2; 123 3; 124 2; 125 1; 126 1; 
133 1; 135 2; 136 1; 137 3; 138 19; 
139 7; 140 141; 141 12; 142 8; 150 1; 
151 1; 152 33; 154 999; 155 62; 156 4; 
168 1; 180 4; 181 1; 196 12; 197 1; 
208 2; 265 10; 
