Name: 5-APDB TFA derivative
InChIKey: SWUVOSFPOCVXEU-UHFFFAOYSA-N
Formula: C13H14F3NO2
MW: 273
ExactMass: 273.097664
CASNO: 0
ID: 4074
Comment: ENFSI/DWG
Num Peaks: 96
38 1; 39 11; 40 2; 41 4; 42 7; 
43 4; 44 5; 45 4; 47 4; 50 6; 
51 18; 52 7; 53 9; 54 1; 55 16; 
56 1; 62 3; 63 11; 64 3; 65 16; 
66 5; 67 1; 69 58; 70 8; 74 2; 
75 4; 76 5; 77 73; 78 23; 79 52; 
80 4; 86 1; 87 1; 88 1; 89 9; 
90 4; 91 25; 92 16; 93 3; 94 1; 
96 2; 97 4; 101 1; 102 11; 103 48; 
104 14; 105 43; 106 4; 107 3; 113 1; 
114 1; 115 25; 116 8; 117 12; 118 6; 
119 4; 120 5; 121 1; 127 3; 128 7; 
129 5; 130 3; 131 40; 133 999; 134 104; 
135 6; 140 34; 141 4; 142 1; 143 1; 
144 4; 145 7; 146 4; 147 1; 157 2; 
158 5; 159 29; 160 254; 161 48; 162 4; 
171 1; 174 1; 175 2; 186 2; 191 1; 
197 1; 204 4; 206 4; 207 2; 209 2; 
214 2; 234 2; 258 1; 273 114; 274 16; 
275 1; 
