Name: 4-EMC TFA derivative
InChIKey: AGCXVWCHDZLGCA-UHFFFAOYSA-N
Formula: C14H16F3NO2
MW: 287
ExactMass: 287.113314
CASNO: 0
ID: 4075
Comment: ENFSI/DWG
Num Peaks: 72
39 9; 40 1; 41 3; 42 68; 43 2; 
47 8; 50 8; 51 18; 52 4; 53 6; 
54 3; 55 8; 56 31; 57 13; 58 6; 
62 3; 63 13; 64 4; 65 10; 66 2; 
69 54; 70 1; 74 3; 75 4; 76 8; 
77 92; 78 26; 79 93; 80 13; 84 4; 
87 1; 89 27; 90 24; 91 12; 92 4; 
97 3; 98 1; 102 8; 103 65; 104 20; 
105 110; 106 10; 110 94; 111 3; 115 5; 
116 1; 117 4; 118 3; 119 3; 127 1; 
128 1; 129 1; 131 4; 133 999; 134 103; 
135 7; 144 2; 145 4; 146 2; 152 1; 
154 163; 155 10; 158 1; 159 1; 160 1; 
161 1; 162 1; 174 8; 175 1; 202 1; 
218 1; 287 3; 
