Name: 4-Chloromethamphetamine TFA derivative
Synon: 4-CMA TFA derivative
InChIKey: XJWZBJAQUJQKFK-UHFFFAOYSA-N
Formula: C12H13ClF3NO
MW: 279
ExactMass: 279.063776
CASNO: 0
ID: 4077
Comment: ENFSI/DWG
Num Peaks: 100
38 1; 39 11; 40 1; 41 7; 42 94; 
43 2; 47 7; 50 6; 51 9; 52 1; 
54 3; 55 3; 56 32; 57 14; 58 10; 
60 1; 61 1; 62 5; 63 23; 64 4; 
65 7; 66 1; 69 68; 70 2; 71 1; 
73 6; 74 4; 75 12; 76 3; 77 9; 
78 6; 80 8; 84 7; 85 2; 86 2; 
87 3; 89 55; 90 17; 91 17; 92 6; 
96 1; 97 5; 98 2; 99 18; 100 1; 
101 11; 102 7; 103 7; 104 3; 105 1; 
106 1; 110 225; 111 10; 112 2; 113 2; 
114 4; 115 52; 116 21; 117 58; 118 6; 
123 2; 125 110; 126 10; 127 37; 128 4; 
130 3; 131 3; 132 1; 136 1; 137 2; 
138 3; 139 2; 140 1; 144 1; 145 1; 
149 2; 150 2; 151 5; 152 203; 153 40; 
154 999; 155 60; 156 3; 164 1; 165 1; 
166 2; 167 3; 168 1; 169 1; 180 1; 
181 2; 182 2; 183 1; 192 3; 194 1; 
210 6; 211 1; 212 4; 264 1; 279 1; 
