Name: 4-Chloroamphetamine TFA derivative
Synon: 4-CA TFA derivative
InChIKey: WSGGEKYHBZYXLJ-UHFFFAOYSA-N
Formula: C11H11ClF3NO
MW: 265
ExactMass: 265.048126
CASNO: 0
ID: 4078
Comment: ENFSI/DWG
Num Peaks: 110
37 1; 38 3; 39 22; 40 3; 41 11; 
42 20; 43 11; 44 11; 45 41; 46 1; 
47 21; 49 1; 50 13; 51 19; 52 3; 
53 1; 54 1; 58 4; 59 1; 61 3; 
62 13; 63 49; 64 10; 65 18; 66 15; 
69 130; 70 47; 71 1; 72 1; 73 14; 
74 12; 75 24; 76 5; 77 16; 78 9; 
79 1; 84 1; 85 3; 86 5; 87 6; 
88 4; 89 125; 90 42; 91 57; 92 62; 
93 29; 94 2; 96 8; 97 12; 98 2; 
99 41; 100 3; 101 22; 102 12; 103 9; 
104 1; 110 2; 111 3; 112 4; 113 20; 
114 6; 115 79; 116 31; 117 135; 118 16; 
119 1; 120 3; 121 2; 122 1; 123 3; 
125 273; 126 37; 127 92; 128 13; 129 1; 
130 3; 131 1; 132 1; 133 1; 136 3; 
137 5; 138 6; 140 999; 141 46; 142 3; 
146 1; 149 3; 150 1; 152 630; 153 101; 
154 208; 155 31; 156 2; 162 1; 163 1; 
164 1; 166 1; 167 2; 175 1; 178 3; 
180 1; 183 1; 196 2; 198 2; 201 1; 
215 2; 226 1; 232 1; 250 1; 265 2; 
