Name: 25T2-NB4OMe TFA derivative
InChIKey: CUQGWJGCRBQPMY-UHFFFAOYSA-N
Synon: 2C-T-2-NB4OMe TFA derivative
Formula: C22H26F3NO4S
MW: 457
ExactMass: 457.153463
CASNO: 0
ID: 4083
Comment: ENFSI/DWG
Num Peaks: 194
38 2; 39 10; 40 1; 41 9; 42 4; 
43 3; 45 14; 47 2; 50 8; 51 17; 
52 11; 53 15; 54 1; 55 7; 56 5; 
57 1; 58 2; 59 28; 60 1; 61 5; 
62 3; 63 11; 64 7; 65 31; 66 8; 
67 10; 68 1; 69 25; 70 2; 71 4; 
73 14; 74 1; 75 10; 76 5; 77 111; 
78 89; 79 37; 80 5; 81 5; 82 3; 
83 2; 84 3; 85 11; 86 1; 87 2; 
89 24; 90 23; 91 97; 92 19; 93 10; 
94 10; 95 8; 96 12; 97 16; 98 2; 
99 2; 102 3; 103 7; 104 8; 105 26; 
106 22; 107 25; 108 14; 109 44; 110 22; 
111 10; 112 3; 113 2; 115 3; 116 3; 
117 6; 118 6; 119 14; 120 14; 121 741; 
122 91; 123 25; 124 10; 125 15; 126 3; 
127 3; 128 1; 131 4; 132 12; 133 17; 
134 28; 135 38; 136 16; 137 37; 138 30; 
139 11; 140 14; 141 2; 142 1; 145 2; 
146 2; 147 14; 148 25; 149 27; 150 16; 
151 34; 152 25; 153 93; 154 15; 155 9; 
156 2; 157 5; 158 1; 159 1; 160 1; 
161 5; 162 14; 163 8; 164 17; 165 14; 
166 14; 167 29; 168 7; 169 3; 175 6; 
176 5; 177 4; 178 3; 179 6; 180 8; 
181 114; 182 19; 183 18; 184 3; 189 1; 
190 1; 191 1; 192 2; 193 3; 194 10; 
195 20; 196 9; 197 8; 198 6; 206 1; 
207 10; 208 5; 209 46; 210 19; 211 999; 
212 128; 213 60; 214 7; 222 3; 223 5; 
224 708; 225 111; 226 42; 227 6; 228 1; 
232 13; 233 2; 237 1; 239 2; 251 1; 
253 7; 254 2; 255 1; 267 2; 268 2; 
269 1; 271 1; 275 6; 279 1; 281 2; 
282 2; 283 1; 284 1; 285 1; 286 1; 
287 2; 305 2; 325 1; 327 1; 329 3; 
330 1; 331 2; 332 1; 336 2; 337 1; 
341 3; 397 1; 405 2; 438 1; 457 377; 
458 94; 459 31; 460 5; 503 1; 
