Name: 25D-NB4OMe TFA derivative
InChIKey: OWCILZMQBOIYEX-UHFFFAOYSA-N
Synon: 2C-D-NB4OMe TFA derivative
Formula: C21H24F3NO4
MW: 411
ExactMass: 411.165743
CASNO: 0
ID: 4085
Comment: ENFSI/DWG
Num Peaks: 132
38 1; 39 21; 40 3; 41 14; 42 4; 
43 7; 45 2; 50 7; 51 25; 52 19; 
53 21; 54 2; 55 13; 56 6; 57 4; 
59 2; 62 2; 63 13; 64 9; 65 48; 
66 8; 67 18; 68 3; 69 27; 70 1; 
73 2; 74 1; 75 2; 76 5; 77 174; 
78 118; 79 90; 80 8; 81 3; 82 1; 
83 1; 89 29; 90 26; 91 202; 92 39; 
93 20; 94 11; 95 3; 96 6; 97 2; 
102 4; 103 51; 104 17; 105 74; 106 24; 
107 28; 108 10; 109 26; 110 3; 115 11; 
116 4; 117 12; 118 5; 119 20; 120 36; 
121 699; 122 93; 123 10; 124 1; 126 1; 
127 1; 128 1; 130 1; 131 5; 132 6; 
133 11; 134 21; 135 255; 136 30; 137 50; 
138 5; 139 3; 140 1; 142 2; 145 1; 
146 4; 147 12; 148 14; 149 34; 150 10; 
151 6; 152 4; 153 1; 157 4; 158 1; 
160 1; 161 3; 162 20; 163 110; 164 52; 
165 578; 166 65; 167 6; 174 1; 175 1; 
176 5; 177 16; 178 999; 179 151; 180 15; 
181 1; 189 1; 190 2; 193 1; 197 1; 
198 1; 205 3; 207 1; 209 1; 216 1; 
221 3; 228 1; 232 17; 233 3; 244 1; 
253 1; 258 2; 259 1; 272 1; 283 2; 
284 1; 290 3; 314 2; 380 1; 411 145; 
412 35; 413 5; 
