Name: 2-FMC TFA derivative
InChIKey: CGRRRZVUNYSCFQ-UHFFFAOYSA-N
Formula: C12H11F4NO2
MW: 277
ExactMass: 277.072592
CASNO: 0
ID: 4089
Comment: ENFSI/DWG
Num Peaks: 95
38 1; 39 3; 40 1; 41 4; 42 158; 
43 6; 44 1; 45 1; 46 1; 47 15; 
49 1; 50 18; 51 11; 52 1; 53 1; 
54 7; 55 11; 56 57; 57 26; 58 9; 
62 2; 63 5; 64 1; 65 1; 66 1; 
68 9; 69 128; 70 8; 71 1; 73 1; 
74 17; 75 117; 76 11; 77 11; 78 7; 
80 18; 81 2; 82 1; 83 2; 84 13; 
85 1; 89 1; 90 1; 91 1; 92 9; 
93 5; 94 19; 95 188; 96 20; 97 8; 
98 3; 101 7; 102 3; 103 13; 104 6; 
105 1; 106 1; 107 4; 108 2; 110 289; 
111 10; 115 1; 120 1; 121 3; 123 421; 
124 31; 125 2; 131 1; 132 2; 133 6; 
134 2; 135 2; 136 1; 145 1; 148 2; 
149 16; 150 3; 151 4; 152 54; 154 999; 
155 56; 156 3; 160 1; 162 2; 164 30; 
165 6; 166 1; 178 1; 180 1; 192 1; 
193 1; 208 15; 209 1; 262 1; 277 2; 
