Name: 2-MPA TFA derivative
InChIKey: PMKXXQQKVYWHOX-UHFFFAOYSA-N
Formula: C10H12F3NOS
MW: 251
ExactMass: 251.05917
CASNO: 0
ID: 4091
Comment: ENFSI/DWG
Num Peaks: 96
37 1; 38 5; 39 37; 40 4; 41 18; 
42 214; 43 7; 45 64; 46 3; 47 24; 
50 9; 51 15; 52 6; 53 43; 54 9; 
55 7; 56 70; 57 38; 58 36; 59 4; 
60 3; 61 1; 62 4; 63 13; 64 3; 
65 14; 66 6; 67 2; 69 149; 70 13; 
71 13; 72 1; 73 1; 74 1; 75 1; 
76 1; 77 16; 78 15; 79 16; 80 23; 
81 4; 82 6; 83 3; 84 21; 85 7; 
86 1; 89 2; 90 1; 91 23; 92 13; 
93 3; 94 2; 95 7; 96 12; 97 237; 
98 26; 99 12; 100 1; 104 3; 106 1; 
108 4; 109 11; 110 391; 111 19; 112 1; 
120 1; 121 6; 122 7; 123 65; 124 544; 
125 78; 126 29; 127 3; 128 1; 133 1; 
135 4; 136 1; 137 2; 138 2; 139 4; 
140 1; 148 1; 151 1; 152 3; 154 999; 
155 60; 156 4; 161 1; 164 1; 166 4; 
167 1; 182 5; 184 1; 212 3; 236 1; 
251 2; 
