Name: 25E-NB-3-F TFA derivative
InChIKey: KAMIFNOIVBEJPO-UHFFFAOYSA-N
Synon: 2C-E-NB-3-F TFA derivative
Formula: C21H23F4NO3
MW: 413
ExactMass: 413.161406
CASNO: 0
ID: 4092
Comment: ENFSI/DWG
Num Peaks: 156
38 1; 39 24; 40 1; 41 25; 42 8; 
43 10; 45 7; 50 6; 51 18; 52 8; 
53 24; 54 4; 55 15; 56 7; 57 19; 
58 1; 59 12; 62 4; 63 20; 64 6; 
65 33; 66 7; 67 18; 68 3; 69 48; 
70 3; 71 3; 73 1; 74 2; 75 9; 
76 5; 77 99; 78 38; 79 56; 80 6; 
81 9; 82 4; 83 98; 84 5; 87 1; 
88 1; 89 28; 90 13; 91 244; 92 28; 
93 37; 94 7; 95 15; 96 18; 97 36; 
98 2; 101 2; 102 8; 103 51; 104 33; 
105 67; 106 15; 107 33; 108 25; 109 691; 
110 57; 111 2; 114 1; 115 90; 116 28; 
117 107; 118 23; 119 82; 120 16; 121 64; 
122 19; 123 25; 124 4; 125 11; 126 2; 
127 5; 128 7; 129 6; 130 5; 131 17; 
132 10; 133 33; 134 84; 135 41; 136 29; 
137 8; 138 1; 139 1; 140 1; 142 1; 
143 1; 144 3; 145 10; 146 7; 147 24; 
148 16; 149 156; 150 35; 151 29; 152 5; 
153 1; 158 2; 159 4; 160 4; 161 13; 
162 8; 163 30; 164 14; 165 10; 166 2; 
172 1; 174 1; 175 3; 176 12; 177 160; 
178 46; 179 776; 180 97; 181 9; 183 1; 
185 1; 189 1; 190 8; 191 24; 192 999; 
193 148; 194 14; 195 1; 196 1; 197 1; 
199 6; 204 1; 207 1; 220 9; 221 2; 
228 1; 234 3; 235 3; 246 1; 256 2; 
257 1; 258 1; 260 1; 270 1; 271 1; 
273 1; 284 1; 285 4; 286 1; 288 1; 
303 2; 304 1; 346 1; 413 148; 414 36; 
415 5; 
