Name: 2-Chloroamphetamine TFA derivative
Synon: 2-CA TFA derivative
InChIKey: LRKIGTGMKSFMDE-UHFFFAOYSA-N
Formula: C11H11ClF3NO
MW: 265
ExactMass: 265.048126
CASNO: 0
ID: 4093
Comment: ENFSI/DWG
Num Peaks: 103
37 1; 38 3; 39 19; 40 2; 41 7; 
42 18; 43 10; 44 8; 45 39; 46 1; 
47 19; 49 1; 50 11; 51 17; 52 2; 
53 1; 58 4; 61 2; 62 11; 63 46; 
64 9; 65 20; 66 14; 69 113; 70 45; 
71 1; 72 1; 73 10; 74 10; 75 18; 
76 5; 77 15; 78 8; 79 1; 84 1; 
85 2; 86 4; 87 5; 88 3; 89 106; 
90 32; 91 59; 92 57; 93 26; 94 1; 
96 7; 97 10; 98 1; 99 31; 100 2; 
101 17; 102 10; 103 8; 104 2; 105 1; 
107 1; 110 1; 111 1; 112 2; 113 18; 
114 5; 115 71; 116 26; 117 70; 118 17; 
119 1; 120 2; 121 2; 122 1; 123 2; 
125 162; 126 33; 127 55; 128 11; 130 5; 
131 2; 132 3; 133 1; 136 2; 137 4; 
138 3; 140 999; 141 46; 142 3; 146 2; 
149 1; 150 1; 152 365; 153 68; 154 121; 
155 21; 156 1; 160 1; 166 1; 168 1; 
196 3; 198 1; 212 1; 214 1; 215 2; 
250 2; 252 1; 265 2; 
