Name: AL-NBF HFBA derivative
Synon: Allylescaline-NBF HFBA derivative
InChIKey: YXKNLJYBWXRZKZ-UHFFFAOYSA-N
Formula: C24H23F8NO4
MW: 541
ExactMass: 541.149933
CASNO: 0
ID: 4094
Comment: ENFSI/DWG
Num Peaks: 164
39 7; 40 1; 41 7; 42 2; 43 1; 
44 2; 50 2; 51 5; 52 4; 53 8; 
54 2; 55 4; 56 4; 57 4; 59 3; 
62 1; 63 6; 64 5; 65 11; 66 9; 
67 7; 68 1; 69 19; 70 1; 73 2; 
75 3; 76 3; 77 22; 78 23; 79 12; 
80 4; 81 8; 82 2; 83 36; 84 2; 
85 1; 89 8; 90 4; 91 20; 92 9; 
93 6; 94 8; 95 7; 96 4; 97 7; 
100 3; 102 2; 103 4; 104 3; 105 7; 
106 23; 107 20; 108 13; 109 665; 110 54; 
111 2; 115 1; 116 1; 117 2; 118 2; 
119 12; 120 9; 121 15; 122 40; 123 46; 
124 10; 125 10; 126 1; 127 1; 128 1; 
131 2; 132 2; 133 5; 134 12; 135 11; 
136 21; 137 22; 138 6; 139 2; 145 2; 
146 1; 147 3; 148 9; 149 7; 150 8; 
151 23; 152 7; 153 3; 154 1; 158 1; 
159 1; 161 2; 162 3; 163 2; 164 4; 
165 46; 166 10; 167 802; 168 84; 169 21; 
170 1; 175 2; 176 1; 177 11; 178 6; 
179 164; 180 999; 181 141; 182 15; 183 2; 
189 1; 190 14; 191 3; 192 1; 193 1; 
194 1; 195 1; 196 1; 197 1; 206 1; 
207 8; 208 2; 209 1; 220 2; 221 2; 
222 1; 223 1; 225 1; 226 1; 243 1; 
253 1; 255 1; 257 1; 258 1; 275 1; 
281 2; 287 1; 289 3; 310 1; 316 1; 
320 5; 321 3; 327 1; 330 1; 332 1; 
334 3; 341 1; 358 2; 373 1; 386 1; 
390 1; 391 2; 392 3; 404 1; 405 1; 
450 1; 451 1; 499 2; 500 2; 501 177; 
502 42; 503 6; 511 1; 541 3; 
