Name: 25C-NB4OMe HFBA derivative
InChIKey: MOLCBIKESGPXNN-UHFFFAOYSA-N
Synon: 2C-C-NB4OMe HFBA derivative
Formula: C22H21ClF7NO4
MW: 531
ExactMass: 531.104733
CASNO: 0
ID: 4097
Comment: ENFSI/DWG
Num Peaks: 170
36 1; 38 1; 39 6; 41 4; 42 3; 
43 2; 50 4; 51 13; 52 8; 53 9; 
54 1; 55 3; 56 5; 59 1; 62 2; 
63 9; 64 5; 65 18; 66 2; 67 3; 
69 19; 73 5; 74 1; 75 7; 76 4; 
77 95; 78 63; 79 15; 80 1; 81 1; 
85 1; 87 2; 88 1; 89 26; 90 21; 
91 67; 92 12; 93 4; 94 6; 95 1; 
97 1; 98 1; 99 12; 100 5; 101 5; 
102 3; 103 7; 104 4; 105 23; 106 13; 
107 8; 108 6; 109 20; 110 2; 111 4; 
112 10; 113 7; 114 4; 115 3; 116 1; 
117 2; 118 3; 119 10; 121 999; 122 95; 
123 7; 124 2; 125 17; 126 4; 127 11; 
128 3; 129 2; 131 1; 132 3; 133 5; 
134 15; 135 15; 136 5; 137 16; 138 2; 
139 3; 140 5; 141 5; 142 13; 143 3; 
144 4; 145 1; 146 1; 147 4; 148 16; 
149 5; 150 3; 151 2; 152 1; 153 2; 
154 5; 155 57; 156 8; 157 24; 158 3; 
159 2; 162 4; 163 2; 164 9; 165 5; 
166 2; 167 2; 168 2; 169 29; 170 5; 
171 8; 172 2; 173 1; 177 1; 178 1; 
179 1; 181 1; 182 3; 183 37; 184 30; 
185 153; 186 24; 187 47; 188 5; 191 1; 
194 1; 195 2; 196 3; 198 567; 199 81; 
200 189; 201 27; 202 2; 207 3; 209 1; 
225 1; 226 2; 238 1; 239 1; 240 1; 
241 3; 243 1; 248 1; 252 1; 253 4; 
254 1; 257 1; 269 1; 281 2; 303 1; 
305 1; 327 2; 329 1; 331 1; 332 19; 
333 4; 334 2; 341 1; 342 1; 355 1; 
375 2; 403 1; 405 1; 410 2; 429 1; 
481 1; 531 64; 532 16; 533 22; 534 5; 
