Name: 4-Chloromethamphetamine HFBA derivative
Synon: 4-CMA HFBA derivative
InChIKey: ZNRGJFJHLHIUGW-UHFFFAOYSA-N
Formula: C14H13ClF7NO
MW: 379
ExactMass: 379.05739
CASNO: 0
ID: 4101
Comment: ENFSI/DWG
Num Peaks: 102
39 7; 40 1; 41 5; 42 68; 43 2; 
47 2; 50 3; 51 5; 52 1; 54 1; 
55 2; 56 34; 57 23; 58 10; 62 3; 
63 13; 64 3; 65 4; 69 46; 70 1; 
73 4; 74 2; 75 8; 76 2; 77 7; 
78 4; 84 1; 85 1; 86 1; 87 2; 
89 37; 90 12; 91 12; 92 1; 99 12; 
100 8; 101 8; 102 4; 103 5; 104 1; 
105 1; 107 2; 109 5; 111 1; 112 2; 
113 1; 114 2; 115 35; 116 14; 117 42; 
118 5; 119 9; 123 1; 125 103; 126 9; 
127 35; 128 3; 130 2; 131 4; 132 1; 
135 1; 136 1; 137 1; 138 2; 139 1; 
140 1; 144 1; 145 1; 146 1; 149 1; 
150 2; 151 3; 152 136; 153 32; 154 45; 
155 11; 156 1; 159 1; 160 2; 166 2; 
167 3; 169 75; 170 3; 178 1; 180 3; 
181 2; 182 4; 183 1; 184 1; 192 3; 
208 1; 210 282; 211 16; 212 2; 220 3; 
226 1; 228 1; 235 1; 252 1; 254 999; 
255 77; 256 5; 
