Name: 25I-NBF HFBA derivative
InChIKey: XZVBNKNXUYLWSA-UHFFFAOYSA-N
Synon: 2C-I-NBF HFBA derivative
Formula: C21H18F8INO3
MW: 611
ExactMass: 611.020367
CASNO: 0
ID: 4102
Comment: ENFSI/DWG
Num Peaks: 220
38 1; 39 11; 41 2; 42 4; 43 2; 
45 1; 50 9; 51 20; 52 4; 53 17; 
54 1; 55 3; 56 6; 57 8; 59 6; 
62 5; 63 24; 64 16; 65 15; 66 3; 
67 3; 68 1; 69 32; 70 2; 73 3; 
74 3; 75 9; 76 14; 77 80; 78 23; 
79 27; 80 2; 81 4; 83 63; 84 4; 
87 1; 88 1; 89 40; 90 54; 91 67; 
92 30; 93 7; 94 2; 95 4; 96 4; 
97 12; 98 1; 100 5; 101 1; 102 7; 
103 12; 104 9; 105 59; 106 17; 107 33; 
108 21; 109 999; 110 77; 111 2; 115 1; 
116 2; 117 4; 118 11; 119 23; 120 35; 
121 21; 122 26; 123 10; 124 1; 125 14; 
126 2; 127 7; 128 7; 130 1; 131 3; 
132 7; 133 17; 134 16; 135 33; 136 11; 
137 4; 138 1; 139 1; 145 4; 146 2; 
147 5; 148 60; 149 21; 150 31; 151 13; 
152 2; 153 1; 157 1; 158 1; 159 1; 
160 1; 161 2; 162 6; 163 8; 164 33; 
165 7; 166 1; 169 20; 170 1; 172 1; 
175 1; 176 1; 177 1; 178 2; 179 2; 
180 2; 181 1; 183 3; 184 1; 185 1; 
190 1; 191 9; 192 1; 195 1; 196 5; 
197 4; 198 1; 199 2; 203 1; 204 2; 
205 3; 206 1; 207 3; 208 1; 209 1; 
210 1; 211 1; 212 1; 213 2; 214 4; 
215 1; 217 4; 218 1; 219 4; 220 1; 
221 1; 225 1; 226 8; 227 3; 228 1; 
229 1; 231 1; 232 25; 233 4; 234 11; 
235 2; 239 1; 240 1; 241 1; 242 1; 
243 1; 244 1; 245 1; 247 101; 248 10; 
249 6; 253 4; 254 1; 255 1; 256 2; 
257 1; 258 1; 259 4; 260 1; 261 14; 
262 3; 263 2; 270 1; 271 2; 272 2; 
273 1; 274 2; 275 39; 276 25; 277 294; 
278 29; 279 2; 281 2; 288 2; 290 694; 
291 95; 292 8; 306 1; 315 2; 318 1; 
320 4; 321 1; 327 1; 331 1; 332 1; 
333 3; 334 1; 341 2; 343 1; 344 1; 
346 1; 355 1; 360 1; 368 1; 374 1; 
375 5; 376 1; 383 2; 384 1; 388 1; 
405 1; 429 1; 465 6; 466 1; 483 1; 
485 6; 486 1; 611 89; 612 21; 613 3; 
