Name: 4-Chloroamphetamine HFBA derivative
Synon: 4-CA HFBA derivative
InChIKey: AYTGPPMAIDXLPW-UHFFFAOYSA-N
Formula: C13H11ClF7NO
MW: 365
ExactMass: 365.041739
CASNO: 0
ID: 4106
Comment: ENFSI/DWG
Num Peaks: 107
38 1; 39 12; 40 1; 41 8; 42 17; 
43 11; 44 9; 45 34; 46 1; 47 12; 
50 6; 51 10; 52 1; 58 3; 61 1; 
62 6; 63 27; 64 5; 65 10; 66 2; 
69 88; 70 10; 71 1; 73 8; 74 6; 
75 13; 76 4; 77 11; 78 4; 81 1; 
84 1; 85 1; 86 2; 87 3; 89 77; 
90 26; 91 38; 92 17; 93 4; 97 1; 
98 1; 99 25; 100 15; 101 14; 102 9; 
103 7; 104 1; 109 10; 111 2; 112 3; 
113 2; 114 3; 115 59; 116 25; 117 97; 
118 12; 119 19; 120 1; 121 4; 123 2; 
125 227; 126 26; 127 75; 128 9; 130 2; 
131 5; 132 1; 133 1; 136 2; 137 4; 
138 4; 139 2; 140 1; 142 10; 143 1; 
145 1; 146 5; 149 2; 150 2; 152 500; 
153 83; 154 165; 155 26; 156 2; 159 2; 
162 1; 166 6; 167 3; 169 141; 170 5; 
172 1; 192 41; 193 13; 194 2; 196 10; 
197 1; 212 1; 213 6; 214 1; 221 1; 
222 1; 240 999; 241 66; 242 4; 315 1; 
350 3; 352 1; 
