Name: N-Propylamphetamine
InChIKey: SNPGTHLGFHVIDA-UHFFFAOYSA-N
Formula: C12H19N
MW: 177
ExactMass: 177.15175
CASNO: 59877575
ID: 4108
Comment: AAFS / Probability Based Matching Data Base Entry
Num Peaks: 59
38 1; 39 13; 41 23; 42 14; 43 18; 
44 139; 45 3; 50 3; 51 9; 52 2; 
53 2; 54 1; 55 1; 56 21; 57 9; 
58 7; 62 2; 63 8; 64 2; 65 32; 
66 2; 68 2; 70 10; 74 3; 75 1; 
76 1; 77 19; 78 7; 79 3; 84 10; 
86 999; 87 58; 88 1; 89 9; 90 4; 
91 170; 92 17; 93 2; 102 3; 103 11; 
104 4; 105 2; 115 17; 116 4; 117 16; 
118 7; 119 18; 120 12; 121 1; 130 1; 
131 1; 132 2; 134 2; 146 1; 148 9; 
149 1; 162 10; 163 1; 176 4; 
