Name: 25T7-NBOMe
InChIKey: CPVMNHOHOSNFOP-UHFFFAOYSA-N
Synon: 2C-T-7-NBOMe
Synon: 2,5-Dimethoxy-N-[(2-methoxyphenyl)methyl]-4-(propylthio)-benzeneethanamine
Synon: 25T7-NB2OMe
Synon: 2C-T-7-NB2OMe
Formula: C21H29NO3S
MW: 375
ExactMass: 375.186815
CASNO: 1539266551
ID: 4112
Comment: Provided by www.caymanchem.com/app/template/landing%2CForensic.vm / Item #9001988  Lot #0459582
Num Peaks: 188
41 31; 42 11; 43 17; 44 1; 45 3; 
46 2; 47 2; 51 8; 52 3; 53 5; 
54 1; 55 1; 56 2; 57 2; 58 1; 
59 2; 62 1; 63 6; 64 6; 65 34; 
66 4; 67 3; 68 2; 69 4; 70 1; 
71 3; 73 6; 74 2; 76 3; 77 38; 
78 29; 79 16; 80 3; 81 2; 82 2; 
83 3; 84 1; 85 6; 86 1; 87 1; 
89 8; 90 9; 91 329; 92 33; 93 31; 
94 6; 95 4; 96 8; 97 8; 99 1; 
102 3; 103 2; 104 4; 105 6; 106 4; 
107 26; 108 9; 109 10; 110 12; 111 6; 
112 2; 115 2; 117 4; 118 10; 119 14; 
120 10; 121 999; 122 106; 123 12; 124 3; 
125 10; 126 2; 127 1; 128 3; 129 1; 
132 5; 133 5; 134 15; 135 11; 136 9; 
137 5; 138 18; 139 6; 140 7; 141 1; 
142 2; 143 1; 145 1; 147 6; 148 21; 
149 8; 150 314; 151 43; 152 9; 153 46; 
154 4; 155 4; 156 1; 157 1; 161 1; 
162 4; 163 1; 164 5; 165 4; 166 5; 
167 12; 168 4; 169 15; 170 1; 171 2; 
175 1; 176 1; 177 1; 178 2; 179 6; 
181 14; 182 5; 183 21; 184 3; 185 1; 
187 1; 188 1; 193 1; 195 3; 196 1; 
197 4; 198 1; 204 1; 207 15; 208 6; 
209 2; 211 4; 212 2; 219 1; 222 1; 
223 1; 224 2; 225 56; 226 312; 227 48; 
228 15; 229 2; 236 1; 237 1; 238 1; 
239 6; 241 1; 244 1; 247 1; 251 2; 
252 2; 253 1; 255 1; 257 1; 259 1; 
264 1; 266 1; 267 4; 268 2; 271 1; 
272 1; 281 6; 286 1; 296 1; 301 1; 
311 1; 313 1; 315 1; 317 1; 328 1; 
329 1; 330 1; 331 3; 332 1; 335 1; 
336 1; 337 1; 341 3; 342 3; 344 1; 
348 1; 352 1; 355 1; 357 1; 360 1; 
365 1; 374 2; 375 1; 
