Name: 5-Chloro-NNEI
Synon: 5-Chloro-MN-24
Synon: 1-(5-Chloropentyl)-N-(naphthalen-1-yl)-1H-indole-3-carboxamide
Synon: 5-Cl-NNEI
Synon: 5-Cl-MN-24
InChIKey: SAZREAASVMJYTK-UHFFFAOYSA-N
Formula: C24H23ClN2O
MW: 390
ExactMass: 390.14989
CASNO: 0
ID: 4113
Comment: Provided by www.caymanchem.com/app/template/landing%2CForensic.vm / Item #16003  Lot #0458294
Num Peaks: 225
41 78; 42 5; 43 14; 44 2; 47 1; 
48 1; 49 3; 50 4; 51 5; 52 2; 
53 3; 54 1; 55 8; 56 1; 58 1; 
59 2; 61 1; 62 5; 63 27; 64 4; 
65 10; 66 1; 67 7; 68 1; 69 52; 
70 3; 71 2; 72 2; 73 14; 74 4; 
75 12; 76 9; 77 16; 78 5; 79 2; 
83 1; 85 1; 86 1; 87 7; 88 11; 
89 51; 90 6; 91 5; 93 1; 96 1; 
97 1; 99 1; 100 1; 101 18; 102 45; 
103 13; 104 3; 107 1; 108 1; 111 1; 
113 10; 114 30; 115 281; 116 120; 117 12; 
118 2; 119 3; 124 1; 125 1; 126 4; 
127 18; 128 33; 129 76; 130 42; 131 5; 
132 1; 133 4; 134 2; 135 4; 136 2; 
137 1; 139 1; 140 18; 141 12; 142 61; 
143 87; 144 238; 145 27; 146 1; 147 2; 
148 1; 149 21; 150 8; 152 2; 153 4; 
154 11; 155 11; 156 16; 157 20; 158 7; 
162 1; 163 1; 164 3; 166 2; 167 3; 
168 4; 169 11; 170 22; 171 4; 172 2; 
174 1; 176 2; 177 2; 179 2; 180 2; 
181 2; 182 4; 183 3; 184 14; 185 5; 
186 5; 187 2; 189 1; 190 1; 191 3; 
192 3; 193 1; 194 1; 195 3; 196 2; 
197 2; 198 4; 199 1; 200 1; 201 1; 
202 1; 206 1; 207 12; 208 5; 209 4; 
210 3; 211 2; 212 90; 213 14; 214 33; 
215 6; 216 1; 219 1; 220 2; 221 2; 
222 2; 223 1; 226 1; 227 2; 228 2; 
229 1; 230 1; 235 1; 238 2; 240 2; 
241 2; 242 3; 243 2; 244 1; 246 12; 
248 999; 249 160; 250 326; 251 45; 252 4; 
253 9; 254 6; 255 6; 256 4; 257 2; 
265 1; 266 2; 267 4; 268 3; 269 2; 
270 1; 271 2; 279 1; 281 5; 282 2; 
283 2; 284 2; 285 8; 286 1; 287 1; 
293 1; 295 1; 296 1; 297 1; 298 1; 
299 3; 300 1; 307 1; 308 1; 309 1; 
311 1; 315 1; 320 1; 325 1; 326 1; 
327 2; 328 1; 329 1; 331 3; 333 1; 
341 5; 342 1; 352 1; 354 4; 355 2; 
356 4; 357 1; 361 1; 373 1; 374 3; 
377 1; 378 1; 381 1; 387 1; 388 1; 
390 75; 391 17; 392 20; 393 5; 394 1; 
