Name: .alpha.-Pyrrolidinohexanophenone
InChIKey: KYIJLDDXQWBNGX-UHFFFAOYSA-N
Synon: .alpha.-PHP
Synon: 2-(1-Pyrrolidinyl)-hexanophenone
Synon: PV7
Formula: C16H23NO
MW: 245
ExactMass: 245.177964
CASNO: 13415593
ID: 4114
Comment: Provided by www.caymanchem.com/app/template/landing%2CForensic.vm / Item #9001934  Lot #0457893 / SWGDRUG Monograph available
Num Peaks: 90
40 5; 41 50; 42 33; 43 14; 44 3; 
50 5; 51 25; 52 3; 53 5; 54 15; 
55 28; 56 15; 57 2; 63 1; 65 3; 
66 1; 67 6; 68 18; 69 49; 70 23; 
71 3; 72 1; 74 1; 75 2; 76 6; 
77 162; 78 17; 79 3; 80 7; 81 5; 
82 7; 83 3; 84 45; 85 2; 89 2; 
90 1; 91 11; 92 1; 93 1; 94 6; 
95 2; 96 45; 97 27; 98 14; 99 1; 
102 1; 103 2; 104 3; 105 91; 106 8; 
107 1; 108 3; 109 1; 110 28; 111 2; 
112 1; 115 6; 116 1; 117 3; 118 1; 
120 12; 121 1; 124 1; 127 1; 128 1; 
129 1; 130 1; 131 2; 132 1; 133 2; 
136 8; 137 1; 138 19; 139 6; 140 999; 
141 99; 142 4; 143 1; 145 1; 146 1; 
158 1; 160 2; 172 1; 174 1; 176 1; 
184 1; 186 3; 188 7; 189 1; 214 1; 
