Name: 5-Fluoro-PB-22 7-hydroxyquinoline isomer
Synon: Quinolin-7-yl-1-(5-fluoropentyl)-1H-indole-3-carboxylate
Synon: 5F-PB-22 7-hydroxyquinoline isomer
InChIKey: JZXVQWGAJSFTPF-UHFFFAOYSA-N
Formula: C23H21FN2O2
MW: 376
ExactMass: 376.158707
CASNO: 0
ID: 4115
Comment: Provided by www.caymanchem.com/app/template/landing%2CForensic.vm / Item #14515  Lot #0449709
Num Peaks: 97
41 23; 42 1; 43 7; 47 6; 50 2; 
51 4; 52 1; 53 1; 55 3; 59 3; 
61 2; 62 5; 63 17; 64 3; 65 3; 
66 1; 67 1; 69 6; 73 4; 74 2; 
75 7; 76 6; 77 6; 78 3; 79 1; 
86 1; 87 3; 88 12; 89 66; 90 14; 
91 1; 101 11; 102 24; 103 8; 104 1; 
114 12; 115 32; 116 163; 117 21; 118 2; 
119 1; 128 19; 129 37; 130 19; 131 2; 
135 2; 140 1; 141 1; 143 31; 144 190; 
145 29; 146 3; 148 1; 149 1; 150 1; 
151 1; 154 3; 155 2; 156 6; 157 9; 
158 6; 159 1; 165 1; 167 2; 168 3; 
170 9; 171 1; 174 1; 176 3; 182 1; 
183 1; 184 3; 185 1; 188 1; 195 1; 
198 1; 202 1; 203 1; 204 1; 207 5; 
208 1; 210 1; 212 32; 213 5; 214 3; 
230 11; 232 999; 233 153; 234 12; 253 2; 
281 1; 287 1; 301 2; 325 1; 327 1; 
376 8; 377 2; 
