Name: 5-Fluoro-PB-22 6-hydroxyquinoline isomer
Synon: Quinolin-6-yl-1-(5-fluoropentyl)-1H-indole-3-carboxylate
Synon: 5F-PB-22 6-hydroxyquinoline isomer
InChIKey: OGDLFTUKGSPKPV-UHFFFAOYSA-N
Formula: C23H21FN2O2
MW: 376
ExactMass: 376.158707
CASNO: 0
ID: 4116
Comment: Provided by www.caymanchem.com/app/template/landing%2CForensic.vm / Item #14514  Lot #0449634
Num Peaks: 81
41 22; 42 1; 43 8; 47 5; 50 1; 
51 3; 52 1; 53 2; 55 2; 59 2; 
61 3; 62 5; 63 17; 64 4; 65 2; 
67 1; 69 6; 73 1; 74 2; 75 6; 
76 5; 77 5; 78 3; 86 1; 87 3; 
88 10; 89 67; 90 13; 91 1; 101 10; 
102 22; 103 7; 104 1; 114 10; 115 30; 
116 156; 117 17; 118 2; 128 20; 129 37; 
130 17; 131 1; 135 1; 140 1; 141 1; 
144 188; 145 28; 146 2; 147 1; 154 3; 
155 2; 156 5; 157 9; 158 6; 167 2; 
168 2; 169 1; 170 9; 171 1; 176 2; 
182 1; 183 1; 184 3; 185 1; 198 2; 
203 1; 204 1; 207 4; 210 1; 212 30; 
213 4; 214 2; 230 11; 232 999; 233 147; 
234 12; 253 1; 281 1; 301 2; 376 4; 
377 1; 
