Name: 5-Fluoro-PB-22 4-hydroxyquinoline isomer
Synon: Quinolin-4-yl-1-(5-fluoropentyl)-1H-indole-3-carboxylate
Synon: 5F-PB-22 4-hydroxyquinoline isomer
InChIKey: DGYDJIOQSQDDAR-UHFFFAOYSA-N
Formula: C23H21FN2O2
MW: 376
ExactMass: 376.158707
CASNO: 0
ID: 4118
Comment: Provided by www.caymanchem.com/app/template/landing%2CForensic.vm / Item #14512  Lot #0449553
Num Peaks: 91
41 22; 42 1; 43 8; 47 6; 50 3; 
51 3; 52 1; 53 1; 54 1; 55 2; 
59 3; 61 2; 62 5; 63 15; 64 4; 
65 3; 67 2; 69 6; 73 3; 74 4; 
75 8; 76 8; 77 9; 78 3; 87 3; 
88 10; 89 69; 90 15; 91 2; 92 1; 
100 1; 101 12; 102 24; 103 9; 104 2; 
105 1; 114 10; 115 30; 116 144; 117 24; 
118 2; 127 2; 128 21; 129 37; 130 18; 
131 1; 135 1; 140 1; 143 30; 144 176; 
145 32; 146 2; 148 1; 150 1; 151 1; 
154 3; 155 2; 156 6; 157 9; 158 10; 
159 1; 167 2; 168 2; 170 9; 171 2; 
174 1; 176 2; 182 1; 184 4; 185 1; 
188 1; 193 1; 198 1; 203 1; 204 1; 
205 1; 207 3; 208 1; 212 18; 213 3; 
214 2; 230 10; 232 999; 233 152; 234 12; 
235 1; 253 2; 259 1; 287 1; 301 1; 
376 2; 
