Name: 5-Fluoro-PB-22 3-hydroxyquinoline isomer
Synon: Quinolin-3-yl-1-(5-fluoropentyl)-1H-indole-3-carboxylate
Synon: 5F-PB-22 3-hydroxyquinoline isomer
InChIKey: XUWUBKLJGGHABS-UHFFFAOYSA-N
Formula: C23H21FN2O2
MW: 376
ExactMass: 376.158707
CASNO: 0
ID: 4119
Comment: Provided by www.caymanchem.com/app/template/landing%2CForensic.vm / Item #14511  Lot #0449710
Num Peaks: 89
41 22; 42 1; 43 8; 47 5; 50 2; 
51 3; 52 1; 53 1; 55 2; 59 2; 
61 3; 62 7; 63 19; 64 3; 65 2; 
67 1; 69 7; 73 2; 74 3; 75 6; 
76 5; 77 5; 78 2; 86 1; 87 4; 
88 11; 89 79; 90 12; 91 1; 101 10; 
102 24; 103 8; 104 1; 114 9; 115 29; 
116 171; 117 19; 118 1; 128 20; 129 37; 
130 17; 131 1; 133 1; 135 2; 140 1; 
141 1; 143 28; 144 175; 145 25; 146 2; 
148 1; 154 4; 155 2; 156 6; 157 10; 
158 5; 159 1; 167 1; 168 1; 170 9; 
171 1; 176 2; 182 1; 183 1; 184 3; 
185 1; 196 1; 197 1; 198 1; 204 1; 
207 3; 208 1; 209 1; 210 1; 212 49; 
213 8; 214 3; 215 1; 230 12; 232 999; 
233 149; 234 13; 253 2; 254 1; 281 1; 
301 2; 341 1; 376 3; 377 1; 
