Name: 5-Fluoro-PB-22 7-hydroxyisoquinoline isomer
Synon: Isoquinolin-7-yl-1-(5-fluoropentyl)-1H-indole-3-carboxylate
Synon: 5F-PB-22 7-hydroxyisoquinoline isomer
InChIKey: NZHJAVLYBQIOHT-UHFFFAOYSA-N
Formula: C23H21FN2O2
MW: 376
ExactMass: 376.158707
CASNO: 0
ID: 4121
Comment: Provided by www.caymanchem.com/app/template/landing%2CForensic.vm / Item #14552  Lot #0449705
Num Peaks: 85
41 21; 42 1; 43 8; 47 5; 50 1; 
51 3; 52 1; 53 1; 55 1; 59 3; 
61 3; 62 7; 63 18; 64 2; 65 2; 
67 1; 69 6; 73 3; 74 3; 75 7; 
76 5; 77 4; 78 2; 86 1; 87 4; 
88 10; 89 62; 90 9; 100 1; 101 10; 
102 21; 103 7; 114 10; 115 33; 116 153; 
117 18; 118 2; 119 1; 127 2; 128 18; 
129 36; 130 15; 131 1; 135 2; 140 1; 
141 1; 143 31; 144 185; 145 25; 146 2; 
147 1; 148 1; 151 1; 154 3; 155 1; 
156 5; 157 10; 158 5; 159 1; 167 1; 
168 1; 170 8; 171 2; 176 2; 177 1; 
182 1; 184 3; 198 1; 204 1; 207 3; 
208 1; 209 1; 210 1; 212 19; 213 3; 
214 2; 230 12; 232 999; 233 154; 234 12; 
253 1; 281 1; 301 2; 376 3; 377 1; 
