Name: 5-Fluoro-PB-22 6-hydroxyisoquinoline isomer
Synon: Isoquinolin-6-yl-1-(5-fluoropentyl)-1H-indole-3-carboxylate
Synon: 5F-PB-22 6-hydroxyisoquinoline isomer
InChIKey: MNQAKSFPQIRIJA-UHFFFAOYSA-N
Formula: C23H21FN2O2
MW: 376
ExactMass: 376.158707
CASNO: 0
ID: 4122
Comment: Provided by www.caymanchem.com/app/template/landing%2CForensic.vm / Item #14551  Lot #0449706
Num Peaks: 88
41 21; 42 1; 43 9; 44 1; 47 6; 
50 2; 51 3; 52 1; 53 2; 55 1; 
59 3; 61 3; 62 6; 63 18; 64 2; 
65 3; 67 1; 69 7; 73 2; 74 3; 
75 7; 76 5; 77 6; 78 2; 86 1; 
87 3; 88 10; 89 56; 90 9; 91 2; 
96 1; 101 11; 102 21; 103 8; 114 11; 
115 35; 116 161; 117 19; 118 2; 128 19; 
129 40; 130 16; 131 1; 135 2; 140 1; 
141 1; 143 31; 144 180; 145 27; 146 3; 
148 1; 151 2; 154 3; 155 1; 156 5; 
157 10; 158 5; 159 1; 167 1; 168 2; 
170 9; 171 2; 176 2; 177 1; 182 1; 
183 1; 184 3; 185 1; 188 2; 198 1; 
202 1; 204 1; 207 4; 210 1; 212 18; 
213 3; 214 1; 230 10; 232 999; 233 146; 
234 13; 253 1; 281 2; 282 1; 301 2; 
341 1; 376 5; 377 1; 
