Name: PTI-1
InChIKey: PCNLLVFKBKMRDB-UHFFFAOYSA-N
Synon: N,N-diethyl-2-(1-pentyl-1H-indol-3-yl)-4-thiazolemethanamine
Formula: C21H29N3S
MW: 355
ExactMass: 355.20822
CASNO: 1400742462
ID: 4127
Comment: Provided by www.caymanchem.com/app/template/landing%2CForensic.vm / Item #9001948  Lot #0458842
Num Peaks: 179
41 24; 42 16; 43 41; 44 9; 45 19; 
47 1; 51 1; 53 2; 54 3; 55 7; 
56 15; 57 2; 58 20; 59 2; 63 1; 
65 1; 67 1; 68 1; 69 5; 70 9; 
71 78; 72 182; 73 15; 74 2; 75 1; 
76 2; 77 6; 78 1; 80 4; 81 1; 
82 2; 84 1; 85 3; 86 34; 87 2; 
88 3; 89 5; 90 1; 91 1; 96 2; 
97 1; 98 1; 99 1; 100 1; 101 11; 
102 5; 103 2; 104 1; 106 1; 107 1; 
108 1; 109 1; 110 3; 111 1; 112 2; 
113 35; 114 18; 115 17; 116 17; 117 6; 
118 1; 120 2; 121 1; 125 2; 126 2; 
127 6; 128 27; 129 12; 130 21; 131 3; 
132 1; 133 2; 135 6; 139 1; 140 5; 
142 118; 143 79; 144 9; 145 2; 146 2; 
147 1; 149 7; 152 1; 153 4; 154 10; 
155 193; 156 63; 157 13; 158 2; 159 2; 
160 7; 161 1; 162 2; 163 2; 166 2; 
167 5; 168 12; 169 16; 170 40; 172 4; 
173 4; 174 1; 178 11; 179 10; 180 5; 
181 7; 182 4; 183 8; 184 7; 185 7; 
186 13; 187 5; 188 1; 192 1; 193 6; 
194 5; 195 4; 196 2; 197 8; 198 5; 
199 2; 200 4; 201 1; 205 1; 206 1; 
207 8; 208 2; 209 1; 210 2; 211 15; 
212 61; 213 112; 214 41; 215 7; 216 1; 
223 1; 224 1; 225 6; 226 24; 227 39; 
228 11; 229 3; 230 5; 231 1; 237 1; 
238 1; 239 7; 240 7; 241 6; 242 1; 
243 1; 249 1; 250 1; 251 1; 252 1; 
253 4; 254 10; 255 4; 256 2; 267 1; 
268 2; 269 4; 281 8; 283 158; 284 999; 
285 263; 286 80; 287 12; 288 1; 297 3; 
298 4; 299 1; 326 5; 327 1; 340 2; 
341 1; 355 34; 356 8; 357 2; 
