Name: PX 2
Synon: FU-PX
Synon: (R)-N-(1-amino-1-oxo-3-phenylpropan-2-yl)-1-(5-fluoropentyl)-1H-indazole-3-carboxamide
Synon: 5-Fluoro-APP-PINACA
Synon: 5F-APP-PINACA
Synon: N-(2-amino-1-benzyl-2-oxo-ethyl)-1-(5-fluoropentyl)indazole-3-carboxamide
InChIKey: OJTAHWMZBJRSIR-GOSISDBHSA-N
Formula: C22H25FN4O2
MW: 396
ExactMass: 396.196154
CASNO: 0
ID: 4128
Comment: Provided by www.caymanchem.com/app/template/landing%2CForensic.vm / Item #16434  Lot #0461309 / SWGDRUG Monograph available
Num Peaks: 268
41 54; 42 4; 43 25; 44 60; 45 8; 
46 1; 47 11; 48 2; 50 7; 51 19; 
52 2; 53 2; 55 4; 56 1; 59 6; 
60 2; 61 5; 62 10; 63 21; 64 4; 
65 37; 66 3; 67 7; 69 55; 70 2; 
71 1; 72 1; 73 16; 74 10; 75 13; 
76 21; 77 58; 78 26; 79 11; 81 1; 
82 2; 86 2; 87 7; 88 34; 89 53; 
90 95; 91 274; 92 49; 93 3; 95 1; 
96 10; 97 4; 98 2; 99 1; 100 1; 
101 7; 102 45; 103 133; 104 50; 105 22; 
106 6; 107 1; 108 1; 109 1; 110 2; 
111 1; 112 1; 113 2; 115 5; 116 10; 
117 54; 118 38; 119 33; 120 34; 121 5; 
123 2; 125 1; 126 1; 127 1; 128 15; 
129 42; 130 33; 131 111; 132 19; 134 4; 
135 7; 136 2; 138 5; 139 2; 140 1; 
141 1; 142 3; 143 9; 144 24; 145 445; 
146 79; 147 14; 148 3; 149 6; 150 2; 
151 1; 152 2; 153 2; 154 3; 155 4; 
156 9; 157 7; 158 15; 159 3; 160 3; 
161 14; 162 3; 163 2; 164 4; 168 1; 
169 4; 170 2; 171 13; 172 3; 173 2; 
174 59; 175 46; 176 7; 177 57; 178 4; 
179 1; 180 2; 181 1; 182 2; 183 2; 
184 2; 185 18; 186 5; 187 3; 188 1; 
189 1; 190 1; 191 4; 193 5; 194 3; 
195 5; 196 2; 197 1; 198 2; 199 5; 
201 1; 203 4; 204 3; 205 1; 207 12; 
208 1; 211 3; 213 70; 214 15; 215 3; 
217 1; 218 3; 219 1; 220 1; 221 2; 
223 3; 224 1; 225 2; 226 1; 227 1; 
228 1; 229 1; 230 4; 231 14; 233 999; 
234 153; 235 15; 236 1; 237 2; 240 1; 
242 2; 245 1; 246 2; 247 1; 249 165; 
250 24; 251 4; 252 2; 253 15; 254 6; 
255 3; 256 1; 258 1; 259 1; 260 1; 
262 5; 263 2; 264 2; 265 3; 266 3; 
267 2; 268 3; 269 2; 270 2; 272 1; 
274 2; 275 2; 277 2; 278 2; 279 1; 
281 18; 282 2; 283 2; 284 2; 286 1; 
287 1; 291 1; 294 1; 295 2; 296 2; 
297 1; 300 2; 303 1; 304 2; 305 25; 
306 7; 307 2; 308 1; 309 2; 310 1; 
314 1; 315 1; 316 1; 317 2; 318 1; 
321 1; 327 4; 328 3; 329 3; 331 6; 
332 2; 334 1; 336 1; 340 3; 341 2; 
342 1; 343 4; 344 1; 345 1; 346 3; 
347 4; 348 1; 350 3; 352 310; 353 77; 
354 9; 355 3; 356 2; 360 1; 363 2; 
368 1; 370 1; 372 1; 373 1; 375 1; 
377 1; 378 1; 379 2; 383 1; 385 1; 
387 1; 388 1; 389 1; 390 1; 393 1; 
395 3; 396 8; 397 1; 
