Name: 3-Iodoamphetamine
Synon: 3-IA
Synon: m-IA
Synon: meta-Iodoamphetamine
InChIKey: SSMQECSVMNPOLS-UHFFFAOYSA-N
Formula: C9H12IN
MW: 261
ExactMass: 261.001448
CASNO: 20110569
ID: 4131
Comment: Provided by www.caymanchem.com/app/template/landing%2CForensic.vm / Item #9001852  Lot #0455604
Num Peaks: 71
40 9; 41 13; 42 60; 44 999; 45 25; 
47 2; 50 23; 51 21; 52 6; 53 2; 
54 2; 56 3; 57 2; 59 11; 60 6; 
61 5; 62 29; 63 72; 64 32; 65 31; 
66 4; 67 1; 68 1; 73 2; 74 15; 
75 13; 76 15; 77 11; 78 8; 79 2; 
80 3; 85 4; 86 8; 87 7; 89 152; 
90 136; 91 76; 92 16; 93 2; 98 1; 
101 1; 102 6; 103 3; 104 5; 106 1; 
108 1; 113 1; 115 20; 116 9; 117 17; 
118 19; 119 15; 120 2; 123 7; 127 46; 
128 22; 130 3; 131 1; 132 4; 133 4; 
152 1; 154 1; 165 1; 217 38; 218 8; 
244 1; 246 7; 247 1; 259 1; 260 4; 
261 1; 
