Name: 2-Iodoamphetamine
Synon: 2-IA
Synon: o-IA
Synon: ortho-Iodoamphetamine
InChIKey: WSTDXRKNIDTRHW-UHFFFAOYSA-N
Formula: C9H12IN
MW: 261
ExactMass: 261.001448
CASNO: 22080100
ID: 4132
Comment: Provided by www.caymanchem.com/app/template/landing%2CForensic.vm / Item #9001851 Lot #0455603
Num Peaks: 74
41 16; 42 60; 43 21; 44 999; 45 22; 
46 1; 49 2; 50 17; 51 21; 52 6; 
53 3; 54 2; 56 2; 57 2; 59 11; 
60 4; 61 4; 62 20; 63 63; 64 23; 
65 39; 66 4; 67 1; 68 1; 73 1; 
74 10; 75 8; 76 9; 77 18; 78 8; 
79 3; 80 2; 85 3; 86 7; 87 4; 
88 4; 89 124; 90 115; 91 83; 92 19; 
93 5; 94 1; 99 1; 102 3; 103 3; 
104 3; 105 1; 106 4; 114 1; 115 27; 
116 9; 117 19; 118 21; 119 10; 120 3; 
123 2; 126 1; 127 33; 128 25; 130 5; 
131 1; 132 9; 133 4; 134 2; 155 1; 
165 1; 175 1; 217 32; 218 8; 244 2; 
246 5; 258 1; 260 2; 261 1; 
