Name: 4-Methoxy-PV9
Synon: 1-(4-Methoxyphenyl)-2-(pyrrolidin-1-yl)octan-1-one
Synon: 4-MeO-PV9
Synon: para-Methoxy-PV9
InChIKey: TVTBLEFOUUDRBK-UHFFFAOYSA-N
Formula: C19H29NO2
MW: 303
ExactMass: 303.21983
CASNO: 0
ID: 4134
Comment: Provided by www.caymanchem.com/app/template/landing%2CForensic.vm / Item #15064  Lot #0457195
Num Peaks: 81
40 2; 41 24; 42 12; 43 13; 44 2; 
50 1; 51 1; 53 3; 54 9; 55 22; 
56 10; 57 2; 63 5; 64 10; 65 3; 
66 1; 67 3; 68 11; 69 25; 70 13; 
71 1; 72 1; 73 1; 75 1; 76 5; 
77 50; 78 6; 79 3; 80 3; 81 3; 
82 5; 84 33; 85 2; 92 36; 93 4; 
94 4; 96 36; 97 22; 98 11; 103 1; 
104 2; 105 1; 107 23; 108 7; 110 37; 
111 3; 115 1; 117 1; 120 1; 121 6; 
122 1; 124 3; 128 1; 131 1; 132 1; 
133 2; 135 78; 136 8; 137 1; 138 1; 
140 1; 145 1; 146 1; 147 2; 150 7; 
151 1; 160 1; 161 1; 163 3; 164 3; 
166 13; 168 999; 169 123; 170 7; 186 1; 
190 3; 207 1; 216 1; 218 6; 219 1; 
283 1; 
