Name: 7-APDB
Synon: 7-(2-Aminopropyl)-2,3-dihydrobenzofuran
InChIKey: FVHLRYWNSYCTAK-UHFFFAOYSA-N
Formula: C11H15NO
MW: 177
ExactMass: 177.115364
CASNO: 0
ID: 4136
Comment: Provided by www.caymanchem.com/app/template/landing%2CForensic.vm / Item #9001892  Lot #0456130
Num Peaks: 93
40 10; 41 15; 42 46; 43 19; 44 999; 
45 26; 46 1; 49 1; 50 14; 51 34; 
52 14; 53 17; 54 3; 55 2; 56 3; 
57 3; 58 2; 60 1; 61 1; 62 8; 
63 28; 64 7; 65 36; 66 13; 67 5; 
68 2; 69 1; 70 1; 72 2; 73 1; 
74 8; 75 8; 76 13; 77 132; 78 58; 
79 73; 80 8; 81 5; 82 1; 86 2; 
87 3; 88 1; 89 19; 90 8; 91 76; 
92 8; 93 1; 94 2; 98 1; 101 3; 
102 22; 103 67; 104 28; 105 60; 106 15; 
107 3; 108 1; 114 1; 115 35; 116 9; 
117 16; 118 8; 119 29; 120 4; 127 4; 
128 7; 129 3; 130 5; 131 37; 132 16; 
133 121; 134 407; 135 38; 136 2; 141 1; 
142 1; 143 2; 144 4; 145 6; 146 5; 
147 1; 157 1; 158 1; 159 3; 160 7; 
161 3; 162 15; 163 1; 174 1; 175 1; 
176 3; 177 14; 178 2; 
