Name: MMB2201
Synon: Methyl-(1-(5-fluoropentyl)-1H-indole-3-carbonyl)-L-valinate
Synon: I-AMB
InChIKey: JFXASAFVUQVGEW-SFHVURJKSA-N
Formula: C20H27FN2O3
MW: 362
ExactMass: 362.200571
CASNO: 0
ID: 4141
Comment: Provided by www.caymanchem.com/app/template/landing%2CForensic.vm / Item #15971  Lot #0457890 / SWGDRUG Monograph available
Num Peaks: 156
41 52; 42 8; 43 53; 44 4; 45 1; 
47 7; 51 2; 52 1; 53 4; 55 23; 
56 5; 57 1; 59 24; 60 2; 61 3; 
62 2; 63 2; 64 1; 65 1; 67 3; 
68 2; 69 14; 70 4; 71 1; 72 2; 
73 5; 74 3; 75 4; 76 5; 77 9; 
78 3; 82 1; 83 4; 84 1; 85 1; 
87 3; 88 9; 89 25; 90 4; 91 2; 
98 2; 99 1; 101 11; 102 30; 103 14; 
104 2; 106 1; 115 44; 116 75; 117 12; 
118 4; 126 1; 127 4; 128 33; 129 64; 
130 58; 131 9; 132 3; 135 1; 140 2; 
141 3; 143 63; 144 221; 145 25; 146 2; 
147 1; 148 2; 149 1; 152 3; 154 6; 
155 12; 156 15; 157 22; 158 10; 159 2; 
160 2; 166 1; 167 3; 168 4; 170 17; 
171 6; 173 70; 174 26; 175 3; 176 2; 
180 1; 181 1; 182 2; 183 3; 184 12; 
185 4; 186 3; 187 2; 188 1; 195 1; 
196 1; 197 1; 198 5; 199 2; 200 1; 
201 1; 202 1; 204 12; 205 8; 206 5; 
207 2; 208 3; 209 1; 210 2; 212 32; 
213 5; 214 4; 215 2; 227 5; 228 5; 
230 17; 232 999; 233 158; 234 12; 244 1; 
245 5; 246 4; 248 426; 249 64; 250 6; 
253 2; 254 1; 259 2; 260 9; 261 2; 
271 1; 273 1; 281 1; 287 22; 288 9; 
289 1; 301 1; 303 15; 304 3; 315 10; 
316 2; 320 7; 321 1; 327 1; 329 1; 
330 7; 331 6; 332 1; 333 1; 342 2; 
343 1; 344 3; 345 3; 346 1; 362 72; 
363 15; 
