Name: O-6-Monoacetylmorphine
Synon: 6-Monoacetylmorphine
Synon: 6-MAM
InChIKey: JJGYGPZNTOPXGV-UHFFFAOYSA-N
Formula: C19H21NO4
MW: 327
ExactMass: 327.147058
CASNO: 2784738
ID: 4143
Comment: DEA SWL
Num Peaks: 233
40 10; 41 47; 42 569; 43 766; 44 307; 
45 16; 50 14; 51 59; 52 25; 53 72; 
54 19; 55 100; 56 44; 57 72; 58 120; 
59 202; 60 29; 61 12; 62 9; 63 49; 
64 20; 65 79; 66 21; 67 37; 68 30; 
69 16; 70 230; 71 21; 72 13; 73 3; 
74 10; 75 26; 76 36; 77 154; 78 59; 
79 48; 80 36; 81 339; 82 102; 83 40; 
84 21; 85 5; 86 10; 87 10; 88 16; 
89 65; 90 21; 91 153; 92 31; 93 26; 
94 296; 95 47; 96 82; 97 11; 98 15; 
99 10; 100 4; 101 40; 102 59; 103 89; 
104 54; 105 113; 106 36; 107 69; 108 48; 
109 74; 110 41; 111 1; 112 43; 113 21; 
114 26; 115 359; 116 82; 117 74; 118 50; 
119 29; 120 44; 121 27; 122 30; 123 31; 
124 320; 125 36; 126 43; 127 173; 128 207; 
129 86; 130 43; 131 148; 132 74; 133 50; 
134 115; 135 48; 136 26; 137 13; 138 16; 
139 108; 140 39; 141 142; 142 38; 143 39; 
144 162; 145 74; 146 532; 147 125; 148 54; 
149 17; 150 25; 151 81; 152 293; 153 187; 
154 67; 155 67; 156 29; 157 66; 158 29; 
159 31; 160 66; 161 108; 162 327; 163 96; 
164 128; 165 221; 166 97; 167 69; 168 69; 
169 76; 170 42; 171 106; 172 52; 173 90; 
174 208; 175 97; 176 98; 177 39; 178 69; 
179 67; 180 39; 181 174; 182 71; 183 41; 
184 85; 185 57; 186 41; 187 28; 188 18; 
189 21; 190 20; 191 23; 192 12; 193 38; 
194 34; 195 40; 196 40; 197 130; 198 72; 
199 45; 200 84; 201 25; 202 46; 203 30; 
204 187; 205 40; 206 19; 207 38; 208 34; 
209 68; 210 127; 211 170; 212 40; 213 25; 
214 78; 215 399; 216 103; 217 15; 218 7; 
219 9; 220 10; 221 16; 222 18; 223 30; 
224 44; 225 36; 226 88; 227 40; 228 52; 
229 14; 230 3; 232 1; 233 1; 234 10; 
235 12; 236 14; 237 17; 238 45; 239 33; 
240 34; 241 13; 242 20; 243 3; 248 5; 
249 3; 250 21; 251 11; 252 41; 253 19; 
254 19; 255 5; 256 17; 257 12; 258 2; 
264 3; 266 198; 267 154; 268 999; 269 189; 
270 40; 271 5; 281 1; 282 4; 283 1; 
284 102; 285 32; 286 4; 298 2; 299 5; 
310 1; 312 4; 325 4; 326 78; 327 954; 
328 197; 329 29; 330 4; 
