Name: N-Ethylpentylone
InChIKey: VERDHJIMZYXGIW-UHFFFAOYSA-N
Synon: 1-(1,3-benzodioxol-5-yl)-2-(ethylamino)-1-pentanone
Synon: BK-Ethyl-K
Synon: Ephylone
Formula: C14H19NO3
MW: 249
ExactMass: 249.136494
CASNO: 17763029
ID: 4146
Comment: Provided by www.caymanchem.com/app/template/landing%2CForensic.vm / Item #16037  Lot #0459051 / SWGDRUG Monograph available
Num Peaks: 88
40 5; 41 17; 42 17; 43 15; 44 15; 
45 1; 46 1; 50 2; 51 4; 52 1; 
53 7; 54 4; 55 17; 56 50; 57 4; 
58 83; 59 3; 61 2; 62 13; 63 45; 
64 7; 65 80; 66 5; 67 1; 68 4; 
69 2; 70 28; 71 19; 72 11; 73 1; 
74 2; 75 2; 76 2; 77 5; 78 1; 
79 3; 80 1; 82 1; 84 13; 85 1; 
88 1; 89 1; 90 1; 91 23; 92 4; 
93 3; 94 1; 95 1; 96 1; 98 26; 
99 5; 100 999; 101 70; 102 3; 103 3; 
104 1; 105 2; 115 1; 117 1; 119 5; 
120 4; 121 62; 122 7; 123 1; 129 1; 
131 1; 135 7; 136 1; 145 1; 147 2; 
148 3; 149 83; 150 8; 151 1; 160 1; 
161 1; 162 1; 164 5; 165 1; 174 1; 
175 1; 176 5; 177 2; 178 1; 190 1; 
202 1; 206 6; 207 1; 
