Name: 3-CAF
Synon: Naphthalen-2-yl-1-(2-fluorophenyl)-1H-indazole-3-carboxylate
InChIKey: VBZWFDNXUJTAGG-UHFFFAOYSA-N
Formula: C24H15FN2O2
MW: 382
ExactMass: 382.111755
CASNO: 0
ID: 4150
Comment: Provided by www.caymanchem.com/app/template/landing%2CForensic.vm / Item #15962  Lot #0458521
Num Peaks: 117
44 1; 50 4; 51 7; 52 1; 57 12; 
61 1; 62 7; 63 22; 64 7; 65 11; 
66 1; 68 1; 69 3; 70 1; 73 3; 
74 5; 75 37; 76 10; 77 7; 78 1; 
81 3; 82 4; 83 50; 84 3; 86 2; 
87 4; 88 10; 89 25; 90 17; 91 1; 
92 1; 94 3; 95 17; 96 2; 99 1; 
100 1; 101 4; 102 9; 103 1; 105 1; 
106 1; 107 2; 108 2; 113 10; 114 12; 
115 214; 116 23; 117 1; 119 1; 120 1; 
121 4; 126 5; 127 12; 128 10; 129 1; 
131 1; 132 1; 133 3; 134 1; 135 2; 
137 1; 138 2; 139 1; 140 4; 143 14; 
144 11; 145 1; 146 1; 147 1; 153 1; 
155 1; 156 1; 157 16; 158 12; 159 2; 
162 1; 163 6; 164 25; 165 14; 166 2; 
181 1; 182 9; 183 8; 184 60; 185 15; 
186 1; 189 4; 190 6; 191 55; 192 13; 
193 2; 196 1; 197 1; 207 3; 208 2; 
209 10; 210 146; 211 40; 212 9; 213 1; 
234 1; 236 1; 237 1; 239 999; 240 155; 
241 15; 242 1; 253 2; 281 2; 282 1; 
327 1; 337 1; 338 1; 341 1; 382 62; 
383 16; 384 2; 
