Name: Clephedrone
Synon: 4-CMC
Synon: 4-Chloromethcathinone
Synon: 1-(4-chlorophenyl)-2-(methylamino)-1-propanone
InChIKey: UEJBEYOXRNGPEI-UHFFFAOYSA-N
Formula: C10H12ClNO
MW: 197
ExactMass: 197.060741
CASNO: 0
ID: 4151
Comment: Provided by www.caymanchem.com/app/template/landing%2CForensic.vm / Item #16436  Lot #0461224 / SWGDRUG Monograph available
Num Peaks: 73
41 14; 42 54; 43 31; 44 3; 49 2; 
50 34; 51 16; 52 2; 53 2; 54 5; 
55 7; 56 88; 57 24; 58 999; 59 39; 
60 1; 61 5; 62 3; 63 7; 65 1; 
70 1; 73 8; 74 36; 75 126; 76 29; 
77 18; 78 2; 84 4; 85 15; 86 3; 
87 5; 89 4; 90 1; 91 1; 98 1; 
99 1; 101 2; 102 3; 103 6; 104 1; 
105 1; 110 2; 111 122; 112 13; 113 41; 
114 4; 115 5; 116 1; 117 2; 125 6; 
127 2; 131 2; 132 1; 133 2; 137 1; 
139 62; 140 5; 141 20; 142 2; 146 1; 
147 7; 151 1; 152 1; 154 3; 161 1; 
166 2; 167 2; 168 3; 169 1; 170 1; 
181 2; 182 3; 184 1; 
