Name: Asenapine
Synon: Saphris
Synon: Sycrest
InChIKey: VSWBSWWIRNCQIJ-UHFFFAOYSA-N
Formula: C17H16ClNO
MW: 285
ExactMass: 285.092041
CASNO: 65576456
ID: 4154
Comment: Provided by www.caymanchem.com/app/template/landing%2CForensic.vm / Item #9000496  Lot #0415279
Num Peaks: 221
40 9; 41 39; 42 801; 43 60; 44 32; 
45 1; 49 4; 50 42; 51 89; 52 20; 
53 13; 54 6; 55 9; 57 999; 58 126; 
59 2; 60 1; 61 8; 62 40; 63 134; 
64 25; 65 46; 66 8; 67 6; 68 5; 
70 6; 72 3; 73 27; 74 62; 75 134; 
76 84; 77 161; 78 35; 79 9; 80 8; 
81 17; 82 25; 84 4; 85 10; 86 25; 
87 49; 88 53; 89 135; 90 34; 91 43; 
92 6; 93 5; 94 15; 95 8; 97 10; 
98 18; 99 37; 100 15; 101 56; 102 91; 
103 48; 104 14; 105 7; 106 3; 107 8; 
108 8; 109 19; 110 16; 111 26; 112 11; 
113 34; 114 37; 115 98; 116 27; 117 20; 
118 17; 119 4; 120 1; 121 2; 122 5; 
123 17; 124 12; 125 34; 126 50; 127 37; 
128 34; 129 12; 130 22; 131 31; 132 27; 
133 5; 134 2; 135 3; 136 9; 137 21; 
138 25; 139 99; 140 24; 141 13; 142 13; 
143 13; 144 18; 145 3; 146 2; 147 2; 
148 2; 149 29; 150 92; 151 155; 152 264; 
153 43; 154 14; 155 4; 156 6; 157 6; 
158 3; 159 2; 160 3; 161 7; 162 22; 
163 133; 164 123; 165 586; 166 110; 167 18; 
168 52; 169 6; 170 2; 171 1; 172 5; 
173 11; 174 22; 175 34; 176 222; 177 108; 
178 252; 179 113; 180 82; 181 27; 182 4; 
184 1; 185 1; 186 17; 187 16; 188 20; 
189 65; 190 24; 191 18; 192 23; 193 35; 
194 14; 195 2; 197 2; 199 53; 200 14; 
201 27; 202 32; 203 25; 204 32; 205 312; 
206 115; 207 115; 208 23; 209 3; 210 3; 
211 1; 212 13; 213 8; 215 665; 216 101; 
217 228; 218 80; 219 22; 220 8; 221 6; 
222 1; 223 3; 224 1; 225 4; 226 3; 
228 285; 229 47; 230 99; 231 21; 232 8; 
233 6; 234 5; 235 1; 237 2; 238 4; 
239 36; 240 10; 241 100; 242 52; 243 34; 
244 18; 245 4; 246 6; 247 12; 248 6; 
249 3; 250 3; 251 4; 252 12; 253 9; 
254 9; 255 6; 256 2; 257 1; 264 1; 
265 1; 266 4; 267 5; 268 8; 269 3; 
270 3; 280 3; 281 60; 282 31; 283 37; 
284 30; 285 366; 286 76; 287 119; 288 20; 
289 2; 
