Name: Mescaline NBOMe
InChIKey: YWHPPSGTTPXYSD-UHFFFAOYSA-N
Synon: 3,4,5-Trimethoxy-N-[(2-methoxyphenyl)methyl]-benzeneethanamine
Synon: [(2-Methoxyphenyl)methyl][2-(3,4,5-trimethoxyphenyl)ethyl]amine
Synon: Mescaline-NB2OMe
Synon: 345-NBOMe
Synon: NBOMe-Mescaline
Formula: C19H25NO4
MW: 331
ExactMass: 331.178358
CASNO: 1354632011
ID: 4157
Comment: Provided by www.caymanchem.com/app/template/landing%2CForensic.vm / Item #9001990  Lot #0459580
Num Peaks: 123
41 4; 42 6; 43 4; 44 2; 45 1; 
50 3; 51 8; 52 10; 53 8; 54 1; 
55 2; 59 1; 61 1; 62 2; 63 8; 
64 6; 65 53; 66 11; 67 4; 68 1; 
69 3; 71 1; 73 7; 74 1; 75 4; 
76 7; 77 46; 78 49; 79 22; 80 12; 
81 4; 82 1; 83 1; 84 1; 86 1; 
87 1; 89 13; 90 16; 91 340; 92 34; 
93 44; 94 9; 95 13; 96 3; 102 1; 
103 5; 104 6; 105 15; 106 13; 107 32; 
108 10; 109 9; 110 2; 115 1; 116 1; 
117 4; 118 11; 119 14; 120 17; 121 999; 
122 92; 123 12; 124 2; 125 1; 129 1; 
130 1; 131 1; 132 3; 133 6; 134 12; 
135 12; 136 38; 137 19; 138 11; 139 4; 
144 1; 146 1; 148 64; 149 16; 150 406; 
151 55; 152 4; 153 3; 156 1; 161 1; 
162 1; 163 2; 164 6; 165 12; 166 2; 
167 17; 168 2; 171 1; 176 1; 177 2; 
178 1; 179 6; 180 5; 181 123; 182 138; 
183 16; 184 1; 191 2; 192 1; 193 2; 
194 7; 195 8; 196 1; 197 1; 207 11; 
208 3; 209 3; 222 1; 223 1; 224 1; 
253 1; 281 3; 282 1; 284 1; 315 1; 
329 4; 330 1; 331 1; 
