Name: ADB-PINACA isomer 4
Synon: (S)-N-(1-amino-4-methyl-1-oxopentan-2-yl)-1-pentyl-1H-indazole-3-carboxamide
InChIKey: DHGROCCLLLHPHU-OAHLLOKOSA-N
Formula: C19H28N4O2
MW: 344
ExactMass: 344.221226
CASNO: 0
ID: 4158
Comment: Provided by www.caymanchem.com/app/template/landing%2CForensic.vm / Item #9001994  Lot #0459822
Num Peaks: 146
41 45; 42 10; 43 64; 44 46; 45 2; 
50 1; 51 3; 52 1; 53 2; 54 2; 
55 12; 56 5; 57 3; 62 2; 63 3; 
64 2; 65 2; 67 3; 68 3; 69 12; 
70 11; 71 3; 72 6; 73 5; 74 1; 
75 3; 76 8; 77 17; 78 3; 81 1; 
82 2; 83 2; 84 10; 85 2; 86 12; 
87 3; 88 18; 89 17; 90 41; 91 6; 
92 2; 96 1; 98 1; 101 1; 102 19; 
103 52; 104 19; 105 2; 111 1; 112 1; 
114 1; 115 1; 116 5; 117 23; 118 8; 
119 2; 120 1; 128 3; 129 16; 130 16; 
131 74; 132 9; 133 2; 135 1; 142 1; 
143 6; 144 15; 145 318; 146 29; 147 3; 
154 1; 155 2; 156 2; 157 6; 158 8; 
159 3; 160 1; 161 3; 168 1; 169 1; 
170 2; 171 7; 172 3; 173 3; 174 8; 
175 3; 183 1; 184 1; 185 6; 186 3; 
187 5; 188 2; 189 1; 191 1; 193 1; 
198 1; 199 3; 200 3; 201 2; 202 4; 
203 1; 207 5; 210 1; 211 1; 212 1; 
213 19; 215 999; 216 142; 217 11; 227 5; 
228 1; 230 7; 231 1; 232 1; 240 2; 
241 1; 242 2; 243 1; 244 1; 253 2; 
255 1; 256 6; 257 5; 258 4; 269 2; 
270 4; 271 10; 272 1; 282 1; 283 3; 
284 6; 285 1; 287 2; 288 7; 289 1; 
295 1; 298 3; 300 411; 301 90; 302 10; 
312 1; 326 2; 327 1; 329 2; 341 1; 
344 1; 
