Name: JWH-200 analog 1
Synon: (E)-3,4,4-trimethyl-1-(1-(2-morpholinoethyl)-1H-indol-3-yl)pent-2-en-1-one
InChIKey: MBMNSYXHFHEPMX-BMRADRMJSA-N
Formula: C22H30N2O2
MW: 354
ExactMass: 354.230728
CASNO: 0
ID: 4159
Comment: Provided by www.caymanchem.com/app/template/landing%2CForensic.vm / Item #9001951  Lot #0459067
Num Peaks: 127
40 2; 41 16; 42 18; 43 6; 44 5; 
45 1; 51 1; 53 2; 54 4; 55 18; 
56 45; 57 21; 58 1; 63 1; 65 1; 
67 6; 68 2; 69 5; 70 28; 71 3; 
72 10; 73 2; 75 2; 76 1; 77 5; 
78 1; 79 3; 81 3; 82 2; 83 3; 
84 2; 85 1; 86 1; 88 1; 89 3; 
90 1; 91 2; 95 2; 98 13; 99 4; 
100 999; 101 65; 102 12; 103 4; 104 1; 
109 1; 112 2; 113 3; 114 16; 115 14; 
116 4; 117 4; 118 1; 125 8; 126 1; 
127 3; 128 10; 129 16; 130 15; 131 2; 
139 1; 140 2; 141 2; 142 3; 143 10; 
144 6; 152 2; 153 2; 154 7; 155 2; 
156 4; 157 3; 158 2; 165 1; 166 3; 
167 10; 168 9; 169 2; 170 5; 171 1; 
178 1; 179 1; 180 11; 181 8; 182 5; 
183 3; 184 2; 185 1; 192 1; 193 1; 
194 6; 195 4; 196 12; 197 4; 198 5; 
199 1; 204 1; 206 1; 207 2; 208 2; 
209 2; 210 6; 211 2; 220 1; 222 2; 
223 1; 224 13; 225 2; 236 1; 237 1; 
238 2; 239 2; 240 1; 252 3; 253 6; 
254 9; 255 2; 257 1; 267 1; 297 3; 
309 2; 311 1; 339 1; 353 11; 354 30; 
355 6; 356 1; 
