Name: AB-FUBINACA isomer 5
Synon: N-(1-amino-1-oxobutan-2-yl)-1-(4-fluorobenzyl)-N-methyl-1H-indazole-3-carboxamide
InChIKey: WEURZBLJVAHFOS-UHFFFAOYSA-N
Formula: C20H21FN4O2
MW: 368
ExactMass: 368.164854
CASNO: 0
ID: 4161
Comment: Provided by www.caymanchem.com/app/template/landing%2CForensic.vm / Item #9001546  Lot #0456608
Num Peaks: 153
40 2; 41 10; 42 46; 44 43; 45 1; 
50 3; 51 3; 52 2; 54 2; 55 4; 
56 5; 57 6; 58 7; 59 5; 62 6; 
63 10; 64 2; 65 1; 66 1; 67 1; 
68 5; 69 5; 70 38; 71 12; 72 27; 
73 9; 74 2; 75 11; 76 8; 77 9; 
78 2; 81 3; 83 73; 84 4; 85 1; 
86 2; 87 6; 88 36; 89 18; 90 13; 
91 4; 92 1; 94 2; 95 6; 96 5; 
97 2; 101 2; 102 19; 103 11; 104 7; 
105 4; 107 16; 109 999; 110 83; 111 2; 
115 16; 116 2; 117 4; 118 4; 119 1; 
121 1; 122 3; 126 1; 128 1; 129 10; 
131 11; 132 2; 133 1; 135 4; 145 56; 
146 8; 147 2; 149 2; 150 1; 151 1; 
152 1; 157 1; 159 1; 160 2; 162 1; 
166 1; 169 3; 170 4; 171 1; 172 1; 
174 2; 176 3; 177 4; 178 1; 180 1; 
186 16; 187 8; 188 1; 191 2; 193 1; 
194 2; 195 4; 196 8; 197 8; 198 4; 
199 1; 200 1; 205 2; 207 7; 208 2; 
211 1; 214 2; 215 3; 216 1; 218 1; 
221 1; 223 18; 224 9; 225 14; 226 6; 
227 1; 236 1; 238 1; 239 1; 240 2; 
241 3; 242 3; 249 1; 251 5; 253 816; 
254 140; 255 16; 256 1; 259 1; 266 1; 
267 2; 268 2; 269 2; 281 1; 282 1; 
283 4; 284 1; 308 1; 311 1; 322 1; 
324 405; 325 82; 326 10; 327 3; 329 1; 
341 1; 342 1; 350 2; 351 2; 352 1; 
353 1; 355 1; 368 2; 
