Name: AB-PINACA N-(3-fluoropentyl) isomer
Synon: 3-Fluoro-AB-PINACA
Synon: N-(1-amino-3-methyl-1-oxobutan-2-yl)-1-(3-fluoropentyl)-1H-indazole-carboxamide
Synon: 3F-AB-PINACA
InChIKey: SNFDFYWXKBFWTO-UHFFFAOYSA-N
Formula: C18H25FN4O2
MW: 348
ExactMass: 348.196154
CASNO: 0
ID: 4162
Comment: Provided by www.caymanchem.com/app/template/landing%2CForensic.vm / Item #15440  Lot #0455319
Num Peaks: 169
41 46; 42 7; 43 22; 44 52; 45 5; 
46 1; 47 7; 50 1; 51 3; 52 2; 
53 5; 55 24; 56 13; 57 7; 58 1; 
59 10; 60 1; 61 7; 62 3; 63 4; 
64 3; 65 2; 66 1; 67 5; 68 4; 
69 23; 70 10; 71 12; 72 27; 73 10; 
74 1; 75 6; 76 13; 77 20; 78 3; 
79 1; 83 2; 84 1; 85 1; 86 1; 
87 5; 88 25; 89 23; 90 42; 91 6; 
92 1; 95 1; 96 2; 97 1; 98 4; 
100 1; 102 25; 103 75; 104 24; 105 3; 
106 1; 107 1; 114 5; 115 4; 116 5; 
117 22; 118 7; 119 2; 121 1; 129 33; 
130 24; 131 70; 132 10; 133 4; 134 1; 
135 4; 136 1; 142 4; 143 8; 145 210; 
146 21; 147 3; 148 2; 149 2; 154 1; 
155 3; 156 4; 157 6; 158 7; 159 3; 
161 1; 163 1; 165 1; 168 1; 169 3; 
170 2; 171 9; 172 6; 173 3; 174 12; 
175 4; 176 1; 177 2; 179 1; 181 1; 
182 1; 183 2; 184 1; 185 4; 186 3; 
187 1; 189 1; 192 1; 193 1; 196 1; 
197 1; 198 1; 200 3; 201 1; 203 2; 
207 5; 208 1; 209 2; 210 1; 211 1; 
212 2; 213 17; 214 5; 215 2; 216 2; 
217 2; 223 1; 228 5; 229 1; 230 1; 
231 8; 233 999; 234 152; 235 13; 236 1; 
249 4; 251 1; 252 1; 253 4; 254 1; 
255 2; 262 1; 267 1; 269 1; 273 2; 
274 1; 281 2; 282 1; 284 7; 285 1; 
286 1; 287 1; 288 2; 289 2; 290 1; 
295 1; 302 2; 304 420; 305 88; 306 8; 
327 1; 328 1; 330 2; 331 2; 332 1; 
333 1; 343 1; 348 3; 349 1; 
