Name: JWH-019 N-(3-fluorohexyl) isomer
Synon: JWH-019 N-(3-fluorohexyl) analog
InChIKey: LIZVKLUXDISLIA-UHFFFAOYSA-N
Formula: C25H24FNO
MW: 373
ExactMass: 373.184193
CASNO: 0
ID: 4163
Comment: Provided by www.caymanchem.com/app/template/landing%2CForensic.vm / Item #15443  Lot #0455331
Num Peaks: 287
41 134; 42 11; 43 42; 45 2; 46 6; 
47 32; 48 2; 50 10; 51 13; 52 5; 
53 22; 55 153; 56 8; 57 6; 59 28; 
60 4; 61 24; 62 7; 63 15; 64 5; 
65 11; 66 4; 67 15; 68 4; 69 9; 
70 2; 71 4; 73 31; 74 20; 75 43; 
76 31; 77 97; 78 22; 79 8; 81 9; 
83 34; 84 1; 85 1; 86 2; 87 14; 
88 24; 89 62; 90 9; 91 9; 92 1; 
95 4; 96 1; 97 6; 98 5; 99 8; 
100 12; 101 104; 102 102; 103 42; 104 6; 
105 1; 107 8; 109 2; 110 2; 111 1; 
112 8; 113 39; 114 42; 115 111; 116 139; 
117 32; 118 6; 119 4; 121 42; 122 3; 
123 2; 124 2; 126 183; 127 999; 128 320; 
129 142; 130 106; 131 12; 133 13; 135 23; 
136 9; 138 10; 139 32; 140 25; 142 237; 
143 66; 144 370; 145 33; 146 6; 147 12; 
148 15; 149 6; 150 13; 152 21; 153 12; 
155 469; 156 80; 157 20; 158 21; 159 5; 
160 2; 161 5; 162 6; 163 11; 164 9; 
165 6; 167 146; 168 35; 169 7; 170 32; 
171 5; 172 4; 174 8; 176 24; 177 8; 
178 5; 179 5; 180 7; 181 10; 182 11; 
183 4; 184 2; 185 4; 186 7; 187 18; 
188 18; 189 25; 190 7; 192 4; 193 9; 
195 1; 196 8; 197 5; 198 15; 199 5; 
200 14; 201 7; 202 20; 203 2; 204 2; 
205 3; 207 27; 208 6; 209 8; 210 3; 
211 12; 212 10; 213 75; 214 45; 215 68; 
216 19; 217 11; 218 17; 219 3; 220 1; 
221 1; 222 1; 223 4; 224 14; 226 82; 
227 34; 228 31; 229 12; 230 8; 231 3; 
232 1; 235 2; 236 1; 237 4; 238 20; 
239 35; 240 105; 241 198; 242 83; 243 26; 
244 13; 246 907; 247 153; 248 14; 249 7; 
251 11; 252 20; 253 70; 254 221; 255 116; 
256 116; 257 29; 258 5; 259 5; 261 2; 
262 2; 263 3; 264 4; 265 6; 266 50; 
267 61; 268 75; 269 125; 270 335; 271 72; 
272 14; 273 2; 274 1; 275 1; 276 1; 
277 2; 278 8; 281 32; 282 113; 284 796; 
285 215; 286 36; 287 4; 289 1; 290 1; 
291 1; 292 3; 293 4; 294 7; 295 4; 
296 25; 297 7; 298 16; 299 5; 300 1; 
301 2; 302 3; 303 1; 304 3; 305 1; 
306 2; 307 2; 308 6; 310 56; 311 18; 
312 6; 313 1; 314 2; 315 1; 316 1; 
319 1; 320 1; 322 1; 324 15; 325 7; 
327 13; 328 5; 329 6; 330 4; 331 7; 
332 3; 333 3; 334 3; 335 3; 336 32; 
337 10; 338 6; 339 3; 341 15; 342 1; 
343 5; 344 5; 345 14; 346 7; 347 1; 
348 2; 350 1; 351 2; 352 40; 353 100; 
354 35; 356 582; 357 170; 358 29; 359 4; 
360 1; 361 2; 363 1; 368 1; 369 2; 
372 536; 373 946; 374 247; 375 35; 376 3; 
377 1; 378 1; 
