Name: 2-Methylamino-1-phenylbutane
Synon: .alpha.-Ethyl-N-methyl-benzeneethanamine
InChIKey: ONNVUALDGIKEIJ-UHFFFAOYSA-N
Formula: C11H17N
MW: 163
ExactMass: 163.1361
CASNO: 84952636
ID: 4166
Comment: Provided by www.caymanchem.com/app/template/landing%2CForensic.vm / Item #15961  Lot #0457649
Num Peaks: 57
40 3; 41 26; 42 41; 43 6; 44 27; 
50 6; 51 15; 52 4; 53 2; 54 4; 
56 29; 57 48; 58 3; 59 1; 62 4; 
63 16; 65 60; 67 13; 68 4; 70 36; 
72 999; 73 46; 74 3; 75 3; 76 4; 
77 23; 78 15; 79 5; 80 1; 86 1; 
87 1; 89 17; 91 147; 92 15; 93 3; 
94 1; 102 5; 103 10; 104 7; 105 7; 
106 2; 115 12; 116 5; 117 16; 118 12; 
119 29; 120 4; 127 1; 128 3; 129 2; 
130 3; 131 3; 132 11; 134 99; 135 10; 
146 1; 162 3; 
