Name: 25I-NB3OMe
InChIKey: CJTZKPLDKCBUAF-UHFFFAOYSA-N
Synon: 2-(4-Iodo-2,5-dimethoxyphenyl)-N-(3-methoxybenzyl)ethan-1-amine
Synon: 2C-I-NB3OMe
Formula: C18H22INO3
MW: 427
ExactMass: 427.064442
CASNO: 0
ID: 4171
Comment: Provided by www.caymanchem.com/app/template/landing%2CForensic.vm / Item #14784  Lot #0450150 / SWGDRUG Monograph available
Num Peaks: 128
40 1; 41 4; 42 4; 43 3; 44 1; 
50 5; 51 14; 52 8; 53 12; 54 1; 
55 2; 62 3; 63 20; 64 16; 65 34; 
66 5; 67 4; 69 1; 73 2; 74 3; 
75 7; 76 14; 77 100; 78 86; 79 25; 
80 4; 81 1; 86 1; 87 1; 89 33; 
90 42; 91 147; 92 32; 93 7; 94 3; 
95 1; 96 1; 101 1; 102 3; 103 5; 
104 14; 105 49; 106 26; 107 18; 108 7; 
109 2; 115 2; 116 3; 117 14; 118 10; 
119 12; 121 999; 122 104; 123 7; 127 17; 
128 23; 130 1; 131 1; 132 5; 133 22; 
134 17; 135 16; 136 9; 137 2; 142 1; 
148 94; 150 691; 151 75; 152 7; 153 2; 
160 1; 162 2; 163 3; 164 8; 165 5; 
166 1; 177 2; 178 1; 179 2; 181 1; 
191 6; 192 1; 194 1; 195 1; 197 1; 
204 1; 205 1; 207 6; 208 1; 209 1; 
217 2; 218 1; 219 5; 220 1; 232 14; 
233 3; 234 6; 235 1; 247 40; 248 4; 
249 2; 253 1; 260 2; 261 6; 262 2; 
263 8; 264 1; 266 1; 267 1; 268 2; 
269 1; 270 1; 274 1; 275 3; 276 7; 
277 41; 278 139; 279 14; 280 1; 281 2; 
288 1; 290 3; 291 3; 394 25; 395 5; 
396 2; 425 2; 427 1; 
