Name: 5-Chloro-PB-22
Synon: 1-(5-Chloropentyl)-8-quinolinyl ester-1H-indole-3-carboxylic acid
Synon: 5-Cl-PB-22
InChIKey: GADKCXLLJNLFAY-UHFFFAOYSA-N
Formula: C23H21ClN2O2
MW: 392
ExactMass: 392.129156
CASNO: 0
ID: 4175
Comment: DEA SWL / Unverified from sample
Num Peaks: 100
36 18; 38 10; 39 54; 40 38; 41 161; 
42 9; 43 66; 44 135; 45 12; 50 19; 
51 30; 52 12; 53 21; 55 24; 57 9; 
58 7; 59 11; 61 6; 62 16; 63 82; 
64 20; 65 24; 67 9; 69 100; 70 12; 
73 68; 74 9; 75 32; 76 22; 77 24; 
78 13; 85 7; 86 8; 87 22; 88 19; 
89 165; 90 42; 91 8; 96 21; 97 8; 
99 6; 101 23; 102 56; 103 27; 105 7; 
114 22; 115 70; 116 302; 117 141; 118 21; 
128 51; 129 92; 130 81; 131 13; 133 18; 
142 6; 143 62; 144 435; 145 165; 146 19; 
147 30; 148 13; 151 12; 154 16; 155 6; 
156 20; 157 21; 158 30; 159 7; 167 8; 
168 16; 170 30; 177 6; 184 12; 185 12; 
191 21; 192 7; 193 18; 207 179; 208 25; 
209 18; 210 7; 212 82; 213 16; 214 17; 
221 11; 232 31; 246 11; 248 999; 249 152; 
250 366; 251 67; 281 46; 282 12; 283 7; 
341 6; 355 8; 392 32; 393 6; 394 7; 
