Name: 4-Methylaminoantipyrine
Synon: Noramidopyrine
InChIKey: JILCEWWZTBBOFS-UHFFFAOYSA-N
Formula: C12H15N3O
MW: 217
ExactMass: 217.121512
CASNO: 519982
ID: 4177
Comment: DEA SWL / breakdown from Dipyrone
Num Peaks: 36
40 6; 41 31; 42 158; 44 1; 51 56; 
52 19; 53 6; 54 50; 55 38; 56 999; 
57 84; 63 19; 64 20; 65 42; 66 13; 
67 16; 68 7; 77 95; 78 6; 83 311; 
84 16; 91 23; 92 18; 93 17; 95 6; 
96 52; 97 56; 98 86; 120 6; 123 181; 
124 35; 125 8; 215 20; 216 100; 217 172; 
218 20; 
