Name: Androsta-3,5-diene-7,17-dione
Synon: Arimistane
Synon: 3-Deoxy-7-oxo-DHEA
InChIKey: VHDOTNMSJDQVEE-UHFFFAOYSA-N
Formula: C19H24O2
MW: 284
ExactMass: 284.17763
CASNO: 0
ID: 4178
Comment: DEA SWL
Num Peaks: 222
36 1; 38 2; 39 111; 40 26; 41 206; 
42 27; 43 61; 44 6; 45 2; 50 10; 
51 62; 52 39; 53 150; 54 20; 55 235; 
56 18; 57 15; 58 2; 60 1; 62 4; 
63 32; 64 18; 65 151; 66 46; 67 127; 
68 23; 69 37; 70 4; 71 10; 72 2; 
73 2; 74 3; 75 6; 76 14; 77 334; 
78 115; 79 359; 80 48; 81 180; 82 25; 
83 23; 84 7; 85 6; 86 3; 87 3; 
88 2; 89 33; 90 25; 91 913; 92 118; 
93 212; 94 51; 95 79; 96 27; 97 33; 
98 6; 99 4; 100 6; 101 5; 102 21; 
103 102; 104 48; 105 352; 106 124; 107 170; 
108 48; 109 33; 110 9; 111 4; 112 3; 
113 3; 114 5; 115 222; 116 81; 117 149; 
118 43; 119 372; 120 66; 121 105; 122 41; 
123 22; 124 4; 125 2; 126 6; 127 68; 
128 184; 129 165; 130 47; 131 159; 132 61; 
133 164; 134 893; 135 149; 136 89; 137 12; 
138 1; 139 11; 140 4; 141 123; 142 59; 
143 91; 144 58; 145 163; 146 102; 147 133; 
148 58; 149 53; 150 27; 151 14; 152 41; 
153 49; 154 28; 155 62; 156 28; 157 117; 
158 46; 159 309; 160 109; 161 999; 162 136; 
163 19; 164 9; 165 45; 166 20; 167 34; 
168 16; 169 43; 170 20; 171 62; 172 31; 
173 133; 174 282; 175 92; 176 19; 177 9; 
178 16; 179 17; 180 9; 181 35; 182 14; 
183 39; 184 22; 185 78; 186 31; 187 467; 
188 96; 189 18; 190 6; 191 5; 192 3; 
193 8; 194 5; 195 26; 196 11; 197 39; 
198 21; 199 89; 200 31; 201 28; 202 6; 
203 1; 204 1; 205 1; 206 1; 207 12; 
208 3; 209 27; 210 9; 211 32; 212 26; 
213 97; 214 32; 215 22; 216 5; 217 1; 
221 2; 222 5; 223 46; 224 13; 225 48; 
226 10; 227 105; 228 81; 229 387; 230 71; 
231 7; 232 1; 233 3; 234 1; 235 1; 
236 2; 237 26; 238 24; 239 46; 240 35; 
241 347; 242 92; 243 12; 249 2; 250 1; 
251 53; 252 11; 253 4; 254 1; 255 36; 
256 257; 257 50; 258 4; 265 4; 266 19; 
267 7; 268 1; 269 88; 270 18; 271 2; 
281 1; 282 1; 283 4; 284 892; 285 181; 
286 23; 287 2; 
