Name: O-Desmethyltramadol
Synon: ODT
Synon: 3-{-2-[(dimethylamino)methyl]-1-hydroxycyclohexyl}phenol
InChIKey: UWJUQVWARXYRCG-UHFFFAOYSA-N
Formula: C15H23NO2
MW: 249
ExactMass: 249.172879
CASNO: 73986535
ID: 4181
Comment: AAFS
Num Peaks: 78
38 1; 39 23; 40 4; 41 27; 42 51; 
43 18; 44 42; 45 42; 46 26; 50 1; 
51 5; 53 8; 54 4; 55 42; 56 12; 
58 999; 59 41; 63 6; 64 4; 65 32; 
66 7; 67 8; 68 4; 69 7; 70 10; 
71 5; 72 3; 74 15; 75 1; 77 25; 
78 3; 79 7; 80 1; 81 4; 82 4; 
83 2; 84 13; 89 3; 91 12; 92 3; 
93 29; 94 15; 95 7; 97 1; 98 5; 
102 1; 103 4; 105 2; 107 19; 108 4; 
110 3; 114 2; 115 6; 116 1; 117 1; 
119 2; 120 3; 121 40; 122 5; 127 3; 
128 2; 131 6; 132 1; 133 3; 134 1; 
136 3; 145 6; 146 2; 147 1; 148 2; 
149 3; 157 1; 159 3; 161 2; 174 1; 
248 6; 249 56; 250 8; 
