Name: 1-Phenyl-2-(piperidin-1-yl)butan-1-one
InChIKey: VFLPICJWFQLLSY-UHFFFAOYSA-N
Formula: C15H21NO
MW: 231
ExactMass: 231.162314
CASNO: 0
ID: 4185
Comment: ENFSI / EDND webpage, Spanish NFP
Num Peaks: 45
41 30; 42 39; 43 6; 50 9; 51 37; 
52 3; 53 6; 54 18; 55 39; 56 15; 
57 3; 65 3; 67 3; 68 14; 69 30; 
70 19; 72 3; 74 2; 76 6; 77 119; 
78 12; 82 8; 84 50; 89 3; 91 13; 
94 7; 96 47; 97 35; 105 59; 106 6; 
110 13; 115 5; 124 22; 126 999; 127 87; 
128 6; 144 3; 146 3; 160 3; 186 4; 
188 14; 189 3; 214 3; 230 2; 231 1; 
