Name: ADB-CHMINACA
Synon: MAB-CHMINACA
Synon: N-(1-(aminocarbonyl)-2,2-dimethylpropyl)-1-(cyclohexylmethyl)-1H-indazole-3-carboxamide
Synon: N-(1-amino-3,3-dimethyl-1-oxobutan-2-yl)-1-(cyclohexylmethyl)-1H-indazole-3-carboxamide
InChIKey: ZWCCSIUBHCZKOY-UHFFFAOYSA-N
Formula: C21H30N4O2
MW: 370
ExactMass: 370.236876
CASNO: 0
ID: 4186
Comment: ENFSI / HIFS Budapest, confirmed by NMR / SWGDRUG Monograph available
Num Peaks: 186
39 8; 40 2; 41 37; 42 3; 43 8; 
44 19; 45 2; 50 1; 51 2; 52 1; 
53 5; 54 3; 55 65; 56 6; 57 20; 
58 1; 59 2; 62 1; 63 2; 65 1; 
67 8; 68 1; 69 8; 70 6; 71 2; 
73 20; 74 1; 75 2; 76 4; 77 12; 
78 2; 79 2; 81 2; 82 1; 83 5; 
84 3; 85 1; 86 17; 87 2; 88 8; 
89 9; 90 20; 91 5; 92 1; 93 1; 
95 5; 96 3; 97 9; 98 1; 101 1; 
102 11; 103 50; 104 17; 105 3; 112 1; 
115 1; 116 2; 117 14; 118 7; 119 3; 
127 1; 128 2; 129 17; 130 19; 131 110; 
132 15; 133 5; 135 6; 136 1; 142 1; 
143 3; 144 12; 145 326; 146 32; 147 10; 
148 1; 149 1; 154 1; 155 2; 156 4; 
157 6; 158 9; 159 5; 160 1; 161 1; 
163 1; 165 1; 168 1; 169 4; 170 2; 
171 3; 172 1; 173 3; 174 6; 175 1; 
177 1; 179 1; 181 1; 182 1; 183 2; 
185 3; 186 5; 187 2; 191 4; 192 1; 
193 3; 195 2; 197 3; 199 1; 200 8; 
201 54; 202 6; 203 1; 207 34; 208 7; 
209 4; 210 1; 211 3; 212 3; 213 6; 
214 6; 215 1; 221 1; 223 1; 226 1; 
228 1; 230 2; 239 17; 240 9; 241 999; 
242 174; 243 19; 244 2; 249 1; 251 1; 
253 12; 254 8; 255 2; 256 3; 257 1; 
258 4; 259 1; 265 1; 267 3; 268 2; 
269 2; 270 4; 271 3; 280 2; 281 18; 
282 5; 283 3; 284 1; 287 2; 295 1; 
296 7; 297 122; 298 24; 299 2; 310 3; 
311 2; 312 1; 313 3; 314 21; 315 5; 
316 1; 324 5; 326 905; 327 214; 328 25; 
329 3; 331 4; 332 1; 338 8; 339 2; 
341 10; 342 3; 343 3; 346 2; 352 1; 
353 1; 355 8; 356 2; 357 1; 370 6; 
371 1; 
