Name: 6-Bromo-MDMA
Synon: 6-Bromo-3,4-methylenedioxy-N-methylamphetamine
Synon: 2-Bromo-4,5-MDMA
InChIKey: ZIBHSZQEEWBQLW-UHFFFAOYSA-N
Formula: C11H14BrNO2
MW: 271
ExactMass: 271.02079
CASNO: 0
ID: 4188
Comment: ENFSI / EDND webpage, UK NFP
Num Peaks: 111
39 9; 40 3; 41 9; 42 32; 43 13; 
44 3; 50 20; 51 20; 52 6; 53 10; 
54 4; 55 3; 56 48; 57 15; 58 999; 
59 38; 60 1; 61 3; 62 9; 63 14; 
64 4; 65 5; 66 2; 67 1; 68 1; 
70 2; 71 1; 73 2; 74 11; 75 39; 
76 37; 77 34; 78 29; 79 7; 80 4; 
81 2; 82 3; 86 2; 87 3; 88 4; 
89 8; 90 4; 91 6; 92 3; 93 2; 
94 2; 95 1; 100 2; 102 10; 103 15; 
104 9; 105 10; 106 5; 107 4; 109 1; 
115 2; 116 2; 117 7; 118 8; 119 5; 
120 3; 121 2; 122 1; 127 12; 128 12; 
130 4; 131 9; 132 9; 133 4; 134 5; 
135 15; 136 7; 141 2; 143 3; 145 3; 
146 10; 147 4; 148 3; 149 2; 155 16; 
156 2; 157 18; 158 3; 159 4; 160 6; 
161 4; 162 7; 172 1; 174 2; 175 2; 
176 5; 177 6; 178 1; 183 4; 185 4; 
190 3; 191 3; 192 13; 193 3; 199 1; 
201 2; 213 19; 214 8; 215 20; 216 7; 
227 1; 242 1; 256 3; 258 3; 270 2; 
271 1; 
