Name: 4-Fluoro-PV8
Synon: p-Fluoro-PV8
Synon: 4-Fluoro-.alpha.-PHPP
Synon: 4F-.alpha.-PEP
Synon: 4-Fluoro-.alpha.-PEP
InChIKey: YAFFHHPPOAYLLA-UHFFFAOYSA-N
Formula: C17H24FNO
MW: 277
ExactMass: 277.184193
CASNO: 0
ID: 4192
Comment: Provided by www.caymanchem.com/app/template/landing%2CForensic.vm / Item #15356  Lot #0455494
Num Peaks: 75
41 50; 42 30; 43 15; 44 4; 50 3; 
51 2; 52 1; 53 6; 54 19; 55 42; 
56 19; 57 5; 63 1; 65 1; 66 1; 
67 6; 68 22; 69 50; 70 26; 71 2; 
72 2; 75 36; 76 3; 77 3; 78 1; 
79 1; 80 5; 81 5; 82 9; 83 9; 
84 63; 85 4; 95 137; 96 79; 97 44; 
98 24; 99 1; 101 1; 103 1; 107 1; 
108 4; 109 15; 110 37; 111 4; 112 1; 
115 1; 120 2; 121 2; 123 102; 124 11; 
125 1; 126 2; 133 4; 134 1; 135 2; 
136 1; 138 4; 146 1; 147 1; 148 1; 
149 2; 150 2; 151 3; 152 18; 154 999; 
155 148; 156 7; 164 1; 177 1; 178 2; 
186 1; 204 2; 206 15; 207 3; 276 1; 
