Name: 5-MeO-MALT
Synon: 5-MeO-methylallyltryptamine
Synon: N-[2-(5-methoxy-1H-indol-3-yl)ethyl]-N-methyl-prop-2-en-1-amine
InChIKey: SNKLPNHELSTYDI-UHFFFAOYSA-N
Formula: C15H20N2O
MW: 244
ExactMass: 244.157563
CASNO: 0
ID: 4194
Comment: ENFSI / EDND webpage, Swedish NFP, confirmed by NMR
Num Peaks: 83
30 1; 38 1; 39 18; 40 2; 41 164; 
42 102; 43 5; 44 17; 50 2; 51 7; 
52 5; 53 2; 54 2; 55 3; 56 1; 
57 5; 58 3; 62 2; 63 9; 64 3; 
65 3; 66 1; 67 1; 68 2; 70 2; 
74 1; 75 3; 76 4; 77 12; 78 4; 
79 1; 80 1; 82 23; 83 8; 84 999; 
85 58; 86 4; 87 2; 88 1; 89 16; 
90 16; 91 4; 92 1; 101 2; 102 6; 
103 9; 104 4; 105 1; 114 1; 115 6; 
116 8; 117 39; 118 10; 119 1; 128 4; 
129 4; 130 20; 131 11; 132 3; 142 2; 
143 5; 144 6; 145 30; 146 9; 147 2; 
155 1; 156 1; 157 1; 158 5; 159 9; 
160 47; 161 13; 162 1; 170 1; 172 2; 
173 36; 174 23; 175 4; 187 1; 202 1; 
215 1; 244 20; 245 6; 
