Name: PB-22 indazole analogue
Synon: Quinolin-8-yl 1-pentyl-1H-indazole-3-carboxylate
InChIKey: UWICFJAXLKCHTQ-UHFFFAOYSA-N
Formula: C22H21N3O2
MW: 359
ExactMass: 359.163378
CASNO: 0
ID: 4196
Comment: ENFSI / HIFS Budapest, confirmed by NMR
Num Peaks: 90
40 3; 41 29; 42 3; 43 38; 44 1; 
50 4; 51 7; 52 3; 53 2; 55 6; 
61 1; 62 10; 63 22; 64 6; 65 3; 
66 1; 67 1; 69 2; 71 1; 73 1; 
74 2; 75 9; 76 13; 77 11; 78 2; 
86 1; 87 4; 88 30; 89 68; 90 65; 
91 5; 100 1; 101 8; 102 23; 103 50; 
104 8; 105 1; 114 3; 116 71; 117 50; 
118 6; 119 1; 127 2; 128 15; 129 17; 
130 12; 131 11; 132 1; 137 1; 142 1; 
143 4; 145 377; 146 34; 147 2; 151 1; 
152 2; 155 1; 157 4; 158 3; 159 1; 
171 6; 172 3; 176 1; 185 3; 186 1; 
187 2; 199 1; 202 1; 203 2; 204 1; 
213 8; 215 999; 216 151; 217 12; 243 1; 
244 1; 253 1; 256 1; 258 1; 260 14; 
261 2; 274 3; 302 2; 314 3; 315 1; 
331 2; 343 1; 359 134; 360 34; 361 5; 
