Name: Coluracetam
Synon: N-(2,3-dimethyl-5,6,7,8-tetrahydrofuro[2,3-b]quinolin-4-yl)-2-(2-oxo-1-pyrrolindinylacetamide
InChIKey: PSPGQHXMUKWNDI-UHFFFAOYSA-N
Formula: C19H23N3O3
MW: 341
ExactMass: 341.17394
CASNO: 135463819
ID: 4197
Comment: ENFSI / Univ Copenhagen
Num Peaks: 183
40 4; 41 66; 42 44; 43 68; 44 15; 
50 1; 51 7; 52 9; 53 10; 54 5; 
55 8; 56 5; 57 1; 63 4; 64 3; 
65 12; 66 10; 67 6; 68 27; 69 71; 
70 137; 71 21; 72 1; 73 1; 75 1; 
76 3; 77 25; 78 10; 79 14; 80 7; 
81 3; 82 1; 83 2; 84 2; 85 1; 
86 4; 87 1; 88 1; 89 5; 90 4; 
91 13; 92 7; 93 4; 94 3; 95 1; 
96 6; 98 578; 99 88; 100 6; 101 2; 
102 4; 103 7; 104 8; 105 5; 106 5; 
107 3; 108 1; 113 1; 114 1; 115 12; 
116 9; 117 12; 118 8; 119 4; 120 2; 
121 1; 126 113; 127 13; 128 11; 129 7; 
130 10; 131 7; 132 6; 133 2; 134 1; 
135 4; 136 1; 140 3; 141 4; 142 7; 
143 12; 144 11; 145 11; 146 6; 147 2; 
148 1; 152 1; 153 2; 154 7; 155 8; 
156 13; 157 13; 158 6; 159 6; 160 4; 
161 2; 162 1; 166 1; 167 5; 168 6; 
169 11; 170 11; 171 20; 172 10; 173 12; 
174 3; 175 5; 176 1; 177 1; 179 1; 
180 2; 181 3; 182 6; 183 7; 184 12; 
185 25; 186 12; 187 17; 188 23; 189 5; 
193 1; 194 1; 195 4; 196 4; 197 19; 
198 42; 199 119; 200 96; 201 55; 202 9; 
203 2; 207 6; 208 2; 209 2; 210 1; 
211 7; 212 6; 213 59; 215 999; 216 657; 
217 135; 218 15; 219 1; 223 2; 224 1; 
225 11; 226 5; 227 25; 228 38; 229 8; 
230 2; 237 5; 238 34; 239 13; 240 4; 
241 26; 242 28; 243 357; 244 57; 245 6; 
253 2; 254 2; 255 19; 256 31; 257 10; 
258 5; 270 1; 281 3; 282 1; 283 1; 
285 1; 295 1; 312 1; 313 4; 323 29; 
324 7; 325 1; 326 2; 339 1; 341 507; 
342 111; 343 15; 344 1; 
