Name: N-Ethylnorpentedrone
Synon: 2-(ethylamino)-1-Phenylpentan-1-one
Synon: .alpha.-Ethylaminopentiophenone
InChIKey: QQAHEGDXEXIQPR-UHFFFAOYSA-N
Formula: C13H19NO
MW: 205
ExactMass: 205.146665
CASNO: 18268161
ID: 4201
Comment: ENFSI/DWG
Num Peaks: 66
39 7; 40 1; 41 12; 42 12; 43 16; 
44 23; 46 2; 50 9; 51 38; 52 4; 
53 3; 54 4; 55 24; 56 43; 57 4; 
58 114; 59 4; 63 2; 65 2; 68 4; 
69 1; 70 25; 71 16; 72 15; 73 1; 
74 3; 75 2; 76 6; 77 125; 78 12; 
79 6; 80 1; 82 1; 84 11; 85 1; 
89 2; 90 1; 91 10; 92 1; 98 19; 
99 3; 100 999; 101 73; 102 3; 103 2; 
104 2; 105 57; 106 8; 115 3; 116 2; 
117 2; 118 3; 120 1; 128 1; 130 1; 
131 1; 132 1; 133 4; 134 8; 144 1; 
146 2; 148 1; 160 1; 161 1; 162 15; 
163 2; 
