Name: MTA
Synon: 2-[(methylamino)methyl]-3,4-dihydronaphthalen-1(2H)-one
Synon: Mephtetramine
InChIKey: FTRWLSZFQILOOD-UHFFFAOYSA-N
Formula: C12H15NO
MW: 189
ExactMass: 189.115364
CASNO: 0
ID: 4203
Comment: ENFSI / HIFS Budapest, confirmed by NMR
Num Peaks: 79
37 15; 38 57; 39 205; 40 53; 41 9; 
42 2; 43 2; 44 3; 45 2; 49 6; 
50 132; 51 178; 52 37; 53 38; 54 5; 
55 1; 58 2; 60 2; 61 22; 62 103; 
63 256; 64 104; 65 52; 66 5; 68 1; 
70 2; 73 14; 74 105; 75 91; 76 84; 
77 162; 78 46; 79 4; 85 14; 86 39; 
87 50; 88 15; 89 435; 90 470; 91 89; 
92 5; 97 2; 98 27; 99 12; 100 7; 
101 41; 102 137; 103 67; 104 24; 105 12; 
108 1; 109 1; 110 2; 111 1; 113 9; 
115 554; 116 56; 117 4; 118 149; 119 16; 
120 1; 122 1; 125 4; 126 35; 127 153; 
128 335; 129 954; 130 999; 131 124; 132 21; 
139 8; 140 4; 141 7; 142 1; 143 12; 
157 50; 158 699; 159 78; 160 5; 
