Name: 3-(p-Methoxybenzoyl)-N-methylindole
Synon: (4-methoxyphenyl)(1-methyl-1H-indol-3-yl)methanone
InChIKey: KTTKHPWYMHHUNK-UHFFFAOYSA-N
Formula: C17H15NO2
MW: 265
ExactMass: 265.11028
CASNO: 0
ID: 4206
Comment: ENFSI / EDND webpage, Austrian NFP
Num Peaks: 98
42 6; 46 4; 50 10; 51 15; 52 5; 
53 4; 62 10; 63 34; 64 26; 65 4; 
74 8; 75 15; 76 17; 77 124; 78 13; 
79 4; 82 5; 83 4; 87 8; 88 12; 
89 22; 90 4; 91 41; 92 43; 93 4; 
96 7; 101 14; 102 37; 103 85; 104 11; 
106 5; 107 14; 110 5; 114 10; 115 16; 
118 89; 125 3; 126 5; 127 5; 128 31; 
129 14; 130 74; 131 11; 134 3; 135 39; 
136 3; 137 3; 138 4; 139 4; 140 3; 
143 5; 144 3; 150 5; 151 14; 152 22; 
153 9; 154 3; 157 3; 158 999; 159 107; 
160 7; 163 6; 164 5; 165 11; 166 9; 
167 8; 168 2; 190 6; 191 8; 192 14; 
193 8; 194 19; 195 4; 204 4; 205 4; 
206 6; 219 2; 220 4; 221 19; 222 67; 
223 12; 232 3; 233 5; 234 58; 235 11; 
236 19; 237 9; 238 2; 244 3; 245 3; 
248 38; 249 11; 250 32; 251 4; 264 159; 
265 673; 266 121; 267 13; 
