Name: CUMYL-PICA
Synon: 1-pentyl-N-(2-phenylpropan-2-yl)-1H-indole-3-carboxamide
InChIKey: RCXFMWJQOYCIQU-UHFFFAOYSA-N
Formula: C23H28N2O
MW: 348
ExactMass: 348.220163
CASNO: 1400742326
ID: 4216
Comment: ENFSI / EDND webpage, Slovenian NFP, confirmed by NMR
Num Peaks: 160
51 51; 52 13; 53 7; 55 16; 56 3; 
58 15; 61 3; 62 11; 63 27; 64 7; 
65 21; 66 2; 67 1; 69 5; 70 1; 
71 3; 73 5; 74 11; 75 18; 76 21; 
77 123; 78 75; 79 28; 80 1; 84 1; 
85 1; 86 3; 87 8; 88 16; 89 48; 
90 13; 91 162; 92 15; 93 2; 94 1; 
95 7; 96 2; 97 1; 98 1; 99 2; 
100 2; 101 34; 102 58; 103 133; 104 58; 
105 27; 106 2; 107 3; 113 3; 114 27; 
115 122; 116 112; 117 163; 118 178; 119 79; 
120 15; 121 2; 126 2; 127 10; 128 77; 
129 64; 130 108; 131 24; 132 6; 133 5; 
134 9; 135 3; 138 9; 140 5; 141 8; 
142 37; 143 78; 144 332; 145 47; 146 16; 
147 2; 152 1; 153 3; 154 11; 155 205; 
156 114; 157 29; 158 16; 159 3; 160 10; 
161 2; 165 2; 166 2; 167 4; 168 6; 
169 8; 170 21; 171 5; 173 176; 174 68; 
175 6; 176 1; 177 1; 179 2; 180 2; 
181 6; 182 4; 183 14; 184 16; 185 6; 
186 34; 187 14; 188 4; 191 3; 192 2; 
193 3; 195 5; 196 1; 197 14; 198 5; 
199 2; 200 2; 201 4; 202 1; 204 1; 
205 1; 206 3; 207 18; 208 5; 209 3; 
210 8; 211 8; 212 78; 214 999; 215 168; 
216 14; 217 1; 220 1; 227 2; 228 3; 
230 430; 231 71; 232 6; 233 1; 234 2; 
253 5; 254 1; 255 1; 257 1; 263 4; 
264 1; 281 7; 282 1; 283 1; 289 1; 
291 9; 292 2; 331 4; 332 1; 333 2; 
346 2; 347 3; 348 121; 349 31; 350 3; 
