Name: URB597
Synon: (3'-(aminocarbonyl)[1,1'-biphenyl]-3-yl)-cyclohexylcarbamate
InChIKey: ROFVXGGUISEHAM-UHFFFAOYSA-N
Formula: C20H22N2O3
MW: 338
ExactMass: 338.163042
CASNO: 546141086
ID: 4219
Comment: Provided by www.caymanchem.com/app/template/landing%2CForensic.vm / Item #10046  Lot #0419016 / SWGDRUG Monograph available
Num Peaks: 50
40 19; 44 35; 51 5; 63 17; 69 7; 
70 20; 71 12; 73 26; 74 14; 75 21; 
77 6; 84 72; 88 4; 89 14; 98 48; 
113 15; 114 20; 115 163; 116 12; 127 5; 
133 27; 135 6; 139 188; 140 60; 141 122; 
142 15; 147 3; 150 7; 151 41; 152 28; 
168 107; 169 265; 170 41; 184 24; 191 26; 
193 20; 195 22; 196 13; 197 921; 198 129; 
199 12; 207 114; 208 25; 209 29; 213 999; 
214 131; 253 69; 281 41; 282 5; 341 5; 
