Name: 25C-NB4OMe
InChIKey: QEGZBQXBCVUMCU-UHFFFAOYSA-N
Synon: 2-(4-chloro-2,5-dimethoxyphenyl)-N-(4-methoxybenzyl)ethanamine
Synon: 2C-C-NB4OMe
Formula: C18H22ClNO3
MW: 335
ExactMass: 335.12882
CASNO: 0
ID: 4223
Comment: ENFSI/DWG / SWGDRUG Monograph available
Num Peaks: 113
36 1; 38 1; 39 4; 41 2; 42 2; 
43 1; 50 2; 51 9; 52 5; 53 6; 
55 2; 62 1; 63 7; 64 3; 65 12; 
66 1; 67 2; 73 2; 75 4; 76 2; 
77 56; 78 38; 79 9; 80 1; 87 1; 
89 15; 90 12; 91 37; 92 6; 93 3; 
94 2; 99 7; 100 1; 101 3; 102 1; 
103 2; 104 3; 105 13; 106 10; 107 7; 
108 2; 109 1; 111 2; 112 6; 113 4; 
114 2; 115 1; 117 2; 118 3; 119 4; 
120 4; 121 999; 122 90; 123 6; 124 1; 
125 8; 126 2; 127 5; 128 1; 129 1; 
132 1; 133 3; 134 5; 135 5; 136 2; 
137 1; 139 1; 140 2; 141 2; 142 7; 
143 1; 144 2; 147 1; 148 26; 149 5; 
150 171; 151 17; 152 2; 153 1; 154 1; 
155 20; 156 2; 157 8; 158 1; 162 1; 
163 1; 164 2; 165 1; 167 1; 168 1; 
169 6; 170 2; 171 6; 172 1; 173 1; 
182 1; 183 3; 184 7; 185 20; 186 48; 
187 10; 188 15; 189 1; 196 1; 198 1; 
199 4; 200 1; 201 1; 207 1; 302 7; 
303 2; 304 3; 305 1; 
