Name: Lorcaserin
Synon: Belviq
Synon: APD356
Synon: 8-Chloro-2,3,4,5-tetrahydro-1R-methyl-1H-3-benzazepine
InChIKey: XTTZERNUQAFMOF-QMMMGPOBSA-N
Formula: C11H14ClN
MW: 195
ExactMass: 195.081477
CASNO: 846589988
ID: 4228
Comment: Provided by www.caymanchem.com/app/template/landing%2CForensic.vm / Item #15521  Lot #0455755 / SWGDRUG Monograph available
Num Peaks: 134
40 15; 41 63; 42 568; 43 348; 44 86; 
45 2; 49 6; 50 42; 51 87; 52 20; 
53 24; 54 11; 55 14; 56 33; 57 39; 
59 11; 60 2; 61 14; 62 45; 63 145; 
64 35; 65 65; 66 9; 67 7; 68 13; 
69 3; 70 34; 72 18; 73 39; 74 58; 
75 105; 76 48; 77 180; 78 46; 79 20; 
81 1; 82 2; 83 1; 84 5; 85 11; 
86 24; 87 43; 89 171; 90 36; 91 216; 
92 19; 93 4; 94 1; 98 21; 99 39; 
100 10; 101 67; 102 109; 103 117; 104 27; 
105 19; 106 3; 107 1; 108 2; 109 1; 
110 4; 111 9; 112 13; 113 31; 115 999; 
116 446; 117 361; 118 54; 119 21; 120 2; 
121 1; 122 1; 123 10; 125 115; 126 44; 
127 145; 128 228; 129 234; 130 152; 131 258; 
132 33; 133 1; 136 12; 137 13; 138 64; 
139 119; 140 34; 141 51; 142 28; 143 47; 
144 70; 145 46; 146 7; 147 1; 149 53; 
151 329; 152 529; 153 789; 154 246; 155 241; 
156 28; 157 5; 158 12; 159 15; 160 29; 
161 5; 162 11; 163 29; 164 68; 165 71; 
166 426; 167 130; 168 129; 169 34; 170 4; 
175 1; 176 2; 177 9; 178 51; 180 324; 
181 38; 182 91; 183 10; 184 1; 188 1; 
190 3; 192 12; 193 18; 194 92; 195 421; 
196 79; 197 131; 198 17; 199 1; 
