Name: Ibogaine
Synon: 12-Methoxyibogamine
Synon: TIHKAL #25
Synon: 7-Ethyl-6,6.beta.,7,8,9,10,12,13-octahydro-2-methoxy-6,9-methano-5H-pyrido [1', 2':1,2] azepino [5,4-b] indole
Synon: Tabernanthe iboga
InChIKey: HSIBGVUMFOSJPD-UHFFFAOYSA-N
Formula: C20H26N2O
MW: 310
ExactMass: 310.204514
CASNO: 83749
ID: 4229
Comment: DEA SWL / SWGDRUG Monograph available
Num Peaks: 217
40 3; 41 72; 42 50; 43 11; 44 11; 
50 1; 51 6; 52 5; 53 16; 54 13; 
55 40; 56 9; 57 3; 58 6; 62 1; 
63 9; 64 3; 65 13; 66 7; 67 43; 
68 31; 69 11; 70 10; 71 1; 72 1; 
74 1; 75 4; 76 6; 77 31; 78 11; 
79 22; 80 33; 81 20; 82 30; 83 8; 
84 11; 85 3; 86 1; 87 1; 88 3; 
89 14; 90 10; 91 21; 92 7; 93 24; 
94 72; 95 26; 96 24; 97 6; 98 51; 
99 5; 100 3; 101 6; 102 13; 103 17; 
104 10; 105 8; 106 11; 107 27; 108 70; 
109 13; 110 15; 111 4; 112 4; 113 4; 
114 8; 115 51; 116 25; 117 27; 118 10; 
119 10; 120 16; 121 62; 122 383; 123 71; 
124 85; 125 11; 126 10; 127 31; 128 35; 
129 20; 130 29; 131 14; 132 9; 133 14; 
134 18; 135 743; 136 999; 137 103; 138 7; 
139 9; 140 30; 141 29; 142 73; 143 104; 
144 37; 145 12; 146 8; 148 172; 149 352; 
150 54; 151 6; 152 10; 153 12; 154 90; 
155 215; 156 47; 157 18; 158 63; 159 17; 
160 44; 161 18; 162 3; 163 1; 164 2; 
165 6; 166 14; 167 48; 168 39; 169 23; 
170 37; 171 35; 172 22; 173 51; 174 51; 
175 9; 176 2; 177 1; 178 5; 179 5; 
180 22; 181 16; 182 28; 183 25; 184 25; 
185 25; 186 140; 187 37; 188 14; 189 3; 
190 2; 191 4; 192 8; 193 9; 194 12; 
195 13; 196 16; 197 18; 198 49; 199 26; 
200 21; 201 9; 202 4; 203 2; 204 4; 
205 3; 206 5; 207 4; 208 6; 209 7; 
210 30; 211 18; 212 29; 213 16; 214 9; 
215 3; 216 1; 217 1; 218 1; 219 1; 
220 3; 221 4; 222 6; 223 9; 224 64; 
225 372; 226 68; 227 11; 228 2; 234 2; 
235 2; 236 6; 237 7; 238 10; 239 7; 
240 2; 241 1; 248 1; 249 2; 250 5; 
251 6; 252 6; 253 13; 254 5; 255 1; 
263 1; 264 4; 265 4; 266 9; 267 7; 
268 1; 278 2; 279 5; 280 4; 281 16; 
282 4; 293 3; 295 96; 296 20; 297 2; 
307 2; 308 8; 309 69; 310 517; 311 118; 
312 13; 313 1; 
