Name: FUB-144
Synon: FUB-UR-144
Synon: (1-(4-Fluorobenzyl)-1H-indol-3-yl)(2,2,3,3-tetramethylcyclopropyl)methanone
InChIKey: UXOFEILQVZFLRH-UHFFFAOYSA-N
Formula: C23H24FNO
MW: 349
ExactMass: 349.184193
CASNO: 0
ID: 4232
Comment: Provided by www.caymanchem.com/app/template/landing%2CForensic.vm / Item #15537  Lot #0455762 / SWGDRUG Monograph available
Num Peaks: 188
40 2; 41 31; 42 4; 43 13; 44 1; 
51 4; 52 3; 53 9; 54 2; 55 37; 
56 2; 57 14; 58 1; 59 5; 62 3; 
63 7; 64 1; 65 6; 67 11; 68 1; 
69 10; 70 1; 73 7; 74 3; 75 7; 
76 5; 77 9; 78 3; 79 11; 81 30; 
82 6; 83 87; 84 7; 87 2; 88 7; 
89 20; 90 5; 91 4; 92 1; 93 1; 
95 3; 96 15; 97 13; 98 1; 99 1; 
101 9; 102 6; 103 3; 105 3; 106 1; 
107 13; 109 999; 110 80; 111 4; 113 2; 
114 8; 115 24; 116 7; 117 7; 118 3; 
120 1; 121 1; 122 1; 123 1; 124 1; 
125 1; 126 1; 127 4; 128 12; 129 7; 
130 5; 136 1; 138 1; 139 4; 140 4; 
141 2; 142 4; 143 11; 144 5; 147 1; 
149 2; 151 2; 152 5; 153 3; 154 7; 
155 4; 156 3; 157 2; 158 3; 159 1; 
161 1; 163 2; 164 1; 165 4; 167 48; 
168 12; 169 2; 170 3; 172 1; 174 1; 
175 2; 176 2; 177 2; 178 3; 179 3; 
180 21; 181 15; 182 41; 183 12; 184 5; 
187 1; 191 2; 192 3; 193 8; 194 13; 
195 5; 196 12; 197 6; 198 4; 200 1; 
201 1; 202 1; 204 3; 207 20; 208 1; 
210 42; 211 8; 212 1; 219 1; 220 1; 
221 7; 222 21; 223 7; 224 17; 225 30; 
226 11; 227 1; 231 1; 233 1; 235 1; 
238 1; 239 1; 240 5; 241 1; 247 1; 
250 6; 252 456; 253 82; 254 11; 255 2; 
259 1; 265 1; 266 9; 267 47; 268 9; 
269 1; 270 1; 272 1; 274 1; 276 21; 
277 4; 278 1; 279 1; 281 6; 282 2; 
288 1; 290 17; 291 21; 292 9; 293 1; 
294 1; 306 21; 307 4; 308 9; 316 1; 
318 1; 319 3; 320 1; 327 2; 329 1; 
331 1; 332 4; 334 71; 335 15; 341 2; 
349 66; 350 17; 351 2; 
