Name: 5-Fluoro-SDB-006
InChIKey: VFLXAWVAWXHMFB-UHFFFAOYSA-N
Synon: N-Benzyl-1-(5-Fluoropentyl)-1H-indole-3-carboxamide
Synon: 5F-SDB-006
Formula: C21H23FN2O
MW: 338
ExactMass: 338.179441
CASNO: 0
ID: 4236
Comment: Provided by www.caymanchem.com/app/template/landing%2CForensic.vm / Item #15390  Lot #0455218 / SWGDRUG Monograph available
Num Peaks: 211
40 10; 41 72; 43 26; 45 3; 46 2; 
47 17; 48 1; 50 6; 51 20; 52 9; 
53 5; 54 1; 55 9; 56 1; 57 2; 
59 10; 61 9; 62 4; 63 14; 65 38; 
66 4; 67 5; 69 17; 70 1; 71 1; 
73 19; 74 8; 75 14; 76 16; 77 82; 
78 43; 79 70; 80 7; 82 1; 83 1; 
84 1; 85 2; 86 1; 87 4; 88 14; 
89 60; 91 182; 92 19; 93 2; 94 1; 
96 8; 97 2; 99 3; 101 24; 102 46; 
103 42; 104 62; 105 23; 106 27; 107 11; 
108 3; 109 5; 110 1; 111 1; 113 1; 
114 15; 115 65; 116 136; 117 33; 118 23; 
119 6; 120 2; 121 1; 123 2; 125 1; 
126 1; 128 48; 129 104; 130 203; 131 71; 
132 27; 133 14; 134 3; 135 7; 136 1; 
138 1; 139 2; 140 5; 141 4; 142 18; 
143 83; 144 304; 145 39; 146 7; 147 6; 
149 3; 150 1; 151 1; 154 6; 155 42; 
156 21; 157 22; 158 24; 159 7; 160 1; 
161 1; 163 5; 164 2; 165 4; 167 5; 
168 7; 170 24; 171 12; 172 6; 173 4; 
175 2; 176 5; 177 3; 178 7; 179 4; 
180 2; 181 2; 182 2; 183 5; 184 8; 
185 7; 186 5; 187 2; 188 2; 189 2; 
191 10; 192 5; 193 7; 194 3; 195 2; 
196 1; 198 5; 199 2; 200 1; 201 1; 
202 1; 203 5; 205 169; 206 162; 207 122; 
208 27; 209 11; 210 3; 211 4; 212 18; 
213 4; 214 1; 215 1; 216 3; 218 8; 
219 4; 220 9; 221 2; 223 1; 225 1; 
226 1; 227 1; 229 2; 230 11; 232 999; 
233 214; 234 23; 235 5; 236 1; 240 1; 
241 1; 242 1; 245 3; 246 5; 247 1; 
249 9; 250 2; 251 1; 253 9; 254 2; 
255 2; 257 1; 259 1; 261 1; 263 107; 
264 25; 265 2; 266 1; 267 2; 269 1; 
275 1; 281 18; 282 2; 283 3; 284 2; 
291 1; 293 1; 294 7; 295 2; 308 1; 
312 1; 316 1; 318 6; 319 1; 321 4; 
325 2; 326 1; 327 2; 328 2; 331 3; 
332 1; 338 342; 339 92; 340 18; 341 5; 
342 1; 
