Name: 5-Fluoro-AMB
Synon: 5-Fluoro-AMP
Synon: (S)-Methyl-2-(1-(5-fluoropentyl)-1H-indazole-3-carboxamido)-3-methylbutanoate
Synon: 5F-AMB
Synon: 5F-AMP
Synon: Methyl 2-(1-(5-fluoropentyl)-1H-indazole-3-carboxamido)-3-methylbutanoate
InChIKey: SAFXSUZMRLTBMM-MRXNPFEDSA-N
Formula: C19H26FN3O3
MW: 363
ExactMass: 363.19582
CASNO: 0
ID: 4241
Comment: Provided by www.caymanchem.com/app/template/landing%2CForensic.vm / Item #15489  Lot #0455089 / SWGDRUG Monograph available
Num Peaks: 163
41 65; 42 9; 43 61; 44 5; 45 2; 
46 1; 47 8; 50 1; 51 3; 52 1; 
53 4; 54 4; 55 31; 56 9; 57 2; 
59 35; 60 3; 61 2; 62 3; 63 5; 
64 2; 65 2; 66 1; 67 5; 68 4; 
69 35; 70 11; 71 15; 72 6; 73 7; 
74 4; 75 7; 76 13; 77 20; 78 3; 
79 1; 82 1; 83 3; 85 1; 86 1; 
87 5; 88 32; 89 24; 90 56; 91 8; 
92 1; 96 2; 98 9; 99 1; 102 30; 
103 89; 104 27; 105 4; 107 1; 108 1; 
114 4; 115 4; 116 7; 117 35; 118 10; 
119 3; 121 2; 127 1; 128 5; 129 36; 
130 52; 131 120; 132 17; 133 2; 135 1; 
141 1; 142 4; 143 9; 145 342; 146 33; 
147 3; 149 1; 152 1; 154 1; 155 3; 
156 6; 157 10; 158 18; 159 4; 160 2; 
161 6; 162 1; 168 1; 169 3; 171 18; 
172 7; 174 53; 175 42; 177 46; 178 4; 
179 1; 182 1; 183 2; 184 4; 185 18; 
186 6; 187 3; 188 1; 189 1; 198 1; 
199 7; 200 4; 201 2; 203 4; 204 1; 
205 3; 207 9; 208 1; 210 1; 211 1; 
213 96; 214 17; 215 5; 216 4; 220 1; 
221 1; 227 1; 228 9; 229 4; 231 14; 
233 999; 234 139; 235 11; 244 1; 246 4; 
247 5; 249 115; 250 17; 251 1; 253 2; 
255 1; 261 8; 262 1; 267 1; 270 1; 
274 1; 275 1; 284 8; 285 2; 286 1; 
288 7; 289 10; 290 1; 302 3; 304 356; 
305 68; 306 8; 316 3; 320 8; 321 7; 
328 1; 331 4; 332 3; 341 1; 343 2; 
363 48; 364 8; 365 1; 
