Name: 5-Fluoro-ADBICA
Synon: N-(1-amino-3,3-dimethyl-1-oxobutan-2-yl)-1-(5-fluoropentyl)-1H-indole-3-carboxamide
Synon: 5F-ADBICA
InChIKey: ITZSOCZDFSHNCL-KRWDZBQOSA-N
Formula: C20H28FN3O2
MW: 361
ExactMass: 361.216555
CASNO: 0
ID: 4242
Comment: Provided by www.caymanchem.com/app/template/landing%2CForensic.vm / Item #14766  Lot #0451075 / SWGDRUG Monograph available
Num Peaks: 165
41 62; 42 9; 43 18; 44 25; 45 2; 
46 1; 47 7; 50 1; 51 3; 52 1; 
53 3; 54 1; 55 9; 56 7; 57 46; 
58 3; 59 3; 61 2; 62 2; 63 2; 
64 1; 65 1; 67 3; 68 3; 69 26; 
70 6; 71 1; 73 7; 74 2; 75 3; 
76 4; 77 7; 78 2; 81 1; 82 2; 
83 1; 86 2; 87 2; 88 5; 89 18; 
90 4; 91 2; 96 1; 97 1; 100 2; 
101 8; 102 19; 103 9; 104 2; 105 1; 
112 1; 113 1; 114 8; 115 27; 116 49; 
117 9; 118 3; 119 1; 127 2; 128 22; 
129 46; 130 39; 131 5; 132 1; 133 1; 
135 1; 140 2; 141 1; 142 6; 143 44; 
144 161; 145 15; 146 2; 148 2; 153 1; 
154 3; 155 13; 156 9; 157 14; 158 6; 
159 2; 167 3; 168 4; 169 2; 170 13; 
171 3; 172 3; 173 11; 174 2; 176 2; 
177 1; 179 1; 181 1; 182 1; 183 2; 
184 6; 185 3; 186 2; 191 1; 192 1; 
193 4; 195 1; 196 1; 197 1; 198 4; 
199 4; 200 1; 203 2; 204 3; 205 9; 
207 8; 208 1; 209 2; 210 2; 211 3; 
212 11; 213 5; 214 2; 215 1; 221 1; 
225 1; 227 1; 230 17; 232 999; 233 154; 
234 14; 235 1; 241 2; 248 4; 249 1; 
253 2; 255 1; 259 4; 260 13; 261 2; 
262 1; 267 2; 268 4; 269 1; 270 1; 
281 2; 282 1; 285 2; 287 31; 288 94; 
289 17; 290 2; 303 1; 304 1; 305 7; 
306 1; 317 22; 318 5; 327 1; 328 1; 
329 3; 330 2; 331 1; 341 1; 343 9; 
344 12; 345 2; 346 2; 361 27; 362 5; 
