Name: Butalbital
Synon: 5-allyl-5-isobutylbarbituric acid
Synon: 5-(2-methylpropyl)-5-(2-propenyl)-2,4,6(1H,3H,5H)-pyrimidinetrione
InChIKey: UZVHFVZFNXBMQJ-UHFFFAOYSA-N
Formula: C11H16N2O3
MW: 224
ExactMass: 224.116093
CASNO: 77269
ID: 4245
Comment: DEA SWL / SWGDRUG Monograph available
Num Peaks: 107
40 40; 41 579; 42 54; 43 164; 44 68; 
45 5; 50 11; 51 31; 52 40; 53 120; 
54 57; 55 94; 56 42; 57 62; 58 5; 
59 2; 61 3; 62 1; 63 8; 64 3; 
65 50; 66 41; 67 114; 68 36; 69 40; 
70 45; 71 7; 72 1; 73 4; 77 32; 
78 25; 79 38; 80 75; 81 43; 82 25; 
83 16; 84 12; 85 4; 86 1; 87 2; 
91 17; 92 10; 93 20; 94 27; 95 63; 
96 131; 97 214; 98 140; 99 11; 100 1; 
105 3; 106 51; 107 13; 108 55; 109 28; 
110 28; 111 16; 112 19; 113 4; 114 1; 
119 1; 120 7; 121 13; 122 30; 123 35; 
124 267; 125 32; 126 10; 127 1; 128 4; 
129 8; 134 1; 135 3; 136 10; 137 5; 
138 39; 139 12; 140 12; 141 186; 142 20; 
143 2; 148 2; 149 8; 150 13; 151 37; 
152 13; 153 154; 154 15; 155 8; 163 1; 
164 5; 165 15; 167 841; 168 999; 169 113; 
170 12; 179 1; 181 192; 182 48; 183 28; 
184 6; 191 2; 195 5; 196 1; 207 1; 
209 15; 210 1; 
