Name: 3-Bromomethcathinone
Synon: 3-BMC
Synon: 1-(3-Bromophenyl)-2-(methylamino)-1-propanone
InChIKey: PXLYROINIXKFAW-UHFFFAOYSA-N
Formula: C10H12BrNO
MW: 241
ExactMass: 241.010226
CASNO: 676487426
ID: 4247
Comment: Provided by www.caymanchem.com/app/template/landing%2CForensic.vm / Item #14035  Lot #0444433 / SWGDRUG Monograph available
Num Peaks: 71
40 3; 41 13; 42 44; 43 22; 44 2; 
50 37; 51 11; 52 2; 53 2; 54 5; 
56 75; 58 999; 59 40; 61 1; 62 3; 
63 4; 65 1; 73 7; 74 45; 75 82; 
76 86; 77 24; 78 6; 79 4; 80 2; 
81 2; 82 1; 86 2; 87 1; 88 1; 
89 3; 90 1; 91 2; 92 1; 101 1; 
102 3; 103 4; 104 6; 105 3; 107 1; 
115 2; 116 1; 117 1; 118 1; 128 1; 
129 4; 130 2; 131 6; 132 3; 133 2; 
145 1; 146 1; 147 10; 148 1; 155 62; 
156 8; 157 59; 158 7; 160 1; 161 1; 
169 1; 171 1; 183 17; 184 2; 185 16; 
186 1; 198 1; 210 1; 212 1; 214 1; 
226 1; 
