Name: Boldenone Acetate
Synon: Dehydrotestosterone acetate
InChIKey: KPCDGGNHYODURF-UHFFFAOYSA-N
Formula: C21H28O3
MW: 328
ExactMass: 328.203844
CASNO: 2363599
ID: 4249
Comment: DEA SWL / SWGDRUG Monograph available
Num Peaks: 167
41 46; 43 283; 44 7; 45 2; 50 1; 
51 7; 52 5; 53 25; 55 56; 56 2; 
57 6; 63 3; 65 26; 66 6; 67 40; 
68 5; 69 12; 70 1; 71 3; 75 1; 
77 78; 78 19; 79 72; 80 12; 81 38; 
82 8; 83 6; 84 1; 85 1; 89 4; 
91 193; 92 37; 93 81; 94 19; 95 25; 
96 4; 97 10; 98 1; 102 3; 103 19; 
104 10; 105 89; 106 20; 107 67; 108 72; 
109 40; 110 18; 111 5; 115 40; 116 15; 
117 37; 118 11; 119 52; 120 27; 121 246; 
122 999; 123 106; 124 9; 127 10; 128 28; 
129 29; 130 11; 131 48; 132 18; 133 83; 
134 82; 135 40; 136 10; 137 4; 139 1; 
141 13; 142 8; 143 14; 144 14; 145 54; 
146 38; 147 192; 148 28; 149 6; 150 2; 
151 7; 152 6; 153 6; 154 3; 155 8; 
156 3; 157 16; 158 16; 159 48; 160 48; 
161 43; 162 8; 163 4; 164 2; 165 17; 
166 4; 167 3; 168 2; 169 6; 170 4; 
171 15; 172 12; 173 25; 174 11; 175 4; 
176 2; 177 1; 178 2; 179 3; 180 1; 
181 3; 182 1; 183 6; 184 3; 185 10; 
186 6; 187 5; 188 2; 189 1; 191 1; 
192 1; 193 1; 194 1; 195 3; 196 2; 
197 7; 198 4; 199 7; 200 3; 201 1; 
206 1; 207 2; 208 1; 209 2; 210 1; 
211 7; 212 4; 213 5; 214 2; 221 1; 
223 1; 224 1; 225 12; 226 3; 227 9; 
228 1; 229 1; 235 3; 239 5; 240 7; 
241 2; 250 2; 251 5; 253 18; 254 3; 
257 1; 268 15; 269 4; 271 4; 272 1; 
285 1; 286 8; 287 2; 300 1; 328 21; 
329 5; 330 1; 
