Name: AM2201 benzimidazole analog
Synon: Fubimina
Synon: FTHJ
Synon: (1-(5-Fluoropentyl)-1H-benzo[d]imidazol-2-yl)(naphthalen-1-yl)methanone
Synon: FUBINA
InChIKey: KUESSZMROAFKQJ-UHFFFAOYSA-N
Formula: C23H21FN2O
MW: 360
ExactMass: 360.163792
CASNO: 0
ID: 4251
Comment: Provided by www.caymanchem.com/app/template/landing%2CForensic.vm / Item #15202  Lot #0453507 / SWGDRUG Monograph available
Num Peaks: 220
41 80; 42 7; 43 29; 44 1; 45 1; 
47 22; 50 6; 51 17; 52 4; 53 7; 
54 1; 55 12; 56 1; 57 1; 59 10; 
60 1; 61 6; 62 4; 63 13; 64 9; 
65 8; 66 1; 67 5; 69 24; 70 1; 
73 5; 74 9; 75 34; 76 39; 77 95; 
78 9; 79 1; 85 1; 86 2; 87 5; 
88 5; 89 9; 90 23; 91 12; 92 8; 
93 1; 94 1; 96 2; 98 3; 99 4; 
101 50; 102 48; 103 57; 104 13; 105 2; 
107 1; 108 1; 109 1; 112 1; 113 5; 
114 6; 115 22; 116 11; 117 14; 118 16; 
119 8; 120 1; 122 11; 123 1; 125 13; 
126 148; 127 969; 128 147; 129 39; 130 23; 
131 20; 132 6; 133 3; 134 3; 135 7; 
136 7; 137 1; 138 2; 139 10; 140 15; 
141 28; 142 15; 143 13; 144 9; 145 15; 
146 2; 147 4; 148 1; 149 3; 150 3; 
151 4; 152 14; 153 23; 155 279; 156 39; 
157 16; 158 10; 159 7; 160 1; 162 1; 
163 4; 164 4; 165 6; 166 3; 167 8; 
168 4; 169 6; 171 22; 172 4; 173 1; 
175 1; 176 2; 177 5; 178 2; 179 1; 
180 4; 181 2; 182 1; 183 2; 184 1; 
185 5; 186 1; 187 3; 188 4; 189 10; 
190 8; 191 5; 192 1; 193 2; 195 2; 
197 1; 200 2; 201 2; 202 3; 203 4; 
204 4; 205 19; 207 32; 208 8; 209 4; 
212 1; 213 3; 214 21; 215 14; 216 23; 
217 13; 218 2; 219 1; 221 1; 226 2; 
227 4; 228 6; 229 3; 230 7; 231 4; 
232 1; 239 2; 240 7; 241 31; 242 112; 
243 242; 244 192; 245 48; 246 6; 249 1; 
253 10; 255 48; 256 86; 257 209; 258 251; 
259 45; 260 4; 265 1; 266 1; 267 3; 
268 4; 269 27; 271 999; 272 229; 273 30; 
279 1; 281 8; 282 3; 283 10; 284 11; 
285 67; 286 17; 287 2; 293 2; 295 2; 
297 7; 299 49; 300 12; 301 2; 309 1; 
311 4; 312 1; 313 4; 315 2; 323 1; 
325 1; 327 2; 328 1; 329 1; 331 172; 
332 42; 333 5; 339 6; 340 4; 341 3; 
342 2; 343 7; 344 2; 346 1; 357 2; 
359 753; 360 531; 361 112; 362 15; 363 1; 
