Name: AB-CHMINACA
Synon: N-[(1S)-1-(aminocarbonyl)-2-methylpropyl]-1-(cyclohexylmethyl)-1H-indazole-3-carboxamide
Synon: N-(1-amino-3-methyl-1-oxobutan-2-yl)-1-(cyclohexylmethyl)-1H-indazole-3-carboxamide
InChIKey: KJNZIEGLNLCWTQ-QGZVFWFLSA-N
Formula: C20H28N4O2
MW: 356
ExactMass: 356.221226
CASNO: 1185887211
ID: 4252
Comment: Provided by www.caymanchem.com/app/template/landing%2CForensic.vm / Item #15434  Lot #0455353 / SWGDRUG Monograph available
Num Peaks: 185
40 3; 41 64; 42 9; 43 33; 44 62; 
45 3; 46 2; 51 4; 52 2; 53 10; 
55 140; 56 14; 57 5; 58 1; 59 2; 
60 1; 61 1; 62 2; 63 4; 64 2; 
65 6; 67 22; 68 6; 69 12; 70 8; 
71 7; 72 39; 73 13; 74 1; 75 6; 
76 8; 77 27; 78 7; 79 7; 80 1; 
81 9; 82 4; 83 24; 84 3; 85 2; 
86 2; 87 2; 88 18; 89 16; 90 34; 
91 8; 92 1; 93 2; 95 10; 96 3; 
97 10; 98 7; 100 2; 102 22; 103 89; 
104 35; 105 4; 106 1; 107 1; 109 1; 
110 1; 113 1; 115 9; 116 7; 117 25; 
118 9; 119 4; 121 1; 125 1; 128 4; 
129 27; 130 37; 131 121; 132 17; 133 4; 
135 2; 138 1; 140 1; 143 7; 145 460; 
146 40; 147 8; 148 2; 149 3; 154 1; 
155 3; 156 7; 157 10; 158 17; 159 7; 
160 3; 161 5; 165 1; 166 1; 168 3; 
169 7; 170 2; 171 3; 172 2; 173 2; 
174 11; 175 11; 176 1; 177 2; 180 2; 
181 2; 182 2; 183 1; 184 1; 185 6; 
186 8; 187 2; 188 1; 189 1; 191 1; 
193 2; 194 2; 195 3; 197 2; 200 3; 
201 2; 202 2; 203 1; 207 15; 208 2; 
209 10; 210 4; 211 5; 212 7; 213 4; 
214 3; 216 5; 217 1; 219 1; 221 1; 
223 2; 224 1; 226 1; 228 16; 229 14; 
230 3; 234 1; 238 1; 239 24; 241 999; 
242 175; 243 15; 244 1; 247 1; 249 2; 
251 1; 252 1; 253 5; 254 3; 255 5; 
256 21; 257 12; 258 1; 267 2; 268 2; 
269 1; 270 2; 273 2; 281 1; 282 3; 
283 1; 284 1; 295 1; 296 2; 297 2; 
309 1; 310 4; 312 563; 313 130; 314 16; 
324 1; 327 3; 332 2; 338 4; 339 2; 
341 6; 354 1; 356 4; 357 1; 359 1; 
