Name: CUMYL-THPINACA
Synon: N-(2-phenylpropan-2-yl)-1-((tetrahydro-2H-pyran-4-yl)methyl)-1-H-indazole-3-carboxamide
InChIKey: HINCNLQQLQFMRD-UHFFFAOYSA-N
Formula: C23H27N3O2
MW: 377
ExactMass: 377.210327
CASNO: 1400742508
ID: 4254
Comment: ENFSI / EDND webpage, Slovenian NFP, confirmed by NMR
Num Peaks: 197
51 37; 52 9; 53 20; 54 6; 55 93; 
56 9; 57 32; 58 12; 59 1; 61 1; 
62 6; 63 16; 64 5; 65 20; 66 3; 
67 32; 68 5; 69 143; 70 11; 71 5; 
73 3; 74 5; 75 12; 76 26; 77 122; 
78 52; 79 54; 80 4; 81 39; 82 3; 
83 24; 84 5; 85 1; 86 1; 87 4; 
88 34; 89 27; 90 50; 91 269; 92 24; 
93 2; 94 1; 95 8; 96 8; 97 66; 
98 5; 99 162; 100 11; 101 5; 102 46; 
103 199; 104 87; 105 23; 106 4; 107 9; 
108 1; 113 1; 114 1; 115 42; 116 14; 
117 115; 118 140; 119 222; 120 74; 121 7; 
127 5; 128 11; 129 49; 130 43; 131 160; 
132 38; 133 15; 134 78; 135 18; 136 1; 
139 4; 140 1; 141 1; 142 4; 143 12; 
144 28; 145 301; 146 36; 147 7; 148 1; 
152 3; 154 1; 155 9; 156 25; 157 23; 
158 33; 159 13; 160 3; 161 79; 162 10; 
163 1; 165 1; 167 1; 168 4; 169 10; 
170 7; 171 25; 172 13; 174 119; 175 54; 
176 6; 177 1; 180 1; 181 2; 182 2; 
183 5; 184 7; 185 45; 186 11; 187 15; 
188 3; 189 1; 191 1; 192 1; 193 1; 
194 1; 195 1; 196 3; 197 4; 198 4; 
199 6; 200 6; 201 1; 202 6; 203 1; 
207 18; 208 4; 209 2; 210 1; 211 3; 
212 3; 213 10; 214 24; 215 136; 216 21; 
217 2; 219 1; 220 1; 221 2; 224 4; 
225 1; 228 3; 229 4; 230 8; 231 3; 
233 1; 234 2; 235 2; 236 1; 240 1; 
241 77; 242 32; 243 999; 244 160; 245 14; 
246 1; 247 1; 248 2; 249 1; 256 1; 
258 120; 259 61; 260 11; 261 1; 262 2; 
272 64; 273 11; 274 1; 276 2; 277 1; 
278 5; 279 1; 281 4; 282 1; 283 2; 
284 1; 291 1; 292 4; 293 1; 300 11; 
301 2; 320 4; 321 1; 334 1; 344 1; 
360 2; 362 376; 363 93; 364 13; 377 56; 
378 13; 379 2; 
