Name: CUMYL-PINACA
Synon: 1-pentyl-N-(2-phenylpropan-2-yl)-1H-indazole-3-carboxamide
InChIKey: LCBASRYREGWIJT-UHFFFAOYSA-N
Formula: C22H27N3O
MW: 349
ExactMass: 349.215412
CASNO: 1400742155
ID: 4255
Comment: ENFSI / EDND webpage, Slovenian NFP, confirmed by NMR
Num Peaks: 146
51 30; 52 8; 53 4; 54 1; 55 10; 
56 3; 57 4; 58 9; 61 1; 62 6; 
63 14; 64 4; 65 13; 66 2; 67 1; 
68 1; 69 4; 70 1; 71 2; 73 3; 
74 5; 75 9; 76 18; 77 89; 78 41; 
79 24; 80 1; 84 1; 86 1; 87 3; 
88 27; 89 28; 90 55; 91 150; 92 15; 
93 2; 95 4; 96 2; 100 1; 101 3; 
102 35; 103 135; 104 60; 105 15; 106 2; 
107 4; 114 1; 115 34; 116 12; 117 100; 
118 105; 119 93; 120 36; 121 3; 125 4; 
127 1; 128 5; 129 27; 130 24; 131 95; 
132 22; 133 7; 134 50; 135 11; 139 10; 
142 2; 143 14; 144 25; 145 378; 146 44; 
147 4; 154 1; 155 2; 156 21; 157 11; 
158 26; 159 7; 160 3; 161 33; 162 3; 
163 1; 165 1; 169 2; 170 5; 171 19; 
172 9; 174 122; 175 66; 176 6; 177 1; 
184 3; 185 14; 186 6; 187 64; 188 10; 
189 2; 191 2; 193 1; 198 1; 199 6; 
200 1; 201 3; 202 3; 207 20; 208 4; 
209 1; 213 22; 215 999; 216 147; 217 12; 
218 1; 221 1; 222 1; 228 1; 230 10; 
231 55; 232 10; 233 1; 234 1; 235 2; 
244 41; 245 6; 248 1; 249 1; 255 1; 
262 1; 272 8; 273 1; 276 1; 278 5; 
279 1; 281 4; 282 1; 292 6; 293 1; 
306 1; 316 1; 332 2; 333 1; 334 254; 
335 61; 336 6; 348 1; 349 45; 350 12; 
351 1; 
