Name: 3-Chloromethcathinone
Synon: 3-CMC
Synon: 1-(3-Chlorophenyl)-2-(methylamino)-1-propanone
Synon: meta-Chloromethcathinone
Synon: Clophedrone
InChIKey: VOEFELLSAAJCHJ-UHFFFAOYSA-N
Formula: C10H12ClNO
MW: 197
ExactMass: 197.060741
CASNO: 1607439326
ID: 4256
Comment: Provided by www.caymanchem.com/app/template/landing%2CForensic.vm / Item #17394  Lot #047004 / SWGDRUG Monograph available
Num Peaks: 84
40 3; 41 14; 42 49; 43 26; 44 3; 
49 2; 50 35; 51 18; 52 3; 53 2; 
54 8; 55 8; 56 170; 57 24; 58 999; 
59 35; 60 1; 61 4; 62 4; 63 7; 
64 1; 65 1; 70 1; 72 1; 73 8; 
74 36; 75 128; 76 30; 77 19; 78 2; 
84 4; 85 15; 86 4; 87 7; 88 1; 
89 5; 90 1; 91 2; 99 1; 101 2; 
102 3; 103 5; 104 1; 105 1; 110 3; 
111 127; 112 14; 113 41; 114 5; 115 3; 
116 1; 117 1; 118 1; 125 5; 127 1; 
130 1; 131 3; 132 1; 133 2; 137 1; 
138 1; 139 45; 140 5; 141 14; 142 1; 
146 2; 147 9; 152 1; 154 2; 160 2; 
161 1; 164 1; 166 4; 167 2; 168 3; 
180 1; 181 2; 182 4; 183 1; 184 1; 
193 1; 194 1; 195 1; 196 1; 
