Name: 2,3-Ethylone
Synon: 2,3-bk-MDEA
Synon: 1-(Benzo[d][1,3-dioxol-4-yl)-2-(ethylamino)propan-1-one
InChIKey: QJADLMNXVWSLDV-UHFFFAOYSA-N
Formula: C12H15NO3
MW: 221
ExactMass: 221.105193
CASNO: 0
ID: 4257
Comment: Provided by www.caymanchem.com/app/template/landing%2CForensic.vm / Item #9002142  Lot #0462961
Num Peaks: 74
40 3; 41 9; 42 37; 43 8; 44 160; 
45 5; 50 4; 51 7; 52 2; 53 8; 
54 3; 55 3; 56 29; 57 7; 61 4; 
62 14; 63 48; 64 11; 65 97; 66 9; 
67 1; 68 3; 69 2; 70 31; 71 9; 
72 999; 73 47; 74 6; 75 3; 76 3; 
77 8; 78 3; 79 3; 89 3; 90 1; 
91 32; 92 9; 93 4; 102 1; 103 4; 
104 1; 105 2; 107 3; 108 1; 117 1; 
118 1; 119 8; 120 4; 121 24; 122 8; 
123 1; 131 1; 132 1; 135 11; 136 1; 
146 2; 147 4; 148 2; 149 71; 150 10; 
162 2; 163 1; 176 1; 177 2; 178 11; 
179 1; 191 1; 204 1; 205 1; 206 1; 
207 8; 208 1; 209 2; 221 2; 
