Name: 3-Desoxy-3,4-Methylenedioxypyrovalerone
Synon: 5-DBFPV
Synon: 3-Desoxy-3,4-MDPV
Synon: 1-(2,3-Dihydrobenzofuran-5-yl)-2-(pyrrolidin-1-yl)pentan-1-one
InChIKey: CIGWUZUBQBQZAO-UHFFFAOYSA-N
Formula: C17H23NO2
MW: 273
ExactMass: 273.172878
CASNO: 0
ID: 4258
Comment: Provided by www.caymanchem.com/app/template/landing%2CForensic.vm / Item #16437  Lot #0464805 / SWGDRUG Monograph available
Num Peaks: 82
40 2; 41 28; 42 36; 43 11; 44 1; 
50 1; 51 5; 52 1; 53 6; 54 13; 
55 40; 56 12; 57 3; 62 2; 63 9; 
64 2; 65 32; 66 2; 67 2; 68 9; 
69 23; 70 14; 71 1; 72 2; 73 1; 
75 1; 76 1; 77 3; 78 1; 79 2; 
80 2; 81 1; 82 4; 83 1; 84 26; 
85 1; 89 10; 90 4; 91 42; 92 4; 
93 1; 94 3; 95 2; 96 29; 97 25; 
98 9; 103 1; 105 1; 108 1; 110 11; 
111 1; 115 3; 117 1; 118 2; 119 16; 
120 2; 122 1; 124 19; 125 4; 126 999; 
127 89; 128 4; 131 1; 133 6; 144 1; 
145 1; 146 1; 147 55; 148 5; 157 1; 
158 1; 159 1; 162 3; 173 2; 175 3; 
202 2; 204 1; 207 6; 208 1; 228 1; 
230 3; 253 1; 
