Name: 5-Fluoro-ADB
InChIKey: PWEKNGSNNAKWBL-QGZVFWFLSA-N
Synon: 5-Fluoro-MDMB-PINACA
Synon: Methyl (R)-2-(1-(5-fluoropentyl)-1H-indazole-3-carboxamido)-3,3-dimethylbutanoate
Synon: 5F-ADB
Synon: 5F-MDMB-PINACA
Synon: Methyl 2-(1-(5-fluoropentyl)-1H-indazole-3-carboxamido)-3,3-dimethylbutanoate
Synon: ADB-5F
Synon: 5F-Methyl-AMB
Synon: 5-Fluoro-MAMB
Formula: C20H28FN3O3
MW: 377
ExactMass: 377.21147
CASNO: 0
ID: 4259
Comment: Provided by www.caymanchem.com/app/template/landing%2CForensic.vm / Item #16603  Lot #0462212
Num Peaks: 178
40 4; 41 109; 42 11; 43 17; 44 5; 
45 2; 46 1; 47 8; 50 2; 51 4; 
52 2; 53 7; 54 3; 55 22; 56 9; 
57 144; 58 7; 59 44; 60 3; 61 4; 
62 4; 63 6; 64 2; 65 3; 66 1; 
67 9; 68 6; 69 76; 70 20; 71 2; 
73 14; 74 3; 75 7; 76 18; 77 26; 
78 5; 79 1; 82 2; 83 6; 84 8; 
85 7; 86 6; 87 4; 88 42; 89 33; 
90 74; 91 11; 92 2; 95 1; 96 2; 
98 1; 99 1; 101 3; 102 37; 103 122; 
104 41; 105 5; 112 4; 114 5; 115 4; 
116 9; 117 45; 118 19; 119 5; 121 3; 
122 1; 127 1; 128 6; 129 46; 130 45; 
131 336; 132 36; 133 3; 141 1; 142 3; 
143 12; 144 39; 145 434; 146 40; 147 4; 
148 1; 149 1; 154 1; 155 3; 156 6; 
157 20; 158 19; 159 8; 160 2; 161 1; 
167 1; 168 2; 169 3; 170 3; 171 45; 
172 10; 173 4; 174 12; 175 5; 176 1; 
177 52; 178 5; 182 1; 183 2; 184 2; 
185 16; 186 14; 187 3; 189 1; 190 1; 
191 1; 198 1; 199 3; 200 2; 201 21; 
202 3; 203 5; 204 1; 205 2; 206 5; 
207 5; 210 1; 212 2; 213 76; 214 16; 
215 4; 226 1; 228 2; 229 1; 230 1; 
231 16; 233 999; 234 161; 235 15; 242 2; 
243 1; 244 1; 246 107; 247 23; 248 5; 
250 1; 253 1; 254 1; 260 1; 261 4; 
262 6; 263 1; 265 2; 269 1; 272 2; 
275 2; 278 5; 281 1; 287 1; 289 326; 
290 51; 291 4; 300 1; 301 1; 302 6; 
303 5; 304 1; 316 2; 318 142; 319 30; 
321 280; 322 50; 323 6; 324 1; 330 9; 
331 2; 345 1; 346 2; 347 1; 362 6; 
363 1; 377 17; 378 3; 
