Name: 5-Methoxy-methylone
Synon: 1-(7-methoxybenzo[d][1,3]dioxol-5-yl)-2-(methylamino)propan-1-one
InChIKey: MPMHRFOOZMFFBD-UHFFFAOYSA-N
Formula: C12H15NO4
MW: 237
ExactMass: 237.100108
CASNO: 0
ID: 4260
Comment: Provided by www.caymanchem.com/app/template/landing%2CForensic.vm / Item #9002195  Lot #0466680
Num Peaks: 106
40 1; 41 17; 42 55; 43 32; 44 3; 
45 3; 49 4; 50 46; 51 16; 52 14; 
53 23; 54 6; 55 11; 56 113; 57 32; 
58 999; 59 69; 61 7; 62 23; 63 33; 
64 9; 65 26; 66 18; 67 4; 68 2; 
69 15; 70 1; 72 1; 73 1; 74 2; 
75 3; 76 3; 77 30; 78 67; 79 21; 
80 12; 81 4; 82 1; 83 1; 89 4; 
90 5; 91 11; 92 6; 93 39; 94 4; 
95 105; 96 8; 103 1; 104 1; 105 3; 
106 9; 107 14; 108 3; 109 2; 111 1; 
117 1; 118 2; 119 3; 120 8; 121 15; 
122 5; 123 2; 132 1; 133 2; 134 4; 
135 4; 136 5; 137 6; 146 1; 147 1; 
148 3; 149 3; 150 3; 151 87; 152 25; 
153 3; 162 1; 163 2; 164 4; 165 15; 
166 1; 174 1; 176 1; 177 4; 178 2; 
179 121; 180 18; 181 2; 191 1; 192 4; 
193 1; 194 4; 204 1; 205 1; 206 3; 
207 8; 208 9; 209 2; 219 2; 220 1; 
221 2; 222 2; 235 2; 236 1; 237 4; 
238 1; 
