Name: Flubromazolam
Synon: 8-Bromo-6-(2-fluorophenyl)-1-methyl-4H-[1,2,4]-triazo[4,3-a][1,4]benzodiazepine
InChIKey: VXGSZBZQCBNUIP-UHFFFAOYSA-N
Formula: C17H12BrFN4
MW: 370
ExactMass: 370.022936
CASNO: 612526406
ID: 4262
Comment: Provided by www.caymanchem.com/app/template/landing%2CForensic.vm / Item #16435  Lot #0464453 / SWGDRUG Monograph available
Num Peaks: 288
40 9; 41 27; 42 27; 43 1; 45 3; 
46 3; 49 1; 50 51; 51 60; 52 20; 
53 10; 54 8; 55 3; 56 3; 57 24; 
58 1; 59 2; 61 10; 62 35; 63 56; 
64 21; 65 9; 66 13; 67 6; 68 15; 
69 18; 70 12; 71 2; 72 12; 73 10; 
74 74; 75 262; 76 69; 77 43; 78 13; 
79 6; 80 9; 81 33; 82 13; 83 19; 
84 20; 85 33; 86 19; 87 33; 88 54; 
89 35; 90 15; 91 6; 92 6; 93 11; 
94 51; 95 127; 96 16; 97 1; 98 102; 
99 35; 100 70; 101 99; 102 203; 103 35; 
104 6; 105 13; 106 15; 107 35; 108 13; 
109 33; 110 13; 112 155; 113 9; 114 22; 
115 63; 116 23; 117 13; 118 11; 119 16; 
120 27; 121 69; 122 50; 123 16; 125 19; 
126 10; 127 24; 128 19; 129 54; 130 12; 
131 21; 132 16; 133 14; 134 16; 135 13; 
136 3; 137 5; 138 3; 139 2; 140 15; 
141 23; 142 34; 143 12; 144 37; 145 23; 
146 9; 147 8; 148 2; 149 22; 150 21; 
151 27; 152 19; 153 6; 154 25; 155 48; 
156 41; 157 47; 158 23; 159 13; 160 2; 
161 7; 162 6; 163 14; 164 14; 165 13; 
166 4; 167 11; 168 62; 169 71; 170 74; 
171 16; 172 3; 173 2; 174 10; 175 42; 
176 55; 177 25; 178 7; 179 8; 180 45; 
181 156; 182 99; 183 99; 184 21; 185 4; 
186 2; 187 1; 188 7; 189 7; 190 6; 
192 4; 193 15; 194 57; 195 132; 196 62; 
197 26; 198 6; 199 2; 200 7; 201 33; 
202 51; 203 40; 204 25; 205 12; 206 13; 
207 47; 208 44; 209 39; 210 21; 211 5; 
213 1; 214 2; 215 2; 216 2; 217 3; 
218 1; 219 7; 220 30; 221 187; 222 999; 
223 314; 224 38; 225 3; 228 2; 229 4; 
230 8; 231 9; 232 4; 233 3; 234 10; 
235 9; 236 14; 237 33; 238 3; 239 1; 
240 1; 241 1; 242 6; 243 5; 244 1; 
245 1; 246 1; 247 6; 248 13; 249 21; 
250 37; 251 12; 252 2; 253 13; 254 3; 
256 2; 257 1; 258 1; 260 4; 261 22; 
262 17; 263 76; 264 15; 265 1; 267 1; 
269 1; 271 1; 273 1; 274 3; 275 4; 
276 5; 277 5; 278 2; 280 1; 281 9; 
282 8; 283 14; 284 4; 285 10; 286 1; 
288 2; 289 2; 290 5; 291 66; 292 14; 
293 2; 297 2; 298 1; 299 2; 300 33; 
301 81; 302 59; 303 80; 304 23; 305 6; 
308 1; 309 2; 310 3; 311 3; 312 3; 
313 1; 314 2; 315 12; 316 22; 317 15; 
318 20; 319 3; 321 4; 322 2; 323 24; 
324 6; 325 18; 326 3; 327 5; 328 24; 
329 10; 330 23; 331 5; 332 1; 339 1; 
341 515; 342 136; 343 512; 344 120; 345 12; 
346 3; 350 3; 351 4; 352 4; 353 4; 
355 2; 357 2; 369 9; 370 227; 371 67; 
372 221; 373 41; 374 4; 
