Name: Ketazolam
Synon: 4H-[1,3]Oxazino[3,2-d][1,4]benzodiazepine-4,7(6H)-dione, 11-chloro-8,12b-dihydro-2,8-dimethyl-12b-phenyl-
Synon: Ansieten
Synon: U 28774
Synon: U-28,774
Synon: Unakalm
Synon: 11-Chloro-8,12b-dihydro-2,8-dimethyl-12b-phenyl-4H-(1,3)-oxazino(3,2-d)-(1,4)benzodiazepine-4,7(6H)dione
Synon: Anxon
Synon: Anseren
Synon: Contamex
Synon: Loftran
InChIKey: PWAJCNITSBZRBL-UHFFFAOYSA-N
Formula: C20H17ClN2O3
MW: 368
ExactMass: 368.09277
CASNO: 27223354
ID: 4264
Comment: Provided by www.caymanchem.com/app/template/landing%2CForensic.vm / Item #11449  Lot #0436512
Num Peaks: 239
40 12; 41 77; 42 217; 43 36; 44 1; 
46 1; 47 5; 48 1; 49 38; 50 279; 
51 691; 52 139; 53 32; 54 15; 55 11; 
56 23; 57 10; 58 9; 59 12; 60 6; 
61 60; 62 186; 63 540; 64 130; 65 311; 
66 71; 67 12; 68 28; 69 30; 70 49; 
71 6; 72 14; 73 121; 74 252; 75 583; 
76 444; 77 900; 78 108; 79 26; 80 7; 
82 181; 84 147; 85 45; 86 108; 87 191; 
88 161; 89 718; 90 226; 91 450; 92 49; 
93 36; 94 13; 95 15; 96 294; 97 215; 
98 111; 99 187; 100 143; 101 108; 102 303; 
103 216; 104 72; 105 25; 106 10; 107 22; 
108 41; 109 159; 110 646; 111 323; 112 93; 
113 166; 114 153; 115 138; 116 239; 117 420; 
118 68; 119 8; 120 56; 121 28; 122 22; 
123 88; 124 182; 125 377; 126 215; 127 290; 
128 131; 129 41; 130 8; 131 5; 132 4; 
134 33; 135 22; 136 87; 137 129; 138 159; 
139 144; 140 81; 141 23; 142 38; 143 11; 
144 26; 145 7; 146 13; 147 6; 148 7; 
149 44; 150 251; 151 378; 152 367; 153 88; 
154 35; 155 3; 156 2; 157 1; 158 4; 
159 1; 160 8; 161 21; 162 59; 163 362; 
164 257; 165 634; 166 143; 167 37; 168 11; 
171 1; 172 3; 173 10; 174 10; 175 29; 
176 79; 177 337; 178 200; 179 133; 180 41; 
181 30; 182 6; 183 7; 184 1; 185 5; 
186 19; 187 12; 188 22; 189 14; 190 86; 
191 108; 192 123; 193 203; 194 37; 195 7; 
196 1; 197 1; 198 8; 199 55; 200 19; 
201 31; 202 24; 203 29; 204 40; 205 189; 
206 58; 207 28; 209 5; 211 8; 212 15; 
213 68; 214 27; 215 30; 216 17; 217 12; 
218 20; 219 85; 220 45; 221 498; 222 101; 
223 8; 224 5; 225 1; 226 16; 227 28; 
228 111; 229 28; 230 39; 231 10; 232 2; 
233 14; 234 8; 235 1; 236 1; 237 4; 
238 50; 239 109; 240 43; 241 146; 242 30; 
243 33; 244 5; 245 1; 246 1; 247 5; 
248 51; 249 74; 250 11; 251 2; 252 2; 
253 13; 254 13; 255 453; 256 999; 257 428; 
258 340; 259 97; 260 13; 265 1; 266 1; 
267 5; 268 23; 269 6; 270 8; 271 2; 
273 1; 275 1; 276 1; 277 1; 278 1; 
279 2; 280 3; 281 3; 282 17; 283 572; 
284 416; 285 225; 286 133; 287 22; 288 2; 
295 1; 327 1; 332 1; 346 1; 
