Name: Hexedrone
Synon: 2-(Methylamino)-1-phenylhexan-1-one
Synon: .alpha.-Methylaminohexanophenone
InChIKey: BHIZKPHLTVLXIV-UHFFFAOYSA-N
Formula: C13H19NO
MW: 205
ExactMass: 205.146665
CASNO: 0
ID: 4269
Comment: Provided by www.caymanchem.com/app/template/landing%2CForensic.vm / Item #9002181  Lot #0466563
Num Peaks: 90
40 2; 41 98; 42 113; 43 61; 44 356; 
45 8; 49 1; 50 29; 51 108; 52 11; 
53 8; 54 11; 55 19; 56 83; 57 86; 
58 126; 59 4; 62 2; 63 6; 64 1; 
65 7; 66 2; 67 6; 68 21; 69 47; 
70 84; 71 14; 72 3; 73 1; 74 11; 
75 11; 76 24; 77 476; 78 49; 79 9; 
80 3; 81 1; 82 4; 83 2; 84 5; 
85 1; 89 7; 90 3; 91 25; 92 2; 
96 1; 98 53; 99 6; 100 999; 101 175; 
102 8; 103 10; 104 6; 105 196; 106 18; 
107 1; 115 10; 116 4; 117 6; 118 6; 
119 1; 120 18; 121 1; 127 2; 128 3; 
129 2; 130 6; 131 5; 132 4; 133 16; 
134 4; 143 1; 144 3; 145 2; 146 9; 
147 5; 148 56; 149 8; 150 1; 158 1; 
159 1; 160 2; 161 1; 162 1; 174 2; 
176 2; 203 1; 204 1; 206 1; 207 1; 
