Name: 5-Methoxy-DPT
Synon: 5-MeO-DPT
Synon: 5-Methoxy-N,N-dipropyltryptamine
InChIKey: PNHPVNBKLQWBKH-UHFFFAOYSA-N
Formula: C17H26N2O
MW: 274
ExactMass: 274.204514
CASNO: 69496759
ID: 4270
Comment: Provided by www.caymanchem.com/app/template/landing%2CForensic.vm / Item #17297  Lot #0467779 / SWGDRUG Monograph available
Num Peaks: 84
41 38; 42 28; 43 67; 44 17; 50 1; 
51 3; 52 2; 53 1; 54 1; 55 1; 
56 4; 57 6; 58 2; 62 1; 63 5; 
64 1; 65 2; 68 1; 70 9; 71 1; 
72 54; 73 3; 74 1; 75 2; 76 2; 
77 8; 78 2; 80 1; 84 17; 85 1; 
86 62; 87 4; 88 1; 89 10; 90 8; 
91 3; 98 1; 100 3; 101 2; 102 5; 
103 7; 104 4; 105 1; 112 7; 113 3; 
114 999; 115 84; 116 12; 117 28; 118 5; 
119 1; 123 6; 128 3; 129 4; 130 21; 
131 11; 132 3; 133 1; 141 1; 142 2; 
143 8; 144 10; 145 27; 146 6; 147 1; 
156 1; 157 1; 158 6; 159 17; 160 70; 
161 12; 162 1; 172 2; 173 6; 174 33; 
175 4; 188 1; 201 1; 202 1; 207 1; 
243 5; 272 1; 274 8; 275 1; 
