Name: .alpha.-Dimethylaminopentiophenone
Synon: 2-(Dimethylamino)-1-phenyl-1-pentanone
InChIKey: WFXNELBKSSVCEJ-UHFFFAOYSA-N
Formula: C13H19NO
MW: 205
ExactMass: 205.146665
CASNO: 0
ID: 4273
Comment: Provided by www.caymanchem.com/app/template/landing%2CForensic.vm / Item #9001579  Lot #0461604
Num Peaks: 71
41 20; 42 111; 43 23; 44 32; 45 4; 
46 4; 50 14; 51 62; 52 5; 53 5; 
54 5; 55 30; 56 59; 57 17; 58 161; 
59 6; 63 3; 64 1; 65 4; 66 1; 
67 1; 68 14; 69 3; 70 36; 71 101; 
72 45; 73 3; 74 4; 75 3; 76 6; 
77 131; 78 12; 79 2; 80 1; 81 1; 
82 6; 83 4; 84 26; 85 4; 89 3; 
91 14; 92 1; 98 25; 99 6; 100 999; 
101 66; 102 3; 103 4; 104 1; 105 46; 
106 3; 115 2; 116 2; 117 2; 118 2; 
120 3; 128 2; 130 1; 131 2; 132 3; 
133 2; 134 10; 135 1; 144 1; 145 1; 
146 1; 159 1; 160 4; 162 5; 188 1; 
203 2; 
