Name: MO-CHMINACA
Synon: MO-AMB
Synon: 1-Methoxy-3,3-dimethyl-1-oxobutan-2-yl-1-(cyclohexylmethyl)-1H-indazole-3-carboxylate
InChIKey: SUEOBRAXHJBVGY-UHFFFAOYSA-N
Formula: C22H30N2O4
MW: 386
ExactMass: 386.220558
CASNO: 0
ID: 4275
Comment: Provided by www.caymanchem.com/app/template/landing%2CForensic.vm / Item #17136  Lot #0465397
Num Peaks: 156
40 8; 41 525; 42 36; 43 108; 44 8; 
45 18; 47 1; 50 8; 51 26; 52 11; 
53 80; 54 50; 55 696; 56 47; 57 271; 
58 14; 59 201; 60 5; 61 5; 62 16; 
63 16; 64 7; 65 23; 66 9; 67 140; 
68 21; 69 152; 70 22; 71 10; 73 300; 
74 23; 75 20; 76 53; 77 103; 78 17; 
79 38; 80 9; 81 37; 82 15; 83 87; 
84 7; 85 7; 86 2; 87 11; 88 117; 
89 53; 90 120; 91 41; 92 6; 93 16; 
94 30; 95 97; 96 8; 97 71; 98 8; 
99 6; 100 1; 101 10; 102 99; 103 446; 
104 145; 105 17; 106 3; 107 1; 108 1; 
113 14; 114 4; 115 8; 116 12; 117 61; 
118 41; 119 15; 120 2; 121 1; 127 7; 
128 15; 129 132; 130 219; 131 542; 132 75; 
133 9; 142 4; 143 15; 144 198; 145 999; 
146 96; 147 9; 148 2; 149 2; 154 4; 
155 9; 156 7; 157 53; 158 194; 159 48; 
160 8; 161 1; 162 72; 163 11; 167 2; 
168 5; 169 60; 170 14; 171 15; 172 3; 
173 2; 174 3; 175 433; 176 102; 177 11; 
181 1; 182 2; 183 12; 184 5; 185 14; 
186 3; 187 1; 189 1; 194 1; 195 1; 
196 5; 197 6; 198 1; 199 2; 201 2; 
203 1; 209 2; 210 1; 211 28; 212 41; 
213 117; 214 19; 215 3; 223 2; 234 1; 
238 1; 239 48; 240 38; 241 418; 242 70; 
243 8; 244 1; 247 1; 254 4; 255 2; 
257 472; 258 81; 259 9; 267 1; 282 1; 
290 13; 291 2; 303 68; 304 26; 305 4; 
387 5; 
