Name: MDMB-FUBINACA
Synon: FUB-MDMB
Synon: MDMB-Bz-F
Synon: Methyl-(S)-2-(1-4-(fluorobenzyl)-1H-indazole-3-carboxamido)-3,3-dimethylbutanoate
Synon: Methyl 2-(1-(4-fluorobenzyl)-1H-indazole-3-carboxamido)-3,3-dimethylbutanoate
InChIKey: RFCDVEHNYDVCMU-UHFFFAOYSA-N
Formula: C22H24FN3O3
MW: 397
ExactMass: 397.18017
CASNO: 0
ID: 4276
Comment: Provided by www.caymanchem.com/app/template/landing%2CForensic.vm / Item #16966  Lot #0463163
Num Peaks: 110
41 61; 42 7; 43 6; 44 2; 45 2; 
50 3; 51 8; 52 2; 53 4; 54 1; 
55 8; 56 5; 57 93; 58 4; 59 17; 
60 1; 62 7; 63 11; 64 3; 65 1; 
67 1; 68 2; 69 8; 70 13; 71 1; 
73 6; 74 1; 75 8; 76 8; 77 8; 
78 3; 81 2; 82 2; 83 70; 84 9; 
85 4; 86 2; 87 3; 88 40; 89 18; 
90 20; 91 4; 94 1; 95 6; 96 7; 
97 1; 99 1; 101 1; 102 17; 103 8; 
104 11; 105 18; 106 2; 107 11; 108 8; 
109 999; 110 75; 111 2; 112 2; 116 1; 
117 7; 118 3; 122 3; 128 1; 129 11; 
130 4; 131 20; 132 2; 135 1; 144 5; 
145 83; 146 9; 158 1; 161 3; 169 1; 
170 2; 171 2; 172 5; 173 2; 176 1; 
177 1; 186 1; 189 2; 192 1; 195 1; 
196 3; 197 3; 198 2; 200 8; 201 1; 
208 2; 214 2; 223 4; 224 2; 225 9; 
226 7; 232 1; 251 1; 253 132; 254 24; 
255 2; 266 11; 267 2; 282 1; 309 8; 
310 1; 339 5; 340 1; 341 13; 342 2; 
