Name: FUB-JWH-018
Synon: (1-(4-Fluorobenzyl)-1H-indol-3-yl)(naphthalen-1-yl)methanone
InChIKey: VREQTLWJHFQLEX-UHFFFAOYSA-N
Formula: C26H18FNO
MW: 379
ExactMass: 379.137243
CASNO: 0
ID: 4277
Comment: Provided by www.caymanchem.com/app/template/landing%2CForensic.vm / Item #17332  Lot #0465398 / SWGDRUG Monograph available
Num Peaks: 109
50 5; 51 13; 52 2; 57 12; 59 10; 
62 7; 63 19; 64 2; 65 2; 74 6; 
75 19; 76 9; 77 31; 78 2; 81 3; 
82 1; 83 117; 84 6; 86 1; 87 6; 
88 10; 89 19; 90 2; 91 1; 95 1; 
98 1; 99 2; 100 2; 101 20; 102 5; 
107 11; 108 6; 109 999; 110 73; 111 3; 
113 2; 114 7; 115 21; 116 3; 121 1; 
124 3; 125 3; 126 30; 127 92; 128 14; 
133 2; 135 1; 139 3; 140 1; 142 5; 
143 4; 144 1; 149 1; 150 1; 151 1; 
152 1; 155 15; 156 2; 163 2; 164 1; 
167 1; 168 1; 174 1; 175 1; 176 1; 
181 1; 187 3; 188 2; 189 3; 190 1; 
194 1; 198 2; 199 1; 200 2; 201 1; 
202 1; 211 5; 212 3; 213 13; 214 9; 
215 9; 216 1; 221 1; 222 4; 224 3; 
225 1; 226 1; 227 1; 238 1; 239 1; 
240 9; 241 20; 242 9; 243 2; 252 23; 
253 6; 254 2; 255 3; 256 1; 269 9; 
270 30; 271 5; 283 1; 284 1; 362 6; 
363 2; 378 3; 379 12; 380 3; 
