Name: APP-FUBINACA
Synon: N-[(1S)-2-amino-2-oxo-1-(phenylmethyl)ethyl]-1-[(4-fluorophenyl)methyl]-1H-indazole-3-carboxamide
InChIKey: TZXBEYFALIFOAG-HXUWFJFHSA-N
Formula: C24H21FN4O2
MW: 416
ExactMass: 416.164854
CASNO: 1185282034
ID: 4280
Comment: Provided by www.caymanchem.com/app/template/landing%2CForensic.vm / Item #17200  Lot #0468140
Num Peaks: 113
41 2; 42 1; 43 1; 44 17; 45 2; 
50 3; 51 10; 52 2; 53 1; 57 4; 
59 4; 62 6; 63 12; 64 3; 65 20; 
66 1; 70 1; 73 1; 74 1; 75 7; 
76 6; 77 17; 78 5; 79 2; 81 1; 
83 55; 84 3; 87 2; 88 25; 89 20; 
90 20; 91 80; 92 12; 93 1; 94 1; 
95 4; 96 4; 101 1; 102 16; 103 18; 
104 8; 105 6; 106 2; 107 10; 108 6; 
109 999; 110 74; 111 2; 116 2; 117 8; 
118 13; 119 25; 120 21; 121 2; 122 3; 
124 1; 128 3; 129 9; 130 3; 131 9; 
132 1; 144 2; 145 49; 146 17; 147 4; 
148 1; 151 1; 163 1; 165 1; 169 1; 
170 2; 172 5; 173 1; 174 1; 175 1; 
176 2; 177 2; 178 1; 194 1; 195 2; 
196 6; 197 4; 198 2; 205 1; 207 1; 
223 12; 224 7; 225 17; 226 5; 227 1; 
251 4; 253 671; 254 113; 255 10; 264 1; 
269 155; 270 26; 271 2; 281 1; 282 1; 
290 1; 307 2; 308 1; 325 21; 326 4; 
327 1; 329 1; 372 189; 373 50; 374 6; 
399 2; 416 6; 417 1; 
