Name: AB-CHMINACA 2'-indazole isomer
Synon: (S)-N-(1-amino-3-methyl-1-oxobutan-2-yl)-2-(cyclohexylmethyl)-2H-indazole-3-carboxamide
InChIKey: TVVJYCKLTAMJFO-KRWDZBQOSA-N
Formula: C20H28N4O2
MW: 356
ExactMass: 356.221226
CASNO: 0
ID: 4281
Comment: Provided by www.caymanchem.com/app/template/landing%2CForensic.vm / Item #17521  Lot #0467978
Num Peaks: 151
40 1; 41 70; 42 7; 43 22; 44 29; 
45 2; 50 1; 51 4; 52 2; 53 14; 
54 10; 55 122; 56 14; 57 8; 58 1; 
59 1; 62 3; 63 6; 64 2; 65 6; 
66 2; 67 34; 68 8; 69 7; 70 6; 
71 4; 72 63; 73 6; 74 1; 75 2; 
76 6; 77 21; 78 4; 79 9; 80 2; 
81 10; 82 2; 83 3; 84 13; 85 2; 
86 5; 87 4; 88 20; 89 17; 90 40; 
91 12; 92 5; 93 7; 94 1; 95 74; 
96 7; 97 4; 98 2; 99 1; 100 2; 
101 2; 102 14; 103 31; 104 16; 105 3; 
106 1; 115 21; 116 5; 117 19; 118 24; 
119 16; 120 1; 121 1; 127 2; 128 4; 
129 18; 130 36; 131 97; 132 67; 133 9; 
134 1; 135 1; 142 1; 143 4; 144 19; 
145 308; 146 33; 147 73; 148 6; 154 1; 
155 4; 156 5; 157 9; 158 28; 159 24; 
160 18; 161 6; 168 2; 169 9; 170 3; 
171 5; 172 3; 173 3; 174 5; 175 3; 
176 1; 182 1; 183 4; 184 4; 185 5; 
186 6; 187 2; 188 1; 196 1; 197 2; 
198 1; 199 3; 200 3; 201 2; 202 1; 
207 4; 209 1; 210 1; 211 9; 212 13; 
213 999; 214 159; 215 15; 216 96; 217 14; 
218 1; 223 1; 228 4; 229 8; 230 33; 
231 6; 232 1; 239 4; 240 2; 241 57; 
242 12; 243 1; 244 6; 245 1; 253 2; 
256 4; 257 19; 258 3; 259 1; 273 3; 
274 3; 281 1; 310 1; 312 3; 356 8; 
357 2; 
