Name: 5-Fluoro-CUMYL-PINACA
Synon: 1-(5-Fluoropentyl)-N-(1-methyl-1-phenylethyl)-1H-indazole-3-carboxamide
Synon: CUMYL-5FPINACA
Synon: 5F-CUMYL-PINACA
InChIKey: XSHGVIPHMOTDCS-UHFFFAOYSA-N
Formula: C22H26FN3O
MW: 367
ExactMass: 367.20599
CASNO: 1400742166
ID: 4282
Comment: Provided by www.caymanchem.com/app/template/landing%2CForensic.vm / Item #17726  Lot #0467725
Num Peaks: 166
40 3; 41 143; 42 31; 43 33; 44 12; 
46 1; 47 21; 50 9; 51 34; 52 8; 
53 7; 54 2; 55 13; 56 4; 57 2; 
58 4; 59 8; 61 5; 62 7; 63 15; 
64 5; 65 17; 66 2; 67 7; 68 2; 
69 61; 70 3; 74 3; 75 11; 76 25; 
77 114; 78 36; 79 31; 80 2; 84 1; 
86 1; 87 3; 88 37; 89 41; 90 90; 
91 200; 92 20; 93 2; 94 1; 95 6; 
100 1; 101 3; 102 47; 103 156; 104 89; 
105 16; 106 2; 107 7; 114 1; 115 24; 
116 13; 117 94; 118 82; 119 118; 120 38; 
121 5; 125 14; 127 1; 128 5; 129 38; 
130 33; 131 131; 132 29; 133 7; 134 61; 
135 15; 136 1; 137 1; 139 20; 142 2; 
143 10; 144 27; 145 444; 146 50; 147 4; 
149 1; 154 1; 155 2; 156 16; 157 12; 
158 34; 159 7; 160 1; 161 16; 162 2; 
165 2; 167 1; 169 3; 170 2; 171 17; 
172 5; 173 2; 174 177; 175 106; 176 13; 
177 54; 178 6; 179 1; 183 2; 184 9; 
185 31; 186 6; 187 2; 188 1; 189 1; 
190 2; 199 8; 200 2; 201 1; 202 1; 
203 5; 204 1; 205 7; 206 2; 208 1; 
212 6; 213 86; 214 14; 215 2; 216 2; 
219 4; 220 4; 221 2; 228 10; 229 3; 
231 14; 233 999; 234 148; 235 15; 236 2; 
247 1; 248 8; 249 102; 250 17; 251 1; 
262 61; 263 10; 264 1; 273 2; 274 1; 
276 2; 278 7; 279 1; 290 14; 291 2; 
292 4; 293 1; 310 4; 311 1; 324 1; 
332 3; 334 2; 335 1; 350 1; 352 382; 
353 89; 354 10; 355 1; 367 76; 368 18; 
369 2; 
