Name: Meperidine-d5
InChIKey: XADCESSVHJOZHK-UPKDRLQUSA-N
Formula: C15H16D5NO2
MW: 252
ExactMass: 252.188613
CASNO: 1330180056
ID: 4284
Comment: Provided by www.caymanchem.com/app/template/landing%2CForensic.vm / Item #15823  Lot #0467370
Num Peaks: 158
40 7; 41 32; 42 429; 43 178; 44 198; 
45 22; 46 1; 50 1; 51 7; 52 14; 
53 43; 54 42; 55 24; 56 42; 57 369; 
58 44; 59 8; 60 1; 63 2; 64 6; 
65 11; 66 11; 67 12; 68 23; 69 16; 
70 599; 71 999; 72 237; 73 24; 74 3; 
75 2; 76 3; 77 5; 78 9; 79 21; 
80 66; 81 79; 82 78; 83 29; 84 12; 
85 3; 86 3; 87 1; 88 8; 89 18; 
91 4; 92 10; 93 26; 94 83; 95 94; 
96 333; 97 39; 98 4; 99 11; 100 1; 
103 1; 104 4; 105 9; 106 34; 107 81; 
108 264; 109 35; 110 17; 111 2; 112 2; 
116 12; 117 12; 118 44; 119 99; 120 79; 
121 37; 122 33; 123 8; 124 4; 125 9; 
126 7; 127 5; 128 4; 129 4; 130 14; 
131 27; 132 47; 133 60; 134 53; 135 50; 
136 101; 137 16; 138 6; 139 4; 140 106; 
141 21; 142 4; 143 2; 144 2; 145 4; 
146 6; 147 11; 148 37; 149 18; 150 10; 
151 10; 152 2; 153 3; 154 12; 155 16; 
156 11; 157 5; 158 2; 159 2; 160 4; 
161 10; 162 18; 163 55; 164 15; 165 5; 
166 3; 167 8; 168 2; 169 18; 170 6; 
171 1; 172 1; 173 1; 174 4; 175 18; 
176 72; 177 308; 178 93; 179 210; 180 32; 
181 6; 182 10; 183 1; 189 1; 193 1; 
194 9; 195 49; 196 6; 205 1; 206 3; 
207 25; 208 3; 209 1; 221 1; 222 29; 
223 251; 224 42; 225 4; 236 10; 237 78; 
238 12; 239 1; 249 5; 250 71; 251 236; 
252 387; 253 63; 254 7; 
