Name: PCP-d5
Synon: Phencyclidine-d5
InChIKey: JTJMJGYZQZDUJJ-ZWYOJXJXSA-N
Formula: C17H20D5N
MW: 248
ExactMass: 248.230083
CASNO: 60124790
ID: 4285
Comment: Provided by www.caymanchem.com/app/template/landing%2CForensic.vm / Item #15848  Lot #0467686
Num Peaks: 127
40 7; 41 87; 42 53; 43 13; 44 11; 
45 1; 50 1; 51 4; 52 6; 53 24; 
54 30; 55 72; 56 44; 57 12; 58 1; 
63 1; 64 2; 65 7; 66 6; 67 29; 
68 21; 69 21; 70 9; 71 1; 73 1; 
75 1; 76 1; 77 8; 78 5; 79 27; 
80 31; 81 75; 82 52; 83 30; 84 193; 
85 34; 86 26; 87 2; 91 2; 92 4; 
93 7; 94 22; 95 72; 96 371; 97 28; 
98 6; 104 1; 105 3; 106 7; 107 19; 
108 58; 109 76; 110 24; 111 4; 116 1; 
117 5; 118 23; 119 48; 120 36; 121 31; 
122 104; 123 17; 124 11; 125 6; 129 1; 
130 5; 131 12; 132 22; 133 34; 134 38; 
135 51; 136 16; 137 4; 138 1; 144 1; 
145 4; 146 6; 147 12; 148 29; 149 14; 
150 7; 151 4; 156 1; 157 1; 158 1; 
159 1; 160 3; 161 6; 162 11; 163 50; 
164 32; 165 10; 166 175; 167 25; 168 1; 
173 1; 174 3; 175 6; 176 5; 177 15; 
178 5; 179 8; 180 1; 188 3; 189 6; 
190 147; 191 98; 192 18; 193 2; 202 3; 
203 5; 204 65; 205 999; 206 150; 207 12; 
208 1; 217 1; 218 5; 219 19; 220 3; 
233 1; 245 5; 246 226; 247 59; 248 204; 
249 37; 250 3; 
