Name: Diazepam-d3
InChIKey: AAOVKJBEBIDNHE-FIBGUPNXSA-N
Formula: C16H10D3ClN2O
MW: 287
ExactMass: 287.090471
CASNO: 83056499
ID: 4288
Comment: Provided by www.caymanchem.com/app/template/landing%2CForensic.vm / Item #17016  Lot #0467615
Num Peaks: 222
40 5; 41 9; 42 10; 43 5; 44 10; 
45 24; 46 3; 47 1; 49 5; 50 39; 
51 102; 52 24; 53 8; 54 2; 55 2; 
56 3; 58 3; 60 2; 61 9; 62 29; 
63 73; 64 25; 65 36; 66 7; 67 5; 
68 5; 69 13; 70 2; 71 1; 72 3; 
73 17; 74 38; 75 83; 76 76; 77 148; 
78 22; 79 12; 80 5; 82 19; 83 8; 
84 9; 85 9; 86 18; 87 27; 88 26; 
89 86; 90 36; 91 79; 92 20; 93 20; 
94 10; 95 2; 96 5; 97 24; 98 47; 
99 28; 100 31; 101 22; 102 49; 103 50; 
104 18; 105 10; 106 5; 107 2; 108 8; 
109 1; 110 34; 112 136; 113 29; 114 27; 
115 21; 116 39; 117 45; 118 13; 119 35; 
120 49; 121 16; 122 6; 123 11; 124 22; 
125 21; 126 79; 127 33; 128 49; 129 16; 
130 21; 131 2; 132 1; 133 1; 134 6; 
135 4; 136 20; 137 26; 138 28; 139 27; 
140 27; 141 10; 142 7; 143 1; 144 8; 
145 4; 146 3; 147 4; 148 2; 149 17; 
150 59; 151 101; 152 94; 153 30; 154 20; 
155 18; 156 6; 157 4; 160 1; 161 5; 
162 10; 163 77; 164 61; 165 64; 166 71; 
167 94; 168 40; 169 10; 170 5; 171 1; 
173 2; 174 3; 175 9; 176 24; 177 84; 
178 69; 179 44; 180 28; 181 13; 182 17; 
183 4; 184 9; 185 3; 186 9; 187 5; 
188 6; 189 5; 190 17; 191 17; 192 18; 
193 18; 194 28; 195 39; 196 59; 197 14; 
198 4; 199 11; 200 13; 201 9; 202 8; 
203 12; 204 15; 205 86; 206 36; 207 9; 
208 3; 209 2; 210 2; 211 3; 212 8; 
213 32; 214 13; 215 20; 216 7; 217 4; 
218 1; 219 3; 220 6; 221 17; 222 41; 
224 332; 225 68; 226 10; 227 7; 228 6; 
229 7; 230 10; 231 65; 232 15; 233 33; 
234 7; 235 1; 239 91; 240 37; 241 97; 
242 24; 243 35; 244 14; 245 8; 246 3; 
247 2; 249 1; 250 2; 251 43; 252 60; 
253 11; 254 4; 255 4; 256 8; 258 412; 
259 999; 260 445; 261 347; 262 99; 263 12; 
267 3; 268 28; 269 9; 270 10; 271 2; 
286 855; 287 642; 288 364; 289 202; 290 31; 
291 2; 341 1; 
