Name: 2,3-Methylone
Synon: 2,3-MDMC
Synon: 1-(benzo[d][1,3]dioxol-4-yl)-2-(methylamino)propan-1-one
Synon: 2,3 Methylenedioxymethcathinone
InChIKey: QZMXFYXIDZEAQA-UHFFFAOYSA-N
Formula: C11H13NO3
MW: 207
ExactMass: 207.089543
CASNO: 0
ID: 4291
Comment: Provided by www.caymanchem.com/app/template/landing%2CForensic.vm / Item #9001133  Lot #0433607 / SWGDRUG Monograph available
Num Peaks: 67
40 4; 41 12; 42 47; 43 23; 44 2; 
49 1; 50 9; 51 13; 52 4; 53 15; 
54 5; 55 9; 56 85; 58 999; 59 38; 
60 1; 61 7; 62 24; 63 65; 64 15; 
65 106; 66 9; 67 1; 74 8; 75 5; 
76 2; 77 10; 78 2; 79 4; 80 1; 
87 1; 89 4; 90 3; 91 31; 92 11; 
93 3; 94 1; 96 1; 102 1; 103 2; 
104 1; 105 1; 106 1; 107 3; 118 1; 
119 7; 120 5; 121 28; 122 9; 123 1; 
133 1; 134 2; 135 7; 136 1; 146 1; 
147 2; 149 46; 150 7; 162 3; 164 2; 
176 1; 177 1; 178 2; 190 1; 192 2; 
205 1; 207 2; 
