Name: MPHP
Synon: 4'-Methyl-.alpha.-pyrrolidinohexanophenone
Synon: 2-(pyrrolidin-1-yl)-1-(p-tolyl)hexan-1-one
Synon: 4'-MePHP
Synon: .alpha.-MPHP
InChIKey: YOSQVMGMENUCDX-UHFFFAOYSA-N
Formula: C17H25NO
MW: 259
ExactMass: 259.193615
CASNO: 0
ID: 4293
Comment: ENFSI / SSRFC Kiev, Ukraine / SWGDRUG Monograph available
Num Peaks: 74
40 2; 41 38; 42 26; 43 10; 44 3; 
50 1; 51 3; 52 1; 53 4; 54 13; 
55 25; 56 14; 57 2; 63 4; 64 1; 
65 27; 66 2; 67 3; 68 9; 69 30; 
70 17; 71 1; 72 1; 77 3; 78 1; 
79 1; 80 2; 81 2; 82 4; 83 2; 
84 32; 85 2; 89 6; 90 4; 91 55; 
92 5; 93 1; 94 3; 95 1; 96 33; 
97 23; 98 13; 103 1; 105 6; 108 1; 
110 15; 111 1; 112 1; 115 2; 116 1; 
117 1; 119 33; 120 3; 128 1; 129 1; 
130 1; 131 1; 134 1; 136 1; 138 15; 
140 999; 141 103; 142 5; 144 1; 145 1; 
147 1; 174 1; 186 1; 200 2; 202 7; 
203 1; 228 4; 257 2; 258 1; 
