Name: 4-MeO-.alpha.-PVP
Synon: 1-(4-methoxyphenyl)-2-(pyrrolidin-1-yl)pentan-1-one
Synon: 4-Methoxy-.alpha.-PVP
InChIKey: HWYVHRCKBXGZLV-UHFFFAOYSA-N
Formula: C16H23NO2
MW: 261
ExactMass: 261.172878
CASNO: 5537199
ID: 4295
Comment: ENFSI / Finnish NFP / SWGDRUG Monograph available
Num Peaks: 93
31 1; 32 30; 37 1; 38 5; 39 23; 
40 9; 41 48; 42 52; 43 38; 44 132; 
45 3; 50 8; 51 7; 52 3; 53 10; 
54 20; 55 50; 56 15; 57 6; 62 1; 
63 16; 64 23; 65 5; 66 3; 67 4; 
68 16; 69 35; 70 29; 71 9; 72 1; 
73 2; 74 1; 75 2; 76 9; 77 65; 
78 8; 79 5; 80 6; 81 2; 82 5; 
83 2; 84 36; 85 3; 88 1; 89 2; 
90 1; 91 4; 92 41; 93 6; 94 8; 
95 3; 96 34; 97 31; 98 11; 102 1; 
103 2; 104 2; 105 2; 107 17; 108 4; 
110 13; 111 1; 115 1; 117 1; 118 1; 
119 1; 120 1; 121 7; 122 3; 124 26; 
125 4; 126 999; 127 105; 128 4; 132 1; 
133 2; 134 1; 135 56; 136 8; 146 1; 
147 2; 150 4; 159 1; 160 1; 163 6; 
173 1; 174 1; 189 1; 190 1; 207 8; 
208 1; 216 1; 218 1; 
