Name: AB-FUBICA
Synon: N-(1-amino-3-methyl-1-oxobutan-2-yl)-1-(4-fluorobenzyl)-1H-indole-3-carboxamide
InChIKey: KTVPQJSKKGZIEA-UHFFFAOYSA-N
Formula: C21H22FN3O2
MW: 367
ExactMass: 367.169605
CASNO: 0
ID: 4297
Comment: DEA SFL1 / Lot # RM-140805-06 / SWGDRUG Monograph available
Num Peaks: 103
30 2; 39 4; 40 1; 41 5; 42 1; 
43 4; 44 22; 50 1; 51 2; 52 2; 
53 1; 54 1; 55 2; 56 3; 57 2; 
58 1; 59 2; 62 3; 63 8; 64 1; 
65 1; 70 2; 72 4; 76 2; 77 2; 
82 1; 83 65; 84 2; 86 2; 88 9; 
89 15; 90 3; 100 1; 101 5; 102 4; 
104 1; 107 11; 108 7; 109 999; 110 81; 
111 3; 114 11; 115 42; 116 13; 117 1; 
118 1; 122 1; 126 1; 127 1; 128 6; 
129 2; 130 2; 131 1; 132 2; 143 89; 
144 22; 145 1; 146 1; 150 1; 151 1; 
152 1; 153 1; 159 1; 167 1; 168 2; 
169 1; 170 3; 171 2; 172 1; 175 3; 
176 2; 180 1; 183 1; 185 1; 194 2; 
196 4; 199 1; 201 1; 202 2; 203 2; 
204 2; 214 7; 215 3; 219 1; 220 1; 
222 21; 223 4; 224 9; 225 2; 226 1; 
250 6; 251 4; 252 673; 253 108; 254 9; 
268 83; 269 13; 323 47; 324 13; 335 2; 
367 43; 368 11; 369 2; 
