Name: W-18
Synon: 4-chloro-N-{(2E)-1-[2-(4-nitrophenyl)ethyl]piperidin-2-ylidene}benzenesulfonamide
Synon: 1-(4-nitrophenyl)ethylpiperidylidene-2-(4-chlorophenyl)sulfonamide
InChIKey: BKRSVROQVRTSND-XUTLUUPISA-N
Formula: C19H20ClN3O4S
MW: 421
ExactMass: 421.086306
CASNO: 93101021
ID: 4298
Comment: DEA SFL1 / Lot # RM-131001-01 / SWGDRUG Monograph available
Num Peaks: 166
36 3; 39 24; 40 8; 41 71; 42 154; 
43 38; 44 23; 45 3; 48 6; 50 46; 
51 52; 52 17; 53 30; 54 92; 55 233; 
56 58; 57 43; 58 3; 61 4; 62 5; 
63 34; 64 18; 65 33; 66 5; 67 13; 
68 24; 69 8; 70 12; 73 4; 74 23; 
75 176; 76 65; 77 83; 78 113; 79 16; 
80 16; 81 9; 82 114; 83 26; 84 11; 
85 16; 87 10; 88 3; 89 83; 90 85; 
91 105; 92 42; 93 8; 94 5; 95 7; 
96 3; 97 23; 98 9; 99 8; 100 3; 
101 6; 102 28; 103 91; 104 50; 105 10; 
106 45; 107 14; 108 12; 109 56; 110 26; 
111 749; 112 58; 113 259; 114 20; 115 10; 
116 11; 117 26; 118 34; 119 90; 120 25; 
121 12; 122 3; 123 24; 124 3; 125 14; 
126 3; 127 19; 128 6; 129 6; 130 18; 
131 21; 132 8; 133 64; 134 7; 135 4; 
136 13; 137 4; 138 14; 140 71; 141 10; 
142 26; 143 7; 144 8; 145 10; 146 3; 
147 4; 148 5; 149 11; 150 12; 151 5; 
152 7; 153 5; 154 5; 155 4; 156 3; 
157 7; 158 2; 159 16; 161 6; 162 2; 
164 7; 165 28; 166 9; 167 5; 170 2; 
171 4; 172 12; 173 7; 175 296; 176 19; 
177 128; 178 9; 179 6; 180 2; 181 3; 
185 3; 186 3; 187 3; 190 3; 191 1; 
192 3; 193 4; 198 2; 199 11; 200 52; 
201 7; 204 3; 205 5; 207 999; 208 125; 
209 295; 210 42; 211 2; 214 3; 218 4; 
221 6; 229 28; 230 7; 244 4; 246 339; 
247 45; 248 4; 273 3; 283 3; 285 33; 
286 4; 287 11; 404 3; 421 31; 422 10; 
423 12; 
