Name: 3-MPA
Synon: N-methyl-1-(thiophen-3-yl)propan-2-amine
Synon: Methiopropamine 3-thiophene isomer
InChIKey: KFFOOPYCWWXODT-UHFFFAOYSA-N
Formula: C8H13NS
MW: 155
ExactMass: 155.07687
CASNO: 857361901
ID: 4300
Comment: ENFSI/DWG
Num Peaks: 85
37 2; 38 7; 39 37; 40 5; 41 23; 
42 60; 43 24; 44 7; 45 83; 46 3; 
47 6; 49 1; 50 11; 51 19; 52 8; 
53 41; 54 8; 55 3; 56 75; 57 26; 
58 999; 59 39; 60 1; 61 2; 62 4; 
63 11; 64 2; 65 12; 66 4; 67 3; 
68 3; 69 24; 70 13; 71 15; 72 2; 
73 1; 74 1; 75 1; 76 1; 77 10; 
78 4; 79 7; 80 7; 81 7; 82 7; 
83 3; 84 9; 85 6; 86 1; 89 1; 
91 6; 92 2; 93 4; 94 7; 95 7; 
96 3; 97 147; 98 12; 99 16; 100 1; 
104 1; 105 1; 106 3; 107 4; 108 3; 
109 7; 110 6; 111 6; 112 2; 113 1; 
120 1; 121 5; 122 3; 123 12; 124 7; 
125 7; 126 1; 136 1; 138 4; 139 2; 
140 21; 141 2; 142 1; 152 1; 154 6; 
