Name: PX 1
Synon: SRF-30
Synon: (S)-N-(1-amino-1-oxo-3-phenylpropan-2-yl)-1-(5-fluoropentyl)-1H-indole-3-carboxamide
Synon: 5-Fluoro-APP-PICA
Synon: 5F-APP-PICA
InChIKey: DDVANTXQCRMRFF-FQEVSTJZSA-N
Formula: C23H26FN3O2
MW: 395
ExactMass: 395.200905
CASNO: 0
ID: 4301
Comment: Provided by www.caymanchem.com/app/template/landing%2CForensic.vm / Item #16201  Lot #0460016 / SWGDRUG Monograph available
Num Peaks: 229
40 9; 41 37; 42 3; 43 16; 44 33; 
45 3; 46 1; 47 9; 49 1; 50 5; 
51 8; 52 4; 53 4; 55 3; 56 1; 
57 1; 59 5; 60 1; 61 3; 62 5; 
63 8; 64 4; 65 29; 66 1; 67 2; 
69 11; 70 1; 71 1; 73 21; 74 2; 
75 6; 76 7; 77 21; 78 16; 79 2; 
81 2; 83 1; 85 2; 86 1; 87 4; 
88 4; 89 37; 90 7; 91 170; 92 29; 
93 2; 94 1; 96 3; 97 1; 99 1; 
100 1; 101 10; 102 30; 103 26; 104 9; 
105 4; 106 3; 107 2; 108 1; 109 1; 
112 1; 113 1; 114 10; 115 32; 116 72; 
117 22; 118 14; 119 10; 120 6; 123 1; 
127 5; 128 30; 129 49; 130 60; 131 24; 
132 5; 134 1; 135 6; 136 2; 137 2; 
138 1; 139 1; 140 2; 141 3; 142 6; 
143 37; 144 220; 145 25; 146 25; 147 10; 
148 2; 149 4; 151 1; 152 2; 154 8; 
155 17; 156 16; 157 15; 158 9; 159 2; 
160 2; 162 1; 163 1; 165 3; 166 2; 
167 4; 168 5; 169 4; 170 14; 171 5; 
172 2; 173 46; 174 9; 175 2; 176 3; 
177 3; 178 2; 180 1; 181 1; 182 1; 
183 2; 184 8; 185 2; 186 1; 187 2; 
188 1; 189 1; 191 3; 193 5; 195 1; 
196 1; 197 4; 198 3; 199 2; 200 2; 
201 2; 202 2; 203 2; 204 6; 205 8; 
207 18; 208 2; 210 2; 211 4; 212 11; 
213 2; 214 2; 215 2; 217 1; 218 1; 
219 1; 221 1; 224 1; 227 1; 228 3; 
230 19; 232 999; 233 163; 234 15; 235 1; 
237 1; 242 1; 244 1; 246 2; 248 204; 
249 33; 251 1; 252 1; 253 7; 254 1; 
255 3; 257 1; 261 1; 263 1; 265 1; 
266 2; 267 1; 268 1; 269 1; 271 1; 
276 1; 278 1; 279 1; 281 5; 283 2; 
284 1; 286 4; 287 13; 288 2; 289 1; 
293 1; 294 1; 299 1; 300 1; 302 1; 
311 1; 313 1; 314 1; 315 1; 316 1; 
320 4; 324 1; 325 4; 326 1; 327 1; 
328 3; 329 1; 331 2; 332 1; 333 1; 
335 1; 341 3; 342 1; 345 1; 346 2; 
347 2; 348 1; 351 9; 352 3; 354 1; 
355 1; 359 1; 370 1; 377 2; 378 7; 
383 1; 390 1; 395 18; 396 5; 
