Name: BMPEA
Synon: .beta.-Methylphenethylamine
Synon: 1-Amino-2-phenylpropane
Synon: 2-Phenyl-1-propanamine
Synon: 2-Phenylpropylamine
Synon: .beta.-Me-PEA
Synon: 2-phenyl-1-propylamine
InChIKey: AXORVIZLPOGIRG-UHFFFAOYSA-N
Formula: C9H13N
MW: 135
ExactMass: 135.104799
CASNO: 20388878
ID: 4302
Comment: Provided by www.caymanchem.com/app/template/landing%2CForensic.vm / Item #17742
Num Peaks: 86
41 44; 42 43; 43 9; 44 3; 46 2; 
47 2; 48 2; 49 6; 50 140; 51 328; 
52 94; 53 52; 54 22; 55 5; 56 42; 
57 7; 58 1; 59 29; 60 6; 61 16; 
62 60; 63 171; 64 34; 65 172; 66 24; 
67 6; 68 1; 70 1; 71 1; 72 1; 
73 17; 74 96; 75 73; 76 94; 77 999; 
78 538; 79 531; 80 44; 81 1; 82 1; 
83 2; 84 1; 85 3; 86 11; 87 15; 
88 5; 89 119; 90 39; 91 915; 92 78; 
93 16; 94 3; 96 1; 97 1; 98 6; 
100 1; 101 12; 102 115; 103 598; 104 501; 
105 849; 106 187; 107 14; 108 1; 110 1; 
111 1; 113 2; 114 1; 115 101; 116 43; 
117 109; 118 107; 119 35; 120 13; 121 1; 
125 1; 129 2; 130 14; 131 6; 132 30; 
133 29; 134 20; 135 217; 136 25; 137 1; 
138 1; 
