Name: Cannabidiol-d9
Synon: CBD-d9
InChIKey: QHMBSVQNZZTUGM-KTSLMVEPSA-N
Formula: C21H21D9O2
MW: 323
ExactMass: 323.28107
CASNO: 1246819215
ID: 4304
Comment: Provided by www.caymanchem.com/app/template/landing%2CForensic.vm / Item #16203
Num Peaks: 220
40 6; 41 26; 42 7; 43 8; 44 3; 
45 4; 46 20; 47 1; 48 9; 49 10; 
50 7; 51 4; 52 1; 53 20; 54 3; 
55 23; 56 3; 57 1; 60 1; 61 2; 
62 2; 63 3; 64 1; 65 11; 66 9; 
67 54; 68 53; 69 13; 70 2; 74 1; 
75 1; 76 2; 77 24; 78 12; 79 22; 
80 11; 81 11; 82 3; 83 2; 84 1; 
87 1; 88 1; 89 3; 90 1; 91 37; 
92 13; 93 16; 94 3; 95 6; 96 3; 
97 1; 101 1; 102 2; 103 7; 104 4; 
105 17; 106 8; 107 24; 108 25; 109 9; 
110 2; 111 1; 114 1; 115 11; 116 9; 
117 11; 118 6; 119 16; 120 22; 121 51; 
122 9; 123 8; 124 4; 125 2; 126 2; 
127 6; 128 18; 129 13; 130 7; 131 13; 
132 8; 133 9; 134 10; 135 7; 136 5; 
137 9; 138 4; 139 2; 140 1; 141 7; 
142 6; 143 6; 144 6; 145 11; 146 8; 
147 18; 148 12; 149 8; 150 4; 151 5; 
152 7; 153 8; 154 6; 155 5; 156 1; 
157 6; 158 5; 159 7; 160 22; 161 14; 
162 10; 163 5; 164 2; 165 6; 166 4; 
167 3; 168 3; 169 3; 170 2; 171 5; 
172 6; 173 17; 174 83; 175 33; 176 31; 
177 9; 178 2; 179 3; 180 2; 181 4; 
182 2; 183 3; 184 3; 185 3; 186 5; 
187 8; 188 10; 189 25; 190 11; 191 14; 
192 4; 193 2; 194 2; 195 3; 196 2; 
197 3; 198 3; 199 4; 200 5; 201 8; 
202 69; 203 13; 204 12; 205 4; 207 13; 
208 4; 209 2; 210 2; 211 2; 212 2; 
213 5; 214 4; 215 13; 216 25; 217 12; 
218 2; 223 1; 224 1; 225 1; 226 9; 
227 4; 228 6; 229 4; 230 3; 231 1; 
236 2; 237 3; 238 37; 239 1; 240 999; 
241 189; 242 28; 243 10; 244 4; 245 1; 
250 1; 252 7; 253 6; 254 15; 255 130; 
256 24; 257 2; 258 1; 259 5; 260 5; 
261 1; 265 1; 266 7; 267 4; 268 8; 
269 1; 278 2; 279 4; 280 28; 281 9; 
282 4; 290 1; 292 1; 294 3; 295 5; 
296 1; 306 4; 307 2; 308 35; 309 8; 
321 1; 322 2; 323 81; 324 18; 325 2; 
