Name: APP-PICA
Synon: (S)-N-(1-amino-1-oxo-3-phenylpropan-2-yl)-1-pentyl-1H-indole-3-carboxamide
InChIKey: JMCYJVVVJOZORS-FQEVSTJZSA-N
Formula: C23H27N3O2
MW: 377
ExactMass: 377.210327
CASNO: 0
ID: 4305
Comment: Provided by www.caymanchem.com/app/template/landing%2CForensic.vm / Item #17613
Num Peaks: 283
40 4; 41 28; 42 4; 43 54; 44 66; 
45 5; 46 2; 47 1; 48 2; 49 1; 
50 10; 51 15; 52 4; 53 4; 54 2; 
55 11; 56 2; 57 1; 58 2; 59 2; 
60 1; 61 1; 62 4; 63 12; 64 4; 
65 16; 66 2; 67 2; 68 1; 69 3; 
70 1; 71 2; 72 2; 73 11; 74 13; 
75 7; 76 8; 77 25; 78 19; 79 7; 
81 3; 82 2; 83 1; 84 1; 85 1; 
86 2; 87 4; 88 8; 89 31; 90 12; 
91 189; 92 18; 93 5; 94 1; 95 1; 
96 16; 97 7; 98 1; 99 1; 100 1; 
101 5; 102 35; 103 30; 104 16; 105 6; 
106 3; 107 3; 108 1; 109 1; 110 1; 
111 1; 112 1; 113 2; 114 8; 115 46; 
116 56; 117 11; 118 13; 119 12; 120 7; 
121 2; 122 1; 124 1; 125 3; 126 1; 
127 4; 128 31; 129 53; 130 63; 131 18; 
132 3; 133 10; 134 2; 135 8; 136 2; 
137 2; 138 1; 140 2; 141 4; 142 3; 
143 30; 144 241; 145 22; 146 12; 147 17; 
148 2; 149 5; 150 1; 151 2; 152 1; 
153 3; 154 11; 155 20; 156 24; 157 17; 
158 12; 159 1; 160 1; 161 4; 162 1; 
163 2; 164 2; 165 6; 166 3; 167 3; 
168 2; 169 3; 170 10; 171 4; 172 2; 
173 31; 174 12; 175 1; 176 2; 177 16; 
178 5; 179 4; 180 1; 181 2; 182 1; 
183 4; 184 6; 185 4; 186 8; 187 5; 
188 2; 189 4; 190 1; 192 3; 193 8; 
194 2; 195 10; 196 2; 197 4; 198 3; 
199 1; 200 1; 201 1; 202 1; 203 1; 
204 1; 205 2; 206 2; 207 60; 208 13; 
209 33; 210 6; 211 5; 212 14; 213 3; 
214 999; 215 162; 216 8; 218 1; 219 1; 
220 1; 221 7; 223 2; 224 1; 225 1; 
226 1; 227 1; 228 1; 229 1; 230 233; 
231 39; 232 2; 233 1; 235 1; 236 1; 
237 1; 238 1; 239 3; 240 1; 241 1; 
242 1; 243 1; 244 1; 245 1; 246 1; 
249 3; 250 1; 251 2; 252 1; 253 43; 
254 7; 255 10; 256 2; 257 2; 258 1; 
259 1; 265 4; 266 2; 267 6; 268 9; 
269 13; 270 5; 271 2; 275 1; 276 1; 
277 1; 279 1; 280 1; 281 26; 282 1; 
283 16; 284 3; 285 1; 286 1; 287 1; 
288 1; 289 1; 293 1; 295 1; 296 1; 
297 1; 301 1; 302 1; 303 1; 304 1; 
305 1; 311 1; 312 1; 313 2; 315 6; 
316 1; 317 1; 320 3; 321 1; 325 3; 
326 1; 327 4; 328 3; 329 2; 330 1; 
331 10; 332 5; 333 11; 334 5; 339 1; 
341 1; 342 1; 343 3; 344 1; 345 1; 
346 7; 347 2; 348 1; 353 1; 354 1; 
355 4; 356 1; 357 1; 358 1; 359 5; 
360 4; 364 1; 368 1; 370 1; 375 1; 
377 18; 378 8; 379 1; 
