Name: Estra-4,9,11-triene-3,17-dione
Synon: RU 2065
Synon: Trenavar
Synon: Trendione
InChIKey: KBSXJBBFQODDTQ-RYRKJORJSA-N
Formula: C18H20O2
MW: 268
ExactMass: 268.14633
CASNO: 4642959
ID: 4306
Comment: Provided by www.caymanchem.com/app/template/landing%2CForensic.vm / Item #17366
Num Peaks: 191
40 16; 41 86; 42 50; 43 15; 44 5; 
45 2; 50 16; 51 59; 52 26; 53 40; 
54 6; 55 70; 56 12; 57 4; 58 4; 
59 1; 62 10; 63 68; 64 34; 65 89; 
66 23; 67 33; 68 5; 69 13; 70 4; 
71 13; 73 7; 74 14; 75 30; 76 77; 
77 245; 78 79; 79 81; 80 6; 81 30; 
82 44; 83 55; 84 6; 85 2; 86 6; 
87 17; 88 15; 89 91; 90 32; 91 249; 
92 30; 93 11; 94 3; 95 6; 96 8; 
97 5; 98 20; 99 5; 100 2; 101 8; 
102 52; 103 68; 104 24; 105 96; 106 15; 
107 8; 108 2; 109 5; 110 3; 111 5; 
112 10; 113 15; 114 12; 115 406; 116 84; 
117 70; 118 17; 119 15; 120 3; 121 2; 
122 1; 125 5; 126 29; 127 132; 128 398; 
129 232; 130 44; 131 43; 132 8; 133 13; 
134 3; 135 7; 137 1; 138 3; 139 100; 
140 30; 141 600; 142 242; 143 92; 144 20; 
145 19; 146 9; 147 14; 148 3; 149 2; 
150 13; 151 54; 152 270; 153 383; 154 219; 
155 619; 156 191; 157 53; 158 14; 159 16; 
160 9; 161 6; 162 2; 163 19; 164 18; 
165 279; 166 127; 167 244; 168 156; 169 432; 
170 862; 171 130; 172 12; 173 2; 174 1; 
175 1; 176 13; 177 14; 178 87; 179 103; 
180 34; 181 346; 182 181; 183 256; 184 267; 
185 50; 186 6; 187 3; 189 9; 190 3; 
191 12; 192 11; 193 57; 194 37; 195 63; 
196 123; 197 310; 198 63; 199 33; 200 6; 
202 4; 203 1; 205 3; 206 1; 207 165; 
208 74; 209 273; 210 55; 211 456; 212 256; 
213 54; 214 9; 217 2; 219 2; 220 3; 
221 11; 222 261; 223 72; 224 834; 225 194; 
226 35; 227 5; 233 2; 235 92; 236 17; 
237 6; 238 2; 239 10; 240 25; 241 5; 
249 6; 250 76; 251 18; 253 119; 254 26; 
255 4; 265 2; 266 1; 268 999; 269 191; 
270 27; 
