Name: Nordiazepam-d5
InChIKey: AKPLHCDWDRPJGD-RALIUCGRSA-N
Formula: C15H6D5ClN2O
MW: 275
ExactMass: 275.087374
CASNO: 65891807
ID: 4307
Comment: Provided by www.caymanchem.com/app/template/landing%2CForensic.vm / Item #18346
Num Peaks: 221
40 7; 41 12; 42 38; 43 5; 44 4; 
45 1; 47 1; 49 4; 50 17; 51 28; 
52 45; 53 18; 54 83; 55 8; 56 9; 
57 2; 60 2; 61 10; 62 23; 63 47; 
64 36; 65 32; 66 34; 67 7; 68 16; 
69 15; 70 8; 71 3; 72 8; 73 30; 
74 25; 75 74; 76 61; 77 97; 78 91; 
80 42; 81 38; 82 115; 83 29; 84 22; 
85 14; 86 12; 87 24; 88 30; 89 33; 
90 34; 91 56; 92 52; 93 31; 94 31; 
95 24; 96 58; 97 16; 98 17; 99 28; 
100 33; 101 22; 102 44; 103 25; 104 37; 
105 6; 106 114; 107 15; 108 34; 109 53; 
110 30; 111 53; 112 47; 113 23; 114 20; 
115 13; 116 12; 117 13; 118 9; 119 18; 
120 36; 121 39; 122 38; 123 26; 124 28; 
125 13; 126 12; 127 16; 128 21; 129 24; 
130 23; 131 38; 132 22; 133 10; 134 3; 
135 3; 136 22; 137 20; 138 82; 139 24; 
140 30; 141 17; 142 12; 143 18; 144 16; 
145 5; 146 2; 147 2; 148 1; 149 6; 
150 8; 151 8; 152 15; 153 34; 154 75; 
155 117; 156 108; 157 66; 158 15; 159 3; 
162 2; 163 58; 164 37; 165 36; 166 35; 
167 41; 168 32; 169 24; 170 26; 171 7; 
172 2; 173 1; 175 2; 176 2; 177 7; 
178 9; 179 16; 180 35; 181 79; 182 102; 
183 104; 184 57; 185 49; 186 7; 187 2; 
188 1; 189 4; 190 12; 191 10; 192 12; 
193 13; 194 17; 195 14; 196 11; 197 10; 
198 20; 199 4; 200 1; 201 1; 202 2; 
203 5; 204 9; 205 4; 206 3; 207 20; 
208 13; 209 59; 210 63; 211 34; 212 133; 
213 25; 214 5; 215 4; 216 14; 217 20; 
218 96; 219 86; 220 48; 221 28; 222 5; 
223 2; 224 6; 225 1; 227 1; 228 1; 
229 2; 230 4; 231 4; 232 6; 233 21; 
234 2; 235 7; 236 2; 237 4; 238 30; 
239 20; 240 81; 241 18; 242 12; 243 38; 
244 35; 245 110; 246 825; 247 999; 248 526; 
249 335; 250 87; 251 10; 253 12; 254 4; 
255 3; 256 2; 257 7; 258 2; 259 5; 
260 1; 265 1; 267 1; 271 2; 273 741; 
274 193; 275 809; 276 159; 277 189; 278 33; 
279 3; 
