Name: F2201
Synon: 5-Fluoro-JWH-412
Synon: JWH-412 5-Fluoropentyl analogue
Synon: (4-Fluoro-1-naphthalenyl)[1-(5-fluoropentyl)-1H-indol-3-yl]-methanone
Synon: 5F-JWH-412
InChIKey: DYMIQRSPYZCJDG-UHFFFAOYSA-N
Formula: C24H21F2NO
MW: 377
ExactMass: 377.15912
CASNO: 1391485394
ID: 4308
Comment: Provided by www.caymanchem.com/app/template/landing%2CForensic.vm Item #9001580
Num Peaks: 320
40 1; 41 280; 42 14; 43 103; 44 17; 
45 6; 46 3; 47 65; 48 1; 49 1; 
50 8; 51 17; 52 5; 53 14; 54 4; 
55 17; 56 2; 57 2; 58 1; 59 27; 
60 2; 61 21; 62 7; 63 17; 64 5; 
65 6; 66 1; 67 6; 68 2; 69 51; 
70 3; 71 2; 72 2; 73 28; 74 10; 
75 66; 76 33; 77 43; 78 23; 79 3; 
80 1; 81 2; 82 2; 83 1; 84 1; 
85 4; 86 2; 87 11; 88 20; 89 100; 
90 15; 91 6; 92 3; 93 6; 94 11; 
95 13; 96 4; 97 3; 98 9; 99 48; 
100 7; 101 55; 102 165; 103 56; 104 6; 
105 3; 106 8; 107 3; 109 2; 110 5; 
111 2; 112 6; 113 7; 114 31; 115 121; 
116 238; 117 78; 118 15; 119 12; 120 6; 
121 6; 122 12; 123 14; 124 4; 125 288; 
126 30; 127 12; 128 149; 129 147; 130 106; 
131 23; 132 11; 133 14; 134 4; 135 15; 
136 32; 137 12; 138 1; 139 3; 140 3; 
141 5; 142 11; 143 49; 144 703; 145 999; 
146 154; 147 18; 148 5; 149 2; 150 2; 
151 164; 152 2; 153 2; 154 12; 155 5; 
156 16; 157 33; 158 13; 159 35; 160 4; 
161 3; 162 2; 163 7; 164 3; 165 2; 
166 2; 167 6; 168 18; 169 4; 170 51; 
171 13; 172 10; 173 706; 174 75; 175 4; 
176 2; 177 4; 178 1; 179 2; 180 7; 
181 12; 182 7; 183 4; 184 25; 185 188; 
186 28; 187 6; 188 1; 189 6; 190 1; 
191 12; 192 8; 193 7; 194 4; 195 9; 
196 5; 197 6; 198 3; 199 5; 200 2; 
201 2; 202 3; 203 4; 204 17; 205 26; 
206 9; 207 59; 208 23; 209 20; 210 5; 
211 5; 212 29; 213 20; 214 4; 215 1; 
216 1; 217 2; 218 8; 219 5; 220 10; 
221 2; 222 2; 223 3; 224 5; 225 3; 
226 13; 227 3; 228 1; 229 8; 230 13; 
231 51; 232 973; 233 232; 234 30; 235 2; 
236 2; 237 1; 238 5; 239 4; 240 22; 
241 11; 242 8; 243 8; 244 50; 245 23; 
246 25; 247 7; 248 3; 249 5; 250 2; 
251 9; 252 5; 253 26; 254 42; 255 10; 
256 19; 257 22; 258 111; 259 255; 260 120; 
261 34; 262 6; 263 1; 264 1; 265 4; 
266 3; 267 5; 268 6; 269 17; 270 18; 
271 38; 272 213; 273 112; 274 143; 275 28; 
276 3; 277 1; 278 1; 279 1; 280 1; 
281 19; 282 15; 283 6; 284 47; 285 74; 
286 59; 287 69; 288 451; 289 109; 290 17; 
291 1; 292 1; 293 1; 294 1; 295 1; 
296 5; 297 2; 298 25; 299 12; 300 50; 
301 1; 302 604; 303 272; 304 17; 305 3; 
306 1; 309 2; 310 2; 311 1; 312 5; 
313 3; 314 8; 315 6; 316 9; 317 4; 
318 1; 322 1; 323 1; 324 1; 325 2; 
326 5; 327 5; 328 5; 329 2; 330 7; 
331 4; 332 1; 333 1; 334 1; 335 1; 
337 1; 338 1; 339 1; 340 9; 341 7; 
342 5; 343 3; 344 3; 345 1; 346 1; 
347 2; 348 4; 349 8; 350 2; 351 1; 
354 1; 355 4; 356 16; 357 52; 358 39; 
360 388; 361 115; 362 10; 363 4; 373 1; 
376 192; 377 962; 378 209; 379 28; 380 1; 
