Name: LH 21
Synon: 5-(4-Chlorophenyl)-1-(2,4-dichlorophenyl)-3-hexyl-1H-1,2,4-triazole
InChIKey: USJFDADYVUDVAX-UHFFFAOYSA-N
Formula: C20H20Cl3N3
MW: 407
ExactMass: 407.07228
CASNO: 611207115
ID: 4310
Comment: Provided by www.caymanchem.com/app/template/landing%2CForensic.vm / Item #13453
Num Peaks: 344
40 2; 41 283; 42 60; 43 148; 44 8; 
45 5; 46 2; 47 3; 48 1; 49 8; 
50 18; 51 32; 52 7; 53 18; 54 52; 
55 108; 56 6; 57 12; 58 1; 59 3; 
60 6; 61 13; 62 13; 63 17; 64 21; 
65 11; 66 10; 67 23; 68 31; 69 27; 
70 10; 71 6; 72 8; 73 128; 74 35; 
75 125; 76 41; 77 6; 78 5; 79 5; 
80 7; 81 9; 82 79; 83 30; 84 12; 
85 15; 86 9; 87 6; 88 28; 89 18; 
90 17; 91 8; 92 2; 93 2; 94 3; 
95 4; 96 13; 97 71; 98 19; 99 38; 
100 21; 101 22; 102 119; 103 10; 104 3; 
105 3; 106 1; 107 6; 108 4; 109 90; 
110 38; 111 125; 112 20; 113 28; 114 11; 
115 33; 116 6; 118 3; 119 8; 120 2; 
121 2; 122 6; 123 13; 124 893; 125 84; 
126 286; 127 30; 128 11; 129 16; 130 7; 
131 4; 132 1; 133 77; 134 6; 135 82; 
136 150; 137 295; 138 201; 139 94; 140 52; 
141 6; 142 6; 143 4; 144 2; 145 140; 
146 17; 147 103; 148 8; 149 30; 150 21; 
151 19; 152 12; 153 5; 154 3; 155 3; 
156 5; 157 2; 158 4; 159 608; 160 106; 
161 441; 162 88; 163 100; 164 44; 165 86; 
166 16; 167 27; 168 3; 169 3; 170 3; 
171 39; 172 22; 173 82; 174 24; 175 45; 
176 21; 177 39; 178 15; 179 7; 180 6; 
181 2; 182 1; 183 1; 184 2; 185 5; 
186 9; 187 5; 188 6; 189 8; 190 9; 
191 39; 192 18; 193 23; 194 5; 195 9; 
196 2; 197 5; 198 12; 199 49; 200 29; 
201 41; 202 21; 203 5; 204 5; 205 8; 
206 2; 207 72; 208 11; 209 10; 210 4; 
211 21; 212 14; 213 17; 214 22; 215 5; 
216 13; 217 4; 218 4; 219 2; 220 2; 
221 1; 222 1; 223 1; 224 2; 225 4; 
226 10; 227 8; 228 8; 229 5; 230 1; 
231 2; 232 5; 233 2; 234 12; 235 10; 
236 5; 237 4; 238 4; 239 6; 240 4; 
241 4; 242 3; 243 2; 244 1; 245 3; 
246 8; 247 6; 248 4; 249 2; 250 2; 
251 7; 252 2; 253 6; 254 4; 255 6; 
256 2; 258 1; 260 3; 261 2; 262 17; 
263 8; 264 12; 265 5; 266 3; 267 15; 
268 4; 269 7; 270 24; 271 5; 272 21; 
273 6; 274 5; 275 6; 276 1; 277 1; 
278 1; 279 3; 280 7; 281 29; 282 70; 
283 10; 284 66; 285 11; 286 22; 287 2; 
288 6; 289 1; 290 2; 293 1; 294 1; 
295 1; 296 2; 297 2; 298 1; 299 2; 
300 3; 301 24; 302 30; 303 13; 304 9; 
305 4; 306 3; 307 1; 309 1; 311 1; 
312 1; 313 1; 314 17; 315 16; 316 15; 
317 9; 318 6; 319 1; 321 1; 324 1; 
325 2; 326 1; 327 8; 328 9; 329 3; 
330 6; 331 3; 332 4; 333 1; 335 1; 
337 999; 338 179; 339 945; 340 166; 341 318; 
342 60; 343 46; 344 10; 345 1; 346 2; 
348 1; 350 363; 351 129; 352 348; 353 124; 
354 121; 355 43; 356 15; 357 9; 358 1; 
363 1; 364 107; 365 72; 366 115; 367 66; 
368 26; 369 21; 370 4; 371 2; 372 5; 
373 1; 374 2; 376 2; 377 1; 378 84; 
379 19; 380 82; 381 13; 382 27; 383 7; 
384 2; 385 1; 390 1; 392 30; 393 7; 
394 29; 395 6; 396 9; 397 2; 398 1; 
405 4; 406 4; 407 64; 408 22; 409 61; 
410 18; 411 16; 412 4; 413 2; 
