Name: Temazepam-d5
InChIKey: SEQDDYPDSLOBDC-VIQYUKPQSA-N
Formula: C16H8D5ClN2O2
MW: 305
ExactMass: 305.097939
CASNO: 136765510
ID: 4314
Comment: Provided by www.caymanchem.com/app/template/landing%2CForensic.vm / Item #18565
Num Peaks: 235
41 4; 42 15; 43 3; 44 5; 45 1; 
49 1; 50 8; 51 10; 52 16; 53 9; 
54 44; 55 4; 56 7; 57 3; 58 5; 
60 1; 61 4; 62 6; 63 18; 64 12; 
65 11; 66 11; 67 3; 68 3; 69 1; 
70 4; 71 4; 72 4; 73 16; 74 11; 
75 41; 76 22; 77 29; 78 22; 79 11; 
80 26; 81 36; 82 89; 83 21; 84 13; 
85 7; 86 4; 87 7; 88 12; 89 13; 
90 17; 91 12; 92 13; 93 10; 94 5; 
95 3; 96 13; 97 6; 98 17; 99 24; 
100 18; 101 9; 102 16; 103 11; 104 12; 
105 10; 106 14; 107 13; 108 24; 109 55; 
110 23; 111 32; 112 17; 113 21; 114 13; 
115 5; 116 17; 117 16; 118 8; 119 9; 
120 22; 121 11; 122 3; 123 14; 124 23; 
125 19; 126 12; 127 10; 128 9; 129 12; 
130 11; 131 20; 132 22; 133 8; 134 3; 
135 3; 136 9; 137 5; 138 25; 139 14; 
140 38; 141 14; 142 19; 143 18; 144 15; 
145 6; 146 2; 147 3; 148 1; 149 1; 
150 15; 151 19; 152 31; 153 24; 154 32; 
155 38; 156 35; 157 28; 158 8; 159 1; 
160 1; 162 1; 163 8; 164 6; 165 30; 
166 19; 167 36; 168 34; 169 46; 170 56; 
171 21; 172 8; 173 2; 176 2; 177 5; 
178 12; 179 17; 180 19; 181 28; 182 25; 
183 16; 184 13; 185 17; 186 4; 187 1; 
188 1; 189 1; 190 4; 191 5; 192 3; 
193 25; 194 14; 195 42; 196 24; 197 42; 
198 64; 199 16; 200 2; 202 2; 203 6; 
204 9; 205 6; 206 10; 207 15; 208 7; 
209 7; 210 14; 211 10; 212 5; 213 10; 
214 3; 215 1; 216 2; 217 5; 218 20; 
219 13; 220 10; 221 3; 222 2; 223 3; 
224 5; 225 10; 226 59; 227 15; 228 2; 
229 2; 230 4; 231 9; 232 67; 233 77; 
234 33; 235 26; 236 4; 237 1; 238 1; 
239 5; 240 6; 241 11; 242 11; 243 14; 
244 9; 245 14; 246 25; 247 53; 248 27; 
249 20; 250 7; 251 1; 253 3; 257 2; 
258 6; 259 26; 260 175; 261 170; 262 126; 
263 61; 264 24; 265 3; 272 2; 273 28; 
274 11; 275 53; 276 999; 277 187; 278 329; 
279 53; 280 4; 281 2; 286 2; 287 5; 
288 3; 289 4; 290 1; 291 1; 303 15; 
304 8; 305 103; 306 10; 307 32; 308 4; 
