Name: 4-EAPB
Synon: 4-(2-Ethylaminopropyl)benzofuran
Synon: 1-(Benzofuran-4-yl)-N-ethylpropan-2-amine
InChIKey: MRILILMKQADCNG-UHFFFAOYSA-N
Formula: C13H17NO
MW: 203
ExactMass: 203.131014
CASNO: 0
ID: 4315
Comment: Provided by www.caymanchem.com/app/template/landing%2CForensic.vm / Item #9002102  Lot #0461817 / Item #9002102 / SWGDRUG Monograph available
Num Peaks: 70
41 8; 42 32; 43 6; 44 112; 45 3; 
50 5; 51 15; 52 3; 53 3; 54 2; 
55 1; 56 22; 57 6; 62 6; 63 17; 
64 3; 65 3; 66 1; 68 2; 69 1; 
70 84; 71 9; 72 999; 73 52; 74 7; 
75 9; 76 13; 77 79; 78 10; 79 2; 
86 1; 87 4; 88 1; 89 11; 90 4; 
91 11; 94 1; 101 4; 102 32; 103 18; 
104 6; 105 3; 114 2; 115 25; 116 7; 
117 3; 118 5; 126 1; 127 9; 128 17; 
129 16; 130 6; 131 157; 132 21; 133 2; 
141 1; 143 2; 144 5; 145 2; 157 5; 
158 7; 159 8; 170 1; 172 1; 173 1; 
186 1; 188 4; 189 1; 201 2; 202 3; 
