Name: FUB-NPB-22
Synon: 5-Fluoro-NIN
Synon: FUB-PB-22 indazole analogue
Synon: Quinolin-8-yl-1-(4-fluorobenzyl)-1H-indazole-3-carboxylate
Synon: 5F-NIN
InChIKey: NYHGKZZRRCVGAU-UHFFFAOYSA-N
Formula: C24H16FN3O2
MW: 397
ExactMass: 397.122656
CASNO: 0
ID: 4316
Comment: Provided by www.caymanchem.com/app/template/landing%2CForensic.vm / Item #16883
Num Peaks: 103
41 1; 44 2; 50 5; 51 8; 52 2; 
53 1; 57 6; 59 3; 61 1; 62 16; 
63 33; 64 5; 65 4; 70 1; 73 4; 
74 3; 75 15; 76 10; 77 7; 78 1; 
81 1; 82 1; 83 73; 84 2; 86 1; 
87 6; 88 49; 89 79; 90 22; 91 2; 
95 7; 96 7; 97 1; 101 5; 102 22; 
103 7; 104 1; 107 10; 108 6; 109 999; 
110 48; 111 1; 114 4; 115 3; 116 103; 
117 31; 121 1; 122 3; 128 6; 129 11; 
130 1; 131 1; 133 2; 135 1; 144 11; 
145 17; 146 3; 150 1; 151 1; 169 2; 
170 2; 175 1; 176 5; 177 4; 178 1; 
193 2; 194 1; 195 2; 196 4; 197 4; 
198 1; 202 2; 203 2; 204 5; 205 2; 
207 6; 208 1; 222 1; 223 13; 224 7; 
225 3; 226 1; 231 1; 232 1; 243 13; 
244 6; 251 2; 253 674; 254 116; 255 8; 
260 16; 261 2; 267 1; 281 2; 282 2; 
283 1; 327 1; 331 1; 341 1; 369 1; 
397 68; 398 14; 399 1; 
