Name: 3-MAPB
Synon: 1-(Benzofuran-3-yl)-N-methylpropan-2-amine
InChIKey: OXFJYZXSCAARMC-UHFFFAOYSA-N
Formula: C12H15NO
MW: 189
ExactMass: 189.115364
CASNO: 0
ID: 4317
Comment: Provided by www.caymanchem.com/app/template/landing%2CForensic.vm / Item #9002299
Num Peaks: 82
41 11; 42 41; 43 16; 44 3; 50 11; 
51 24; 52 6; 53 4; 54 3; 55 3; 
56 62; 57 18; 58 999; 59 36; 61 1; 
62 8; 63 25; 64 4; 65 6; 67 1; 
68 1; 70 1; 72 1; 73 1; 74 13; 
75 17; 76 22; 77 108; 78 13; 79 2; 
80 1; 81 1; 86 3; 87 8; 88 2; 
89 12; 90 5; 91 10; 92 1; 94 1; 
98 2; 99 1; 101 6; 102 49; 103 58; 
104 7; 105 3; 113 2; 114 2; 115 29; 
116 6; 117 3; 118 5; 119 1; 126 2; 
127 10; 128 18; 129 8; 130 5; 131 132; 
132 22; 133 4; 139 1; 142 1; 143 2; 
144 12; 145 5; 146 2; 147 1; 156 2; 
157 8; 158 7; 159 6; 160 1; 172 6; 
173 6; 174 7; 175 1; 186 2; 187 8; 
188 3; 189 1; 
