Name: 4-Fluoro-IPV
Synon: 4-Fluoro-NPP
Synon: 4-Fluoro-N-isopropyl-pentedrone
Synon: 1-(4-Fluorophenyl)-2-(isopropylamino)pentan-1-one
InChIKey: OWNVSTVTZITAOJ-UHFFFAOYSA-N
Formula: C14H20FNO
MW: 237
ExactMass: 237.152892
CASNO: 0
ID: 4319
Comment: Provided by www.caymanchem.com/app/template/landing%2CForensic.vm / Item #9002414
Num Peaks: 84
40 2; 41 57; 42 29; 43 53; 44 22; 
45 1; 50 7; 51 6; 52 1; 53 4; 
54 2; 55 22; 56 18; 57 7; 58 5; 
63 2; 67 2; 68 14; 69 10; 70 79; 
71 6; 72 316; 73 19; 74 8; 75 81; 
76 8; 77 4; 80 1; 81 2; 82 5; 
83 5; 84 16; 85 8; 93 2; 94 13; 
95 230; 96 25; 97 9; 98 15; 99 3; 
101 2; 103 2; 107 3; 108 2; 109 19; 
110 2; 112 22; 113 3; 114 999; 115 93; 
116 4; 120 1; 121 2; 122 3; 123 191; 
124 29; 125 3; 133 5; 134 3; 135 4; 
136 10; 137 1; 138 2; 146 2; 147 1; 
148 2; 149 1; 150 2; 151 3; 152 20; 
153 1; 162 1; 163 1; 164 4; 166 3; 
178 11; 179 2; 180 2; 192 1; 194 11; 
195 1; 222 7; 223 1; 236 1; 
