Name: Diazepam-d5
InChIKey: AAOVKJBEBIDNHE-VIQYUKPQSA-N
Formula: C16H8D5ClN2O
MW: 289
ExactMass: 289.103024
CASNO: 65854764
ID: 4320
Comment: Provided by www.caymanchem.com/app/template/landing%2CForensic.vm / Item #18548
Num Peaks: 234
40 6; 41 9; 42 33; 43 5; 44 1; 
45 1; 49 2; 50 10; 51 15; 52 22; 
53 9; 54 51; 55 5; 56 7; 57 2; 
58 1; 60 1; 61 4; 62 10; 63 24; 
64 18; 65 18; 66 25; 67 5; 68 13; 
69 13; 70 5; 71 3; 72 5; 73 15; 
74 14; 75 46; 76 30; 77 32; 78 24; 
79 11; 80 23; 81 18; 82 81; 83 23; 
84 22; 85 15; 86 12; 87 14; 88 19; 
89 46; 90 27; 91 24; 92 18; 93 17; 
94 20; 95 13; 96 59; 97 18; 98 22; 
99 32; 100 21; 101 13; 102 27; 103 14; 
104 15; 105 14; 106 5; 107 9; 108 24; 
109 15; 110 18; 111 51; 112 70; 113 71; 
114 14; 115 12; 116 25; 117 57; 118 19; 
119 13; 120 22; 121 21; 122 16; 123 18; 
124 18; 125 55; 126 22; 127 33; 128 14; 
129 23; 130 20; 131 28; 132 13; 133 4; 
134 1; 135 1; 136 22; 137 22; 138 24; 
139 15; 140 13; 141 13; 142 16; 143 20; 
144 18; 145 6; 146 4; 147 1; 148 1; 
149 3; 150 20; 151 17; 152 30; 153 27; 
154 47; 155 65; 156 56; 157 45; 158 9; 
159 2; 162 3; 163 28; 164 17; 165 20; 
166 30; 167 51; 168 62; 169 94; 170 104; 
171 24; 172 4; 175 1; 176 3; 177 30; 
178 21; 179 31; 180 30; 181 61; 182 54; 
183 39; 184 17; 185 7; 186 1; 188 1; 
189 2; 190 6; 191 6; 192 7; 193 12; 
194 23; 195 30; 196 33; 197 38; 198 75; 
199 15; 200 2; 201 1; 202 4; 203 14; 
204 14; 205 9; 206 10; 207 17; 208 14; 
209 41; 210 59; 211 21; 212 5; 213 1; 
214 1; 215 3; 216 6; 217 16; 218 26; 
219 14; 220 15; 221 7; 222 11; 223 31; 
224 22; 225 13; 226 225; 227 47; 228 6; 
229 3; 230 7; 231 10; 232 25; 233 53; 
234 16; 235 17; 236 3; 237 7; 238 3; 
239 3; 240 1; 241 8; 242 35; 243 46; 
244 46; 245 29; 246 88; 247 23; 248 27; 
249 6; 250 1; 251 4; 252 33; 253 10; 
254 24; 255 5; 256 2; 257 10; 258 5; 
259 16; 260 383; 261 999; 262 441; 263 342; 
264 99; 265 12; 266 1; 270 2; 271 2; 
272 22; 273 6; 274 10; 275 2; 276 1; 
281 1; 285 4; 287 721; 288 161; 289 704; 
290 132; 291 150; 292 26; 293 2; 
