Name: MDA 2-aldoxime analog
Synon: .alpha.-methyl-1,3-benzodioxole-5-propanal oxime
Synon: 3-(1,3-Benzodioxol-5-yl)-2-methylpropionaldoxime
InChIKey: ISLHQWBNLXYVQG-UHFFFAOYSA-N
Formula: C11H13NO3
MW: 207
ExactMass: 207.089543
CASNO: 146322089
ID: 4328
Comment: Provided by www.caymanchem.com/app/template/landing%2CForensic.vm / Item # 9002290
Num Peaks: 101
40 1; 41 7; 42 3; 43 3; 44 10; 
45 1; 46 1; 49 1; 50 21; 51 86; 
52 17; 53 15; 54 13; 55 7; 56 1; 
61 3; 62 15; 63 35; 64 9; 65 24; 
66 5; 67 4; 68 2; 69 1; 70 2; 
72 6; 73 2; 74 10; 75 11; 76 16; 
77 206; 78 39; 79 59; 80 5; 81 1; 
86 2; 87 3; 88 4; 89 20; 90 7; 
91 15; 92 4; 93 3; 94 1; 96 2; 
101 2; 102 9; 103 28; 104 12; 105 77; 
106 12; 107 5; 114 1; 115 8; 116 8; 
117 10; 118 5; 119 2; 120 2; 121 12; 
122 6; 128 1; 129 1; 130 6; 131 12; 
132 7; 133 17; 134 9; 135 999; 136 106; 
137 9; 143 1; 144 3; 145 7; 146 5; 
147 16; 148 15; 149 2; 150 1; 158 1; 
159 5; 160 6; 161 8; 162 9; 163 9; 
164 1; 172 3; 173 3; 174 7; 175 34; 
176 26; 177 3; 187 1; 188 5; 189 60; 
190 28; 191 21; 192 3; 207 85; 208 10; 
209 1; 
