Name: Cyclobenzaprine-d3
InChIKey: JURKNVYFZMSNLP-FIBGUPNXSA-N
Formula: C20H18D3N
MW: 278
ExactMass: 278.18623
CASNO: 1184983423
ID: 4329
Comment: Provided by www.caymanchem.com/app/template/landing%2CForensic.vm / Item # 18027
Num Peaks: 117
41 2; 42 24; 43 9; 44 12; 45 23; 
46 7; 47 2; 50 1; 51 2; 52 1; 
56 1; 57 1; 58 4; 59 7; 60 42; 
61 999; 62 46; 63 6; 73 2; 74 4; 
75 5; 76 2; 77 3; 82 1; 84 1; 
85 1; 86 2; 87 6; 88 3; 89 5; 
94 2; 95 8; 98 2; 99 1; 100 3; 
101 5; 102 2; 107 6; 108 4; 110 1; 
111 1; 112 1; 113 5; 114 2; 115 5; 
116 1; 125 1; 126 2; 127 1; 128 1; 
137 2; 138 2; 139 9; 140 1; 149 1; 
150 9; 151 5; 152 11; 153 2; 161 2; 
162 4; 163 17; 164 6; 165 11; 166 2; 
174 3; 175 5; 176 16; 177 5; 178 7; 
179 1; 185 1; 186 3; 187 27; 188 20; 
189 64; 190 13; 191 8; 192 2; 193 1; 
198 1; 199 3; 200 25; 201 20; 202 104; 
203 27; 204 5; 205 1; 207 3; 209 1; 
211 7; 212 2; 213 70; 214 19; 215 268; 
216 99; 217 41; 218 7; 219 1; 224 3; 
225 3; 226 18; 227 12; 228 19; 229 19; 
230 8; 231 3; 232 1; 240 1; 241 1; 
264 1; 275 2; 276 11; 277 3; 278 4; 
279 1; 281 2; 
