Name: bk-EABDI
Synon: bk-IBP
Synon: 1-(2,3-dihydro-1H-inden-5-yl)-2-(ethylamino)butan-1-one
InChIKey: VJXZPPKMTRTYIH-UHFFFAOYSA-N
Formula: C15H21NO
MW: 231
ExactMass: 231.162314
CASNO: 0
ID: 4330
Comment: Provided by www.caymanchem.com/app/template/landing%2CForensic.vm / Item # 17990
Num Peaks: 77
41 40; 42 10; 43 8; 44 7; 50 2; 
51 6; 52 2; 53 1; 54 3; 55 3; 
56 32; 57 4; 58 60; 59 3; 62 3; 
63 14; 64 2; 65 13; 66 1; 67 1; 
68 3; 69 2; 70 26; 71 6; 74 2; 
75 3; 76 3; 77 7; 78 4; 84 21; 
85 8; 86 999; 87 68; 88 4; 89 19; 
90 3; 91 65; 92 5; 101 1; 102 9; 
103 2; 113 3; 114 4; 115 181; 116 48; 
117 55; 118 8; 119 1; 127 2; 128 5; 
129 4; 130 1; 131 7; 132 1; 139 1; 
141 2; 142 1; 143 3; 144 2; 145 57; 
146 8; 152 1; 156 1; 157 1; 158 1; 
160 1; 172 2; 173 2; 174 6; 175 1; 
184 1; 186 2; 187 1; 188 2; 198 1; 
202 10; 203 1; 
