Name: 17-.beta.-Hydroxy-androstano[3,2-c]isoxazole
InChIKey: YYWMPTGXJBPRND-YNZDMMAESA-N
Formula: C20H29NO2
MW: 315
ExactMass: 315.21983
CASNO: 884483389
ID: 4331
Comment: Provided by www.caymanchem.com/app/template/landing%2CForensic.vm / Item #17929
Num Peaks: 236
40 2; 41 193; 42 23; 43 80; 44 52; 
45 11; 50 3; 51 15; 52 17; 53 108; 
54 54; 55 183; 56 19; 57 152; 58 21; 
59 2; 63 6; 64 4; 65 68; 66 44; 
67 260; 68 78; 69 82; 70 16; 71 23; 
72 3; 73 5; 74 2; 75 1; 76 2; 
77 190; 78 48; 79 297; 80 87; 81 170; 
82 73; 83 32; 84 15; 85 5; 86 2; 
87 1; 89 4; 90 4; 91 269; 92 62; 
93 204; 94 79; 95 130; 96 27; 97 81; 
98 28; 99 4; 100 2; 101 1; 102 5; 
103 29; 104 27; 105 169; 106 318; 107 176; 
108 130; 109 65; 110 29; 111 12; 112 2; 
113 1; 115 35; 116 21; 117 61; 118 43; 
119 97; 120 249; 121 145; 122 80; 123 52; 
124 15; 125 4; 126 1; 127 7; 128 23; 
129 28; 130 25; 131 68; 132 47; 133 79; 
134 101; 135 56; 136 171; 137 35; 138 25; 
139 5; 140 1; 141 13; 142 13; 143 34; 
144 26; 145 60; 146 59; 147 60; 148 121; 
149 81; 150 78; 151 27; 152 8; 153 6; 
154 3; 155 6; 156 12; 157 30; 158 28; 
159 69; 160 55; 161 48; 162 37; 163 16; 
164 8; 165 4; 166 2; 167 4; 168 5; 
169 8; 170 9; 171 16; 172 28; 173 21; 
174 47; 175 27; 176 21; 177 8; 178 4; 
179 4; 180 2; 181 4; 182 4; 183 12; 
184 11; 185 23; 186 32; 187 22; 188 41; 
189 12; 190 16; 191 6; 192 2; 194 2; 
195 3; 196 4; 197 7; 198 8; 199 7; 
200 32; 201 19; 202 18; 203 9; 204 22; 
205 4; 206 1; 207 15; 208 3; 209 3; 
210 3; 211 5; 212 7; 213 2; 214 25; 
215 9; 216 13; 217 3; 218 14; 219 5; 
220 1; 221 2; 222 1; 223 2; 224 2; 
225 1; 226 6; 227 2; 228 75; 229 19; 
230 23; 231 4; 232 6; 233 1; 234 1; 
236 1; 237 1; 238 4; 239 3; 240 9; 
241 2; 242 32; 243 27; 244 14; 245 2; 
246 3; 247 1; 251 1; 252 1; 253 4; 
254 22; 255 4; 256 135; 257 28; 258 58; 
259 12; 260 3; 265 1; 267 1; 268 8; 
269 3; 270 30; 272 518; 273 101; 274 10; 
280 1; 281 7; 282 28; 283 5; 284 3; 
285 6; 287 999; 288 216; 289 24; 290 1; 
296 4; 297 4; 298 8; 300 37; 301 8; 
302 1; 313 1; 314 10; 315 16; 316 3; 
317 1; 
