Name: Oxycodone-d3
InChIKey: BRUQQQPBMZOVGD-FIBGUPNXSA-N
Formula: C18H18D3NO4
MW: 318
ExactMass: 318.165888
CASNO: 145225021
ID: 4335
Comment: Provided by www.caymanchem.com/app/template/landing%2CForensic.vm / Item #ISO60203
Num Peaks: 253
40 2; 41 20; 42 26; 43 37; 44 25; 
45 233; 46 21; 47 237; 48 6; 50 8; 
51 31; 52 11; 53 22; 54 7; 55 85; 
56 10; 57 10; 58 18; 59 21; 60 57; 
61 67; 62 22; 63 36; 64 13; 65 31; 
66 9; 67 10; 68 5; 69 10; 70 6; 
71 5; 72 7; 73 309; 74 53; 75 29; 
76 20; 77 73; 78 11; 79 15; 80 11; 
81 7; 82 6; 83 2; 84 11; 85 22; 
86 20; 87 76; 88 17; 89 48; 90 17; 
91 59; 92 18; 93 6; 94 8; 95 11; 
96 3; 97 26; 98 5; 99 9; 100 16; 
101 91; 102 55; 103 56; 104 13; 105 19; 
106 8; 107 5; 108 5; 109 20; 110 6; 
111 3; 112 4; 113 18; 114 38; 115 271; 
116 76; 117 54; 118 21; 119 10; 120 9; 
121 12; 122 4; 123 10; 124 6; 125 4; 
126 12; 127 69; 128 94; 129 63; 130 35; 
131 64; 132 21; 133 15; 134 13; 135 17; 
136 29; 137 13; 138 15; 139 24; 140 12; 
141 33; 142 18; 143 191; 144 69; 145 51; 
146 25; 147 31; 148 10; 149 11; 150 9; 
151 11; 152 20; 153 30; 154 15; 155 37; 
156 24; 157 38; 158 24; 159 60; 160 27; 
161 52; 162 27; 163 15; 164 14; 165 13; 
166 6; 167 7; 168 18; 169 24; 170 24; 
171 58; 172 31; 173 64; 174 45; 175 81; 
176 40; 177 18; 178 8; 179 6; 180 5; 
181 44; 182 45; 183 31; 184 30; 185 123; 
186 56; 187 156; 188 136; 189 68; 190 31; 
191 19; 192 6; 193 9; 194 6; 195 12; 
196 6; 197 23; 198 28; 199 52; 200 30; 
201 232; 202 87; 203 27; 204 20; 205 52; 
206 12; 207 9; 208 3; 209 6; 210 5; 
211 20; 212 22; 213 29; 214 26; 215 82; 
216 47; 217 104; 218 50; 219 62; 220 83; 
221 12; 222 2; 223 3; 224 1; 225 8; 
226 8; 227 16; 228 17; 229 20; 230 67; 
231 39; 232 76; 233 397; 234 77; 235 19; 
236 3; 237 2; 238 1; 239 11; 240 6; 
241 8; 242 12; 243 23; 244 24; 245 18; 
246 6; 247 24; 248 3; 249 1; 253 6; 
254 6; 255 5; 256 5; 257 17; 258 131; 
259 52; 260 8; 261 17; 262 31; 263 4; 
267 1; 268 1; 269 2; 270 1; 271 9; 
272 7; 273 10; 274 3; 275 22; 276 4; 
281 1; 283 1; 284 1; 285 3; 287 2; 
288 1; 289 11; 290 8; 291 2; 299 3; 
300 4; 301 6; 302 2; 303 41; 304 5; 
305 1; 315 12; 316 6; 317 7; 318 999; 
319 200; 320 27; 321 1; 
