Name: XLR11 N-(4-hydroxypentyl) metabolite
Synon: (1-(5-fluoro-4-hydroxypentyl)-1H-indol-3-yl)(2,2,3,3-tetramethylcyclopropyl)methanone
InChIKey: MDPXVRYUGDTVIS-UHFFFAOYSA-N
Formula: C21H28FNO2
MW: 345
ExactMass: 345.210407
CASNO: 1782099368
ID: 4339
Comment: Provided by www.caymanchem.com/app/template/landing%2CForensic.vm / Item #17727
Num Peaks: 254
41 134; 42 12; 43 91; 44 2; 45 7; 
46 1; 47 2; 49 2; 50 7; 51 6; 
52 5; 53 27; 54 4; 55 113; 56 5; 
57 35; 58 7; 59 35; 60 2; 61 10; 
62 1; 63 66; 64 6; 65 15; 66 7; 
67 52; 68 6; 69 53; 70 4; 71 13; 
73 14; 74 5; 75 12; 76 9; 77 31; 
78 10; 79 15; 80 4; 81 56; 82 12; 
83 66; 84 14; 85 6; 86 2; 87 22; 
88 10; 89 38; 90 11; 91 15; 92 2; 
93 5; 94 2; 95 3; 96 26; 97 23; 
98 3; 99 2; 100 1; 101 17; 102 34; 
103 26; 104 4; 105 7; 106 2; 107 1; 
108 2; 109 34; 110 3; 111 2; 112 2; 
113 5; 114 10; 115 62; 116 101; 117 30; 
118 19; 119 9; 120 3; 124 1; 125 36; 
126 14; 127 15; 128 47; 129 61; 130 94; 
131 12; 132 4; 133 5; 134 1; 135 3; 
136 1; 139 4; 140 8; 141 10; 142 12; 
143 64; 144 392; 145 43; 146 6; 147 1; 
148 2; 149 1; 150 1; 151 2; 152 10; 
153 4; 154 29; 155 9; 156 12; 157 11; 
158 15; 159 3; 160 1; 163 4; 165 8; 
166 13; 167 57; 168 63; 169 14; 170 28; 
171 4; 172 7; 173 1; 174 1; 176 1; 
177 7; 178 3; 179 5; 180 53; 181 34; 
182 83; 183 17; 184 22; 185 7; 186 4; 
187 1; 188 1; 189 1; 190 1; 191 4; 
192 5; 193 14; 194 34; 195 13; 196 48; 
197 17; 198 18; 199 5; 200 2; 201 2; 
202 1; 203 2; 204 5; 205 2; 206 5; 
207 54; 208 21; 209 7; 210 32; 211 4; 
212 11; 213 3; 214 8; 215 2; 218 2; 
219 4; 220 3; 221 28; 222 20; 223 5; 
224 23; 225 9; 226 9; 227 1; 228 4; 
230 4; 231 1; 232 1; 233 1; 234 7; 
235 2; 236 2; 237 1; 238 3; 239 6; 
240 1; 241 1; 242 1; 243 1; 244 1; 
245 1; 246 7; 248 999; 249 158; 250 20; 
251 5; 252 6; 253 5; 254 22; 255 2; 
256 1; 260 1; 261 1; 262 10; 263 81; 
264 16; 265 1; 266 2; 267 4; 268 7; 
269 4; 270 1; 272 12; 273 2; 274 2; 
275 1; 277 2; 278 1; 281 6; 282 6; 
283 4; 284 4; 285 1; 286 48; 287 38; 
288 9; 289 1; 292 1; 294 4; 296 2; 
301 1; 302 21; 303 4; 304 5; 305 2; 
309 2; 310 1; 312 10; 313 2; 315 5; 
316 3; 325 3; 327 3; 328 10; 330 127; 
331 30; 332 2; 335 1; 341 2; 343 2; 
344 1; 345 111; 346 22; 347 3; 
