Name: XLR11 N-(4-hydroxypentyl) metabolite-d5
InChIKey: MDPXVRYUGDTVIS-FOZLTFMXSA-N
Formula: C21H23D5FNO2
MW: 350
ExactMass: 350.24179
CASNO: 0
ID: 4340
Comment: Provided by www.caymanchem.com/app/template/landing%2CForensic.vm / Item #14377
Num Peaks: 281
40 1; 41 109; 42 14; 43 85; 44 7; 
45 2; 46 1; 47 1; 49 1; 50 3; 
51 3; 52 4; 53 20; 54 8; 55 98; 
56 11; 57 26; 58 4; 59 29; 60 2; 
61 15; 62 3; 63 51; 64 5; 65 11; 
66 8; 67 45; 68 7; 69 32; 70 3; 
71 12; 72 2; 73 10; 74 1; 75 2; 
76 2; 77 10; 78 9; 79 32; 80 16; 
81 65; 82 13; 83 54; 84 8; 85 19; 
86 3; 87 20; 88 2; 89 2; 90 2; 
91 7; 92 10; 93 25; 94 20; 95 13; 
96 14; 97 28; 98 3; 100 2; 101 1; 
103 13; 104 4; 105 12; 106 27; 107 37; 
108 11; 109 40; 110 8; 111 2; 112 1; 
114 2; 115 4; 116 1; 117 4; 118 14; 
119 24; 120 49; 121 92; 122 25; 123 12; 
124 1; 125 36; 126 4; 127 1; 129 12; 
130 6; 131 15; 132 26; 133 40; 134 80; 
135 90; 136 15; 137 4; 141 6; 142 6; 
143 3; 144 5; 145 5; 146 9; 147 23; 
148 91; 149 375; 150 42; 151 6; 152 1; 
153 1; 154 2; 155 4; 156 7; 157 10; 
158 16; 159 18; 160 14; 161 18; 162 19; 
163 16; 164 4; 165 2; 167 1; 168 2; 
169 4; 170 10; 171 26; 172 48; 173 43; 
174 15; 175 26; 176 8; 177 11; 178 2; 
179 2; 180 1; 181 2; 182 2; 183 9; 
184 24; 185 41; 186 46; 187 64; 188 22; 
189 18; 190 6; 191 2; 192 2; 193 2; 
194 1; 195 2; 196 4; 197 9; 198 25; 
199 19; 200 19; 201 36; 202 16; 203 14; 
204 4; 205 4; 206 3; 207 12; 208 6; 
209 4; 210 3; 211 4; 212 6; 213 9; 
214 13; 215 27; 216 13; 217 51; 218 11; 
219 13; 220 1; 221 1; 222 2; 223 2; 
224 4; 225 4; 226 28; 227 17; 228 9; 
229 21; 230 10; 231 9; 232 6; 233 30; 
234 7; 235 7; 236 2; 237 2; 238 3; 
239 6; 240 3; 241 3; 242 3; 243 3; 
244 5; 245 3; 246 1; 247 2; 248 4; 
249 1; 250 4; 251 36; 252 91; 253 999; 
254 164; 255 20; 256 5; 257 6; 258 9; 
259 14; 260 3; 261 1; 265 2; 266 5; 
267 23; 268 84; 269 14; 270 4; 271 4; 
272 5; 273 4; 274 1; 275 2; 276 2; 
277 12; 278 3; 279 2; 280 1; 281 9; 
282 7; 283 1; 284 1; 286 1; 287 2; 
288 3; 289 2; 290 16; 291 44; 292 42; 
293 8; 294 1; 296 1; 297 1; 299 9; 
300 1; 301 1; 302 1; 304 1; 305 1; 
306 13; 307 12; 308 4; 309 10; 310 3; 
311 1; 313 1; 314 7; 315 9; 316 4; 
317 17; 318 5; 319 2; 320 7; 321 2; 
327 2; 329 1; 330 6; 331 5; 332 3; 
333 14; 334 9; 335 127; 336 29; 337 3; 
341 2; 348 5; 349 13; 350 122; 351 29; 
352 3; 
