Name: Norfentanyl-d5
InChIKey: PMCBDBWCQQBSRJ-DKFMXDSJSA-N
Formula: C14H15D5N2O
MW: 237
ExactMass: 237.188947
CASNO: 1211527239
ID: 4342
Comment: Provided by www.caymanchem.com/app/template/landing%2CForensic.vm / Item 15832
Num Peaks: 131
40 8; 41 28; 42 129; 43 45; 44 29; 
45 3; 50 4; 51 7; 52 17; 53 44; 
54 120; 55 185; 56 268; 57 393; 58 24; 
59 2; 60 1; 62 1; 64 3; 65 5; 
66 20; 67 33; 68 416; 69 52; 70 50; 
71 29; 72 4; 73 2; 74 3; 75 4; 
76 3; 77 1; 78 8; 79 8; 80 68; 
81 75; 82 987; 83 999; 84 368; 85 31; 
86 2; 92 3; 93 8; 94 19; 95 48; 
96 100; 97 76; 98 364; 99 95; 100 8; 
101 1; 105 1; 106 4; 107 13; 108 35; 
109 95; 110 39; 111 53; 112 11; 118 4; 
119 6; 120 21; 121 45; 122 155; 123 149; 
124 139; 125 380; 126 41; 127 43; 128 8; 
129 1; 130 1; 131 2; 132 4; 133 10; 
134 52; 135 54; 136 78; 137 145; 138 77; 
139 26; 140 3; 141 19; 142 2; 145 1; 
146 5; 147 28; 148 19; 149 24; 150 25; 
151 147; 152 71; 153 29; 154 77; 155 263; 
156 32; 157 2; 160 1; 161 5; 162 24; 
163 88; 164 450; 165 75; 166 8; 167 1; 
176 2; 177 4; 178 15; 179 48; 180 350; 
181 94; 182 8; 190 1; 191 1; 192 1; 
193 5; 194 9; 195 2; 206 1; 207 7; 
208 29; 209 5; 218 1; 219 4; 220 3; 
222 1; 235 2; 236 3; 237 38; 238 15; 
239 2; 
