Name: Diazepam-d8
InChIKey: AAOVKJBEBIDNHE-JGUCLWPXSA-N
Formula: C16H5D8ClN2O
MW: 292
ExactMass: 292.121855
CASNO: 83056502
ID: 4343
Comment: Provided by www.caymanchem.com/app/template/landing%2CForensic.vm / Item 18309
Num Peaks: 242
40 5; 41 9; 42 29; 43 4; 44 6; 
45 13; 46 4; 49 2; 50 10; 51 15; 
52 25; 53 11; 54 58; 55 5; 56 7; 
57 1; 58 4; 60 3; 61 6; 62 11; 
63 25; 64 22; 65 17; 66 24; 67 6; 
68 14; 69 20; 70 7; 71 2; 72 5; 
73 18; 74 16; 75 42; 76 38; 77 37; 
78 30; 79 15; 80 28; 81 19; 82 87; 
83 16; 84 18; 85 15; 86 13; 87 17; 
88 21; 89 23; 90 26; 91 34; 92 23; 
93 26; 94 28; 95 13; 96 56; 97 14; 
98 23; 99 28; 100 38; 101 20; 102 22; 
103 17; 104 20; 105 15; 106 14; 107 12; 
108 27; 109 13; 110 20; 111 28; 112 47; 
113 1; 114 83; 115 1; 116 12; 117 18; 
118 14; 119 41; 120 52; 121 35; 122 21; 
123 11; 124 23; 125 10; 126 32; 127 17; 
128 54; 129 23; 130 34; 131 42; 132 15; 
133 11; 134 3; 135 2; 136 22; 137 19; 
138 18; 139 14; 140 17; 141 13; 142 13; 
143 19; 144 20; 145 11; 146 9; 147 7; 
148 3; 149 8; 150 6; 151 5; 152 24; 
153 29; 154 63; 155 90; 156 73; 157 63; 
158 15; 159 4; 160 1; 162 2; 163 24; 
164 20; 165 15; 166 23; 167 39; 168 50; 
169 41; 170 50; 171 97; 172 52; 173 18; 
174 4; 175 2; 176 4; 177 4; 178 9; 
179 25; 180 46; 181 62; 182 80; 183 48; 
184 32; 185 11; 186 7; 187 3; 188 2; 
189 2; 190 8; 191 9; 192 6; 193 6; 
194 10; 195 16; 196 15; 197 22; 198 17; 
199 29; 200 29; 201 55; 202 13; 203 6; 
204 17; 205 10; 206 11; 207 21; 208 14; 
209 42; 210 65; 211 28; 212 7; 213 3; 
214 2; 215 4; 216 6; 217 17; 218 26; 
219 16; 220 18; 221 5; 222 4; 223 3; 
224 5; 225 14; 226 24; 227 22; 228 17; 
229 225; 230 48; 231 9; 232 9; 233 6; 
234 12; 235 20; 236 52; 237 21; 238 20; 
239 5; 242 19; 243 56; 244 53; 245 34; 
246 87; 247 18; 248 41; 249 8; 250 10; 
251 2; 252 1; 253 3; 254 3; 255 35; 
256 10; 257 25; 258 7; 259 4; 260 7; 
261 4; 262 27; 263 422; 264 999; 265 445; 
266 346; 267 101; 268 7; 269 1; 270 1; 
271 1; 272 23; 273 6; 274 12; 275 3; 
276 2; 281 4; 282 2; 288 4; 289 23; 
290 795; 291 179; 292 714; 293 133; 294 151; 
295 25; 296 2; 
