Name: Mirtazapine
Synon: Remeron
InChIKey: RONZAEMNMFQXRA-UHFFFAOYSA-N
Formula: C17H19N3
MW: 265
ExactMass: 265.157898
CASNO: 61337675
ID: 4347
Comment: DEA SWL / unverified from sample
Num Peaks: 137
40 1; 41 5; 42 51; 43 65; 44 7; 
50 2; 51 6; 52 3; 53 1; 54 3; 
55 2; 56 10; 57 6; 58 4; 62 2; 
63 9; 64 4; 65 7; 66 1; 67 1; 
70 12; 71 47; 72 17; 73 1; 74 2; 
75 4; 76 5; 77 10; 78 6; 79 2; 
83 1; 84 4; 85 3; 86 1; 87 2; 
88 3; 89 12; 90 7; 91 8; 92 4; 
93 1; 96 1; 97 5; 98 2; 99 1; 
100 1; 101 3; 102 6; 103 8; 104 6; 
105 1; 107 1; 111 45; 113 6; 114 7; 
115 20; 116 9; 117 5; 118 2; 119 2; 
125 1; 126 6; 127 11; 128 9; 129 3; 
130 3; 131 4; 132 1; 137 2; 138 5; 
139 45; 140 36; 141 10; 142 2; 143 1; 
144 2; 145 1; 150 5; 151 17; 152 42; 
153 16; 154 7; 155 2; 156 1; 163 4; 
164 15; 165 18; 166 88; 167 101; 168 29; 
169 4; 170 1; 176 2; 177 6; 178 17; 
179 35; 180 102; 181 24; 182 3; 189 1; 
190 6; 191 14; 192 42; 193 100; 194 288; 
195 999; 196 144; 197 9; 203 1; 204 5; 
205 15; 206 14; 207 27; 208 143; 209 25; 
210 2; 217 1; 218 6; 219 16; 220 7; 
221 48; 222 33; 223 6; 231 1; 232 1; 
233 2; 234 2; 235 1; 236 1; 248 2; 
249 1; 250 8; 251 1; 263 1; 265 49; 
266 10; 267 1; 
