Name: Norfludiazepam
Synon: Desalkylflurazepam
InChIKey: UVCOILFBWYKHHB-UHFFFAOYSA-N
Formula: C15H10ClFN2O
MW: 288
ExactMass: 288.046568
CASNO: 2886659
ID: 4354
Comment: DEA SWL / unverified from sample
Num Peaks: 232
40 9; 41 10; 42 17; 43 5; 44 2; 
45 4; 46 2; 47 2; 49 10; 50 69; 
51 103; 52 49; 53 8; 54 5; 55 5; 
56 7; 57 53; 58 3; 59 7; 60 4; 
61 27; 62 73; 63 134; 64 32; 65 18; 
66 3; 67 3; 68 28; 69 27; 70 24; 
71 8; 72 36; 73 43; 74 102; 75 315; 
76 105; 77 142; 78 33; 79 2; 80 16; 
81 68; 82 16; 83 50; 84 68; 85 182; 
86 60; 87 50; 89 131; 90 39; 91 15; 
92 11; 93 37; 94 73; 95 93; 96 29; 
97 27; 98 153; 99 149; 100 61; 101 38; 
102 384; 104 40; 105 38; 106 46; 107 134; 
108 41; 109 115; 110 60; 111 160; 112 336; 
113 65; 114 42; 115 18; 116 86; 117 50; 
118 24; 119 37; 120 130; 121 72; 122 103; 
123 73; 124 56; 125 52; 126 64; 127 23; 
128 9; 129 58; 130 57; 131 52; 132 37; 
133 34; 134 123; 135 43; 136 59; 137 45; 
138 229; 139 48; 140 75; 141 14; 142 10; 
143 22; 144 104; 145 39; 146 27; 147 13; 
148 8; 149 61; 150 95; 151 90; 152 37; 
153 14; 154 10; 155 21; 156 23; 157 49; 
158 26; 159 7; 160 3; 161 8; 162 18; 
163 162; 164 49; 165 77; 166 46; 167 36; 
168 110; 169 164; 170 180; 171 42; 172 7; 
173 2; 174 8; 175 32; 176 94; 177 199; 
178 78; 179 48; 180 18; 181 58; 182 43; 
183 48; 184 18; 185 9; 186 10; 187 4; 
188 7; 189 4; 190 9; 191 13; 192 12; 
193 14; 194 19; 195 125; 196 119; 197 115; 
198 76; 199 11; 200 2; 201 2; 202 8; 
203 18; 204 30; 205 43; 206 19; 207 7; 
208 21; 209 10; 210 13; 211 49; 212 19; 
213 28; 214 31; 215 13; 216 11; 217 13; 
218 3; 219 5; 220 2; 221 3; 222 3; 
223 64; 224 53; 225 104; 226 22; 227 3; 
229 1; 230 3; 231 26; 232 132; 233 32; 
234 57; 235 8; 236 1; 237 2; 238 3; 
239 63; 240 26; 241 34; 242 12; 243 6; 
244 4; 245 7; 246 21; 247 5; 248 7; 
251 4; 252 39; 253 56; 254 10; 255 2; 
257 14; 258 16; 259 999; 260 848; 261 553; 
262 295; 263 77; 264 9; 267 2; 268 20; 
269 205; 270 44; 271 67; 272 11; 273 2; 
286 2; 287 585; 288 610; 289 275; 290 200; 
291 30; 292 3; 
