Name: TH-PBP
Synon: 3',4'-Tetramethylene-.alpha.-Pyrrolidinobutiophenone
InChIKey: DNKYSKGKPOHTKY-UHFFFAOYSA-N
Formula: C18H25NO
MW: 271
ExactMass: 271.193615
CASNO: 0
ID: 4355
Comment: Provided by www.caymanchem.com/app/template/landing%2CForensic.vm / Item 17956
Num Peaks: 94
40 1; 41 43; 42 30; 43 11; 44 2; 
50 1; 51 6; 52 2; 53 9; 54 14; 
55 35; 56 9; 57 1; 58 6; 62 1; 
63 6; 64 2; 65 6; 66 1; 67 3; 
68 16; 69 16; 70 52; 71 4; 73 1; 
74 1; 75 2; 76 3; 77 29; 78 6; 
79 3; 80 4; 81 2; 82 8; 83 3; 
84 5; 89 6; 90 3; 91 62; 92 5; 
93 1; 94 3; 95 1; 96 33; 97 13; 
98 1; 101 2; 102 10; 103 14; 104 5; 
105 2; 107 1; 108 5; 109 1; 110 42; 
111 15; 112 999; 113 88; 114 4; 115 43; 
116 30; 117 5; 118 1; 126 2; 127 12; 
128 28; 129 29; 130 8; 131 15; 132 2; 
141 2; 142 1; 143 2; 144 1; 145 2; 
153 1; 155 1; 156 1; 157 2; 158 1; 
159 38; 160 5; 171 1; 185 1; 200 1; 
202 2; 214 2; 240 1; 242 3; 250 1; 
253 1; 267 1; 269 2; 270 1; 
