Name: 3',4'-Trimethylene-.alpha.-ethylaminovalerophenone
Synon: Indanyl-N-ethyl-pentedrone
Synon: bk-IVP
Synon: 1-(2,3-dihydro-1H-inden-5-yl)-2-(ethylamino)pentan-1-one
InChIKey: JKHIJQTXTPXKTI-UHFFFAOYSA-N
Formula: C16H23NO
MW: 245
ExactMass: 245.177964
CASNO: 0
ID: 4357
Comment: Provided by www.caymanchem.com/app/template/landing%2CForensic.vm / Item 17991
Num Peaks: 87
41 14; 42 11; 43 12; 44 15; 46 1; 
50 1; 51 5; 52 1; 53 3; 54 3; 
55 14; 56 34; 57 4; 58 69; 59 3; 
62 2; 63 11; 64 2; 65 11; 66 1; 
67 1; 68 4; 69 1; 70 25; 71 15; 
72 10; 73 1; 74 1; 75 2; 76 3; 
77 5; 78 3; 79 1; 82 1; 84 10; 
85 1; 86 1; 87 2; 88 2; 89 15; 
90 3; 91 58; 92 4; 98 22; 99 5; 
100 999; 101 68; 102 9; 103 2; 113 2; 
114 3; 115 144; 116 41; 117 50; 118 7; 
127 2; 128 5; 129 3; 130 1; 131 5; 
141 2; 142 1; 143 3; 144 2; 145 47; 
146 7; 152 1; 153 1; 154 1; 155 1; 
156 1; 157 1; 158 1; 160 1; 168 1; 
170 1; 172 1; 173 2; 174 5; 184 1; 
186 1; 198 5; 199 1; 200 2; 202 8; 
203 1; 227 2; 
