Name: 3',4'-Trimethylene-.alpha.-Pyrrolidinohexanophenone
Synon: 5-BPDi
Synon: Indanyl-.alpha.-PHP
Synon: Indanyl-.alpha.-pyrrolindinohexanophenone
InChIKey: WETQQOQCDBNIKE-UHFFFAOYSA-N
Formula: C19H27NO
MW: 285
ExactMass: 285.209265
CASNO: 0
ID: 4358
Comment: Provided by www.caymanchem.com/app/template/landing%2CForensic.vm / Item 18030
Num Peaks: 107
41 37; 42 25; 43 10; 44 3; 50 1; 
51 3; 52 1; 53 4; 54 12; 55 23; 
56 14; 57 3; 62 1; 63 7; 64 1; 
65 8; 66 1; 67 5; 68 13; 69 38; 
70 18; 71 2; 72 1; 73 2; 74 1; 
75 1; 76 2; 77 5; 78 3; 79 1; 
80 4; 81 3; 82 5; 83 3; 84 40; 
85 3; 86 1; 87 1; 88 1; 89 10; 
90 2; 91 49; 92 4; 93 1; 94 4; 
95 2; 96 43; 97 27; 98 15; 99 1; 
102 6; 103 1; 106 1; 108 3; 110 29; 
111 3; 112 1; 113 1; 114 2; 115 124; 
116 38; 117 49; 118 6; 124 1; 127 2; 
128 5; 129 4; 130 1; 131 6; 135 1; 
136 4; 138 19; 139 7; 140 999; 141 115; 
142 6; 143 2; 144 2; 145 46; 146 5; 
147 1; 152 1; 153 1; 154 1; 155 1; 
156 1; 157 2; 158 1; 160 3; 165 1; 
170 1; 171 1; 173 1; 186 1; 198 1; 
200 6; 207 1; 208 1; 224 1; 226 2; 
228 5; 229 1; 253 1; 254 3; 281 1; 
283 2; 284 1; 
