Name: 4'-Chloro-.alpha.-PPP
InChIKey: ULRSISQFKHWZNP-UHFFFAOYSA-N
Synon: 4'-Chloro-PPP
Synon: 1-(4-Chlorophenyl)-2-(1-pyrrolidinyl)-1-propanone
Synon: 4'-Chloro-.alpha.-Pyrrolidinopropiophenone
Synon: 4-Chloro-PPP
Synon: 4-Cl-PPP
Formula: C13H16ClNO
MW: 237
ExactMass: 237.092042
CASNO: 93307245
ID: 4359
Comment: Provided by www.caymanchem.com/app/template/landing%2CForensic.vm / Item #9002179 / SWGDRUG Monograph available
Num Peaks: 126
40 12; 41 110; 42 89; 43 19; 44 58; 
45 1; 49 3; 50 58; 51 32; 52 7; 
53 21; 54 81; 55 141; 56 382; 57 18; 
60 1; 61 5; 62 4; 63 9; 64 1; 
65 3; 66 2; 67 10; 68 38; 69 114; 
70 73; 71 4; 72 1; 73 9; 74 44; 
75 215; 76 51; 77 35; 78 4; 79 2; 
80 5; 81 4; 82 4; 83 2; 84 6; 
85 22; 86 4; 87 9; 89 7; 90 1; 
91 1; 92 1; 93 2; 94 13; 95 2; 
96 108; 97 22; 98 999; 99 235; 100 7; 
101 5; 102 7; 103 22; 104 7; 105 2; 
109 1; 110 7; 111 269; 112 30; 113 88; 
114 10; 115 9; 116 3; 117 2; 123 1; 
124 1; 125 10; 126 1; 127 3; 128 2; 
129 1; 130 2; 131 6; 132 2; 133 3; 
136 1; 137 2; 138 6; 139 120; 140 12; 
141 39; 142 4; 144 1; 149 2; 150 1; 
151 1; 152 1; 154 1; 159 1; 164 2; 
165 2; 166 3; 167 3; 168 3; 169 1; 
170 1; 178 1; 179 1; 180 1; 186 1; 
192 1; 193 1; 194 3; 196 1; 200 3; 
201 1; 206 5; 207 3; 208 3; 209 1; 
220 2; 221 1; 222 5; 223 1; 224 1; 
233 1; 234 6; 235 13; 236 9; 237 5; 
238 3; 
