Name: MAB-CHMINACA metabolite M11
Synon: ADB-CHMINACA metabolite M11
InChIKey: MMWWZPQJJXIPQB-UHFFFAOYSA-N
Formula: C21H30N4O4
MW: 402
ExactMass: 402.226706
CASNO: 0
ID: 4363
Comment: Provided by www.caymanchem.com/app/template/landing%2CForensic.vm / Item# 17818
Num Peaks: 294
40 9; 41 273; 42 29; 43 104; 44 88; 
45 19; 46 2; 47 3; 48 1; 49 2; 
51 15; 52 14; 53 23; 54 18; 55 149; 
56 100; 57 77; 58 7; 59 7; 60 2; 
61 6; 62 8; 63 14; 64 10; 65 17; 
66 6; 67 86; 68 19; 69 43; 70 115; 
71 24; 72 13; 73 53; 74 11; 75 20; 
76 30; 77 91; 78 50; 79 77; 80 25; 
81 38; 82 19; 83 16; 84 311; 85 21; 
86 3; 87 6; 88 60; 89 26; 90 77; 
91 24; 92 11; 93 40; 94 22; 95 57; 
96 20; 97 8; 98 6; 99 23; 100 6; 
101 3; 102 58; 103 221; 104 96; 105 16; 
106 3; 107 2; 108 1; 109 7; 110 13; 
111 10; 112 3; 113 18; 114 8; 115 12; 
116 10; 117 43; 118 26; 119 34; 120 4; 
121 4; 124 1; 125 3; 126 3; 127 5; 
128 33; 129 65; 130 140; 131 594; 132 134; 
133 22; 134 3; 135 16; 136 3; 137 2; 
138 1; 139 1; 140 2; 141 2; 142 4; 
143 26; 144 48; 145 999; 146 85; 147 23; 
148 8; 149 6; 150 2; 151 1; 152 2; 
153 3; 154 4; 155 16; 156 33; 157 19; 
158 51; 159 46; 160 12; 161 5; 162 3; 
163 6; 164 2; 165 6; 166 2; 167 2; 
168 6; 169 33; 170 6; 171 11; 172 7; 
173 8; 174 22; 175 8; 176 2; 177 8; 
178 4; 179 4; 180 1; 181 15; 182 16; 
183 22; 184 15; 185 19; 186 15; 187 5; 
188 3; 189 4; 190 2; 191 42; 192 8; 
193 23; 194 3; 195 7; 196 3; 197 5; 
198 7; 199 32; 200 5; 201 20; 202 3; 
203 1; 205 3; 206 1; 207 47; 208 18; 
209 40; 210 9; 211 15; 212 19; 213 6; 
214 7; 215 2; 216 6; 217 1; 218 1; 
219 1; 220 1; 221 2; 222 2; 223 3; 
224 3; 225 6; 226 5; 227 14; 228 55; 
229 98; 230 21; 231 3; 232 1; 235 2; 
236 3; 237 9; 238 4; 239 93; 240 27; 
241 11; 242 18; 243 2; 244 3; 245 1; 
246 1; 249 9; 250 2; 251 5; 252 1; 
253 23; 254 8; 255 778; 256 174; 257 395; 
258 110; 259 21; 260 1; 264 1; 265 3; 
266 2; 267 9; 268 9; 269 7; 270 13; 
271 3; 272 677; 273 179; 274 27; 275 3; 
276 1; 280 2; 281 30; 282 16; 283 21; 
284 11; 285 2; 286 333; 287 79; 288 36; 
289 4; 290 1; 294 1; 295 2; 296 5; 
297 1; 298 9; 299 5; 300 1; 308 1; 
309 5; 310 2; 311 4; 312 3; 313 2; 
314 2; 315 4; 322 1; 323 1; 324 2; 
325 7; 326 9; 327 10; 328 8; 329 4; 
330 1; 331 9; 332 1; 333 1; 334 1; 
339 1; 340 2; 341 8; 342 2; 343 1; 
344 1; 346 4; 347 1; 350 1; 352 28; 
353 3; 354 4; 355 13; 356 3; 357 1; 
367 11; 368 12; 369 3; 370 5; 371 2; 
383 14; 384 6; 385 92; 386 20; 387 2; 
399 1; 403 1; 405 4; 406 2; 
