Name: 5-Fluoro-3,5-AB-PFUPPYCA
Synon: (S)-N-(1-amino-3-methyl-1-oxobutan-2-yl)-1-(5-fluoropentyl)-3-(4-fluorophenyl)-1H-pyrazole-5-carboxamide
Synon: 5F-3,5-AB-PFUPPYCA
InChIKey: JPKXVUNTSWGYKJ-SFHVURJKSA-N
Formula: C20H26F2N4O2
MW: 392
ExactMass: 392.202383
CASNO: 0
ID: 4367
Comment: Provided by www.caymanchem.com/app/template/landing%2CForensic.vm / Item #17181
Num Peaks: 315
40 2; 41 326; 42 50; 43 158; 44 161; 
45 16; 46 5; 47 34; 48 1; 49 2; 
50 2; 51 9; 52 14; 53 64; 54 25; 
55 111; 56 42; 57 29; 58 5; 59 40; 
60 2; 61 12; 62 3; 63 2; 64 2; 
65 4; 66 8; 67 84; 68 41; 69 393; 
70 54; 71 32; 72 77; 73 77; 74 17; 
75 42; 76 3; 77 5; 78 8; 79 15; 
80 16; 81 12; 82 5; 83 25; 84 27; 
85 9; 86 14; 87 5; 88 6; 89 2; 
90 2; 91 4; 92 6; 93 5; 94 15; 
95 69; 96 27; 97 5; 98 6; 99 3; 
100 11; 101 9; 102 3; 103 5; 104 3; 
105 7; 106 26; 107 47; 108 4; 109 22; 
110 4; 111 1; 112 2; 113 8; 114 4; 
115 21; 116 6; 117 2; 118 1; 119 5; 
120 18; 121 33; 122 69; 123 8; 124 2; 
125 4; 126 14; 127 5; 128 5; 129 2; 
130 3; 131 59; 132 181; 133 162; 134 364; 
135 58; 136 10; 137 6; 138 1; 139 1; 
140 1; 141 1; 142 3; 143 2; 144 2; 
145 7; 146 57; 147 29; 148 40; 149 17; 
150 2; 151 2; 152 3; 153 2; 154 2; 
155 5; 156 5; 157 2; 158 9; 159 7; 
160 22; 161 36; 162 48; 163 15; 164 6; 
165 2; 166 2; 167 2; 168 1; 169 2; 
170 5; 171 3; 172 4; 173 20; 174 51; 
175 70; 176 209; 177 39; 178 2; 179 2; 
180 2; 181 1; 182 1; 183 1; 184 1; 
185 4; 186 4; 187 20; 188 30; 189 849; 
190 110; 191 23; 192 2; 193 10; 194 2; 
195 7; 196 1; 197 4; 198 2; 199 3; 
200 35; 201 65; 202 29; 203 93; 204 14; 
205 19; 206 4; 207 66; 208 42; 209 41; 
210 8; 211 2; 212 2; 213 8; 214 6; 
215 24; 216 24; 217 6; 218 79; 219 22; 
220 3; 221 199; 222 23; 223 5; 225 2; 
226 1; 227 5; 228 4; 229 52; 230 55; 
231 18; 232 5; 233 2; 234 1; 235 2; 
236 1; 239 2; 240 2; 241 3; 242 11; 
243 14; 244 19; 245 9; 246 4; 247 14; 
248 3; 249 999; 250 153; 251 18; 252 2; 
253 16; 254 13; 255 6; 256 2; 257 15; 
258 14; 259 6; 260 67; 261 8; 262 3; 
263 1; 265 5; 266 1; 267 4; 268 1; 
269 3; 270 1; 271 4; 272 41; 273 10; 
274 70; 275 32; 276 1; 277 936; 278 151; 
279 8; 281 17; 282 12; 283 8; 284 3; 
285 8; 286 12; 287 2; 288 2; 289 1; 
290 2; 291 1; 292 11; 293 6; 294 1; 
295 2; 296 1; 298 1; 299 25; 300 12; 
301 38; 302 5; 303 3; 304 24; 305 5; 
306 1; 311 1; 312 2; 313 2; 314 2; 
315 3; 316 1; 317 48; 318 26; 319 3; 
320 1; 321 1; 325 3; 326 3; 327 6; 
328 7; 329 4; 330 1; 331 6; 332 6; 
333 8; 334 2; 339 2; 340 1; 341 10; 
342 1; 343 3; 344 1; 345 1; 346 8; 
347 4; 348 462; 349 98; 350 11; 353 4; 
354 2; 355 1; 357 2; 359 3; 360 5; 
361 1; 371 9; 372 1; 373 1; 374 9; 
375 6; 376 2; 377 2; 378 1; 379 1; 
389 1; 390 1; 392 77; 393 17; 394 3; 
