Name: MAM2201-d5
InChIKey: IGBHZHCGWLHBAE-UCXXKCETSA-N
Formula: C25H19D5FNO
MW: 378
ExactMass: 378.215576
CASNO: 0
ID: 4369
Comment: Provided by www.caymanchem.com/app/template/landing%2CForensic.vm / Item #11619
Num Peaks: 342
40 8; 41 420; 42 39; 43 178; 44 3; 
45 24; 46 5; 47 59; 48 8; 49 6; 
50 26; 51 27; 52 8; 53 29; 54 11; 
55 57; 56 11; 57 5; 58 6; 59 36; 
60 9; 61 27; 62 5; 63 22; 64 15; 
65 19; 66 25; 67 28; 68 18; 69 89; 
70 11; 71 5; 72 4; 73 57; 74 15; 
75 29; 76 22; 77 41; 78 41; 79 22; 
80 30; 81 46; 82 15; 83 8; 84 6; 
85 7; 86 6; 87 17; 88 17; 89 42; 
90 13; 91 38; 92 31; 93 48; 94 34; 
95 18; 96 108; 97 9; 98 5; 99 4; 
100 6; 101 5; 102 12; 103 33; 104 15; 
105 40; 106 126; 107 154; 108 24; 109 9; 
110 5; 111 8; 112 5; 113 17; 114 21; 
115 783; 116 84; 117 20; 118 11; 119 49; 
120 56; 121 273; 122 20; 123 22; 124 11; 
125 12; 126 17; 127 11; 128 20; 129 38; 
130 32; 131 35; 132 46; 133 150; 134 111; 
135 213; 136 36; 137 78; 138 24; 139 365; 
140 124; 141 762; 142 91; 143 36; 144 170; 
145 12; 146 12; 147 34; 148 85; 149 730; 
150 69; 151 64; 152 13; 153 22; 154 38; 
155 36; 156 27; 157 14; 158 33; 159 27; 
160 24; 161 25; 162 10; 163 40; 164 15; 
165 17; 166 26; 167 11; 168 20; 169 600; 
170 97; 171 19; 172 21; 173 19; 174 41; 
175 59; 176 24; 177 38; 178 18; 179 21; 
180 9; 181 59; 182 324; 183 64; 184 8; 
185 4; 186 11; 187 17; 188 16; 189 43; 
190 29; 191 47; 192 28; 193 77; 194 16; 
195 11; 196 14; 197 8; 198 2; 199 2; 
200 4; 201 6; 202 5; 203 16; 204 12; 
205 19; 206 9; 207 377; 208 81; 209 164; 
210 28; 211 8; 212 3; 213 2; 214 6; 
215 3; 216 28; 217 57; 218 45; 219 14; 
220 21; 221 26; 222 8; 223 11; 224 5; 
225 2; 226 3; 227 10; 228 13; 229 37; 
230 32; 231 23; 232 15; 233 22; 234 18; 
235 5; 236 59; 237 895; 238 161; 239 17; 
240 4; 241 10; 242 15; 243 15; 244 34; 
245 52; 246 159; 247 37; 248 11; 249 33; 
250 7; 251 9; 252 3; 253 48; 254 27; 
255 33; 256 14; 257 35; 258 89; 259 258; 
260 79; 261 51; 262 24; 263 4; 264 2; 
265 8; 266 8; 267 28; 268 7; 269 30; 
270 19; 271 30; 272 92; 273 98; 274 98; 
275 151; 276 31; 277 5; 278 1; 279 1; 
280 2; 281 15; 282 78; 283 16; 284 29; 
285 39; 286 65; 287 72; 288 193; 289 249; 
290 92; 291 9; 292 1; 293 3; 294 1; 
295 4; 296 2; 297 4; 298 15; 299 33; 
300 33; 301 36; 302 115; 303 946; 304 239; 
305 27; 306 2; 307 2; 308 2; 309 1; 
310 2; 311 3; 312 4; 313 5; 314 9; 
315 20; 316 5; 317 15; 318 5; 319 4; 
320 2; 321 1; 322 2; 323 2; 324 2; 
325 10; 326 7; 327 20; 328 9; 329 14; 
330 3; 331 20; 332 4; 333 3; 334 3; 
335 3; 336 2; 337 1; 338 1; 339 5; 
340 7; 341 22; 342 11; 343 20; 344 14; 
345 13; 346 13; 347 5; 348 4; 349 14; 
350 14; 351 3; 352 1; 353 1; 354 5; 
355 18; 356 7; 357 19; 358 64; 359 37; 
360 86; 361 573; 362 140; 363 199; 364 24; 
365 5; 366 1; 367 1; 368 1; 369 1; 
370 1; 371 1; 373 2; 374 1; 375 3; 
376 125; 377 332; 378 999; 379 258; 380 29; 
381 4; 382 1; 
