Name: Carisoprodol-d7
Synon: 2-((Carbamoyloxy)methyl)-2-methylpentyl-d7 isopropylcarbamate
InChIKey: OFZCIYFFPZCNJE-FJNYTKNASA-N
Formula: C12H17D7N2O4
MW: 267
ExactMass: 267.217545
CASNO: 0
ID: 4370
Comment: Provided by www.caymanchem.com/app/template/landing%2CForensic.vm / Item #18068
Num Peaks: 139
40 94; 41 293; 42 402; 43 779; 44 760; 
45 265; 46 196; 47 64; 48 71; 49 40; 
50 55; 51 10; 52 13; 53 20; 54 37; 
55 75; 56 138; 57 343; 58 880; 59 891; 
60 379; 61 171; 62 287; 63 155; 64 81; 
65 36; 66 5; 67 7; 68 15; 69 41; 
70 603; 71 364; 72 150; 73 246; 74 169; 
75 165; 76 77; 77 23; 78 32; 79 9; 
80 25; 81 7; 82 10; 83 18; 84 52; 
85 90; 86 249; 87 86; 88 145; 89 359; 
90 151; 91 278; 92 37; 93 10; 94 2; 
95 1; 96 1; 97 3; 98 4; 99 6; 
100 14; 101 27; 102 300; 103 306; 104 999; 
105 496; 106 225; 107 40; 108 92; 109 7; 
112 1; 113 1; 114 3; 115 6; 116 9; 
117 15; 118 11; 119 5; 120 21; 121 98; 
122 77; 123 6; 124 1; 126 1; 128 2; 
129 2; 130 5; 131 1; 132 2; 133 3; 
134 5; 135 5; 136 1; 138 4; 140 2; 
141 1; 142 3; 143 2; 144 1; 145 1; 
147 8; 148 4; 149 1; 150 2; 151 9; 
156 1; 157 4; 158 3; 161 1; 163 2; 
164 41; 165 590; 166 53; 167 5; 174 1; 
176 1; 177 2; 179 1; 181 3; 182 4; 
183 40; 184 4; 190 7; 191 131; 192 17; 
193 38; 194 4; 205 1; 206 3; 207 3; 
208 5; 209 48; 210 4; 217 1; 251 5; 
252 94; 253 11; 254 1; 267 1; 
