Name: AB-CHMINACA metabolite M4-d4
Synon: 1-(Cyclohexylmethyl)-1H-indazole-3-carboxylic-d4 acid
InChIKey: DVXHKIOGZJHOPD-DOGSKSIHSA-N
Formula: C15H14D4N2O2
MW: 262
ExactMass: 262.161934
CASNO: 0
ID: 4371
Comment: Provided by www.caymanchem.com/app/template/landing%2CForensic.vm / Item # 18086
Num Peaks: 111
40 5; 41 71; 42 11; 43 3; 44 54; 
45 3; 50 4; 51 7; 52 5; 53 15; 
54 24; 55 53; 56 8; 57 1; 59 1; 
63 2; 64 2; 65 8; 66 13; 67 32; 
68 5; 69 2; 70 1; 73 19; 74 2; 
75 3; 76 2; 77 12; 78 22; 79 14; 
80 42; 81 52; 82 5; 83 8; 84 1; 
88 1; 90 1; 91 2; 92 2; 93 5; 
94 7; 95 11; 96 5; 97 2; 103 2; 
104 2; 105 8; 106 19; 107 46; 108 69; 
109 5; 110 1; 111 3; 115 1; 117 1; 
118 1; 119 4; 120 2; 121 13; 122 76; 
123 6; 131 2; 132 5; 133 34; 134 123; 
135 999; 136 149; 137 5; 144 2; 145 1; 
146 3; 147 7; 148 19; 149 4; 150 1; 
157 1; 158 1; 159 5; 160 3; 161 17; 
162 3; 163 3; 165 1; 172 1; 173 2; 
174 1; 175 1; 176 1; 177 2; 179 1; 
187 1; 188 1; 189 2; 190 1; 191 8; 
192 1; 193 2; 194 1; 195 1; 207 67; 
208 13; 209 7; 210 1; 216 2; 217 16; 
218 128; 219 23; 249 2; 251 1; 253 4; 
254 1; 
