Name: 5-Fluoro-PY-PINACA
Synon: (1-(5-Fluoropentyl)-1H-indazol-3-yl)(pyrrolidin-1-yl)methanone
Synon: 5F-PY-PINACA
InChIKey: GSCLIRQNUBFUJA-UHFFFAOYSA-N
Formula: C17H22FN3O
MW: 303
ExactMass: 303.17469
CASNO: 0
ID: 4378
Comment: Provided by www.caymanchem.com/app/template/landing%2CForensic.vm / Item #18197
Num Peaks: 115
40 2; 41 69; 42 33; 43 20; 44 2; 
45 1; 46 1; 47 12; 50 2; 51 5; 
52 2; 53 6; 54 2; 55 43; 56 41; 
57 1; 59 7; 61 1; 62 5; 63 7; 
64 3; 65 3; 66 1; 67 6; 68 15; 
69 63; 70 999; 71 48; 72 1; 73 2; 
74 2; 75 9; 76 18; 77 21; 78 3; 
79 1; 85 1; 86 1; 87 4; 88 33; 
89 25; 90 59; 91 9; 92 1; 98 29; 
99 2; 101 2; 102 38; 103 76; 104 30; 
105 4; 114 7; 115 2; 116 7; 117 29; 
118 13; 119 2; 121 1; 127 1; 128 4; 
129 32; 130 22; 131 277; 132 33; 133 2; 
142 2; 143 7; 144 13; 145 208; 146 20; 
147 2; 154 1; 155 3; 156 4; 157 14; 
158 8; 159 5; 160 1; 168 1; 169 2; 
170 1; 171 23; 172 4; 173 1; 174 1; 
177 16; 178 1; 183 1; 184 1; 185 7; 
186 4; 187 1; 199 1; 206 1; 207 2; 
208 1; 213 14; 214 8; 215 1; 219 3; 
220 2; 226 1; 228 7; 229 1; 231 4; 
233 33; 234 5; 235 1; 281 1; 285 1; 
286 1; 301 1; 303 135; 304 26; 305 2; 
