Name: 5-Methoxy-EPT
Synon: 5-MeO-EPT
Synon: 5-Methoxy-N-ethyl-N-propyltryptamine
InChIKey: OQHFIOKNGNJPPF-UHFFFAOYSA-N
Formula: C16H24N2O
MW: 260
ExactMass: 260.188864
CASNO: 0
ID: 4379
Comment: Provided by www.caymanchem.com/app/template/landing%2CForensic.vm / Item 17298
Num Peaks: 94
41 27; 42 29; 43 41; 44 4; 50 1; 
51 3; 52 2; 53 1; 54 2; 55 1; 
56 13; 57 4; 58 87; 59 3; 62 2; 
63 7; 64 2; 65 2; 68 1; 70 5; 
71 10; 72 66; 73 5; 74 1; 75 3; 
76 4; 77 13; 78 4; 79 1; 80 1; 
84 11; 85 1; 86 3; 87 2; 88 2; 
89 20; 90 18; 91 5; 92 1; 98 6; 
99 4; 100 999; 101 70; 102 11; 103 13; 
104 6; 105 1; 108 1; 114 2; 115 9; 
116 16; 117 61; 118 9; 119 1; 127 1; 
128 7; 129 7; 130 33; 131 16; 132 4; 
133 1; 140 1; 141 1; 142 4; 143 10; 
144 13; 145 58; 146 11; 147 2; 155 1; 
156 2; 157 2; 158 10; 159 19; 160 113; 
161 17; 162 1; 171 1; 172 3; 173 9; 
174 30; 175 4; 185 1; 186 1; 187 1; 
188 1; 199 1; 207 1; 229 4; 230 1; 
243 2; 258 1; 260 14; 261 2; 
