Name: 6-Methoxy-DiPT
Synon: 6-MeO-DIPT
Synon: 6-methoxy-N,N-diisopropyltryptamine
InChIKey: VVHSFCPALYIWMT-UHFFFAOYSA-N
Formula: C17H26N2O
MW: 274
ExactMass: 274.204514
CASNO: 2426768
ID: 4380
Comment: Provided by www.caymanchem.com/app/template/landing%2CForensic.vm / Item 18312
Num Peaks: 96
41 52; 42 21; 43 78; 44 7; 50 1; 
51 3; 52 2; 53 1; 54 2; 55 3; 
56 35; 57 8; 58 5; 62 3; 63 9; 
64 2; 65 3; 68 2; 69 1; 70 23; 
71 7; 72 203; 73 12; 74 2; 75 4; 
76 5; 77 13; 78 4; 79 1; 80 1; 
84 5; 85 1; 86 6; 87 3; 88 2; 
89 27; 90 21; 91 6; 92 1; 98 4; 
99 1; 100 6; 101 4; 102 12; 103 13; 
104 6; 105 1; 109 2; 112 3; 113 4; 
114 999; 115 87; 116 16; 117 72; 118 12; 
119 2; 127 1; 128 8; 129 12; 130 32; 
131 17; 132 7; 133 2; 141 1; 142 2; 
143 9; 144 8; 145 64; 146 18; 147 5; 
156 2; 157 1; 158 22; 159 27; 160 157; 
161 27; 162 4; 170 1; 171 1; 172 3; 
173 13; 174 32; 175 4; 186 1; 187 1; 
188 2; 191 1; 199 1; 207 2; 215 1; 
216 3; 243 2; 253 1; 257 3; 259 1; 
274 3; 
