Name: 3,4-Methylenedioxy-PV8
Synon: 1-(1,3-benzodioxol-5-yl)-2-(1-pyrrolidinyl)-1-heptanone
InChIKey: APQUWEZHVKBPTI-UHFFFAOYSA-N
Formula: C18H25NO3
MW: 303
ExactMass: 303.183443
CASNO: 24646397
ID: 4381
Comment: Provided by www.caymanchem.com/app/template/landing%2CForensic.vm / Item #16358
Num Peaks: 112
40 1; 41 48; 42 30; 43 15; 44 4; 
50 1; 51 4; 52 1; 53 9; 54 19; 
55 46; 56 20; 57 3; 61 1; 62 9; 
63 37; 64 5; 65 86; 66 6; 67 6; 
68 17; 69 42; 70 22; 71 2; 72 2; 
73 1; 74 1; 75 1; 76 1; 77 7; 
78 2; 79 5; 80 6; 81 5; 82 8; 
83 5; 84 63; 85 3; 89 2; 90 1; 
91 25; 92 5; 93 2; 94 7; 95 4; 
96 62; 97 39; 98 24; 99 1; 103 3; 
104 1; 105 2; 106 1; 108 4; 109 1; 
110 49; 111 4; 112 1; 115 3; 117 2; 
118 1; 119 8; 120 7; 121 90; 122 11; 
123 1; 124 4; 126 1; 130 1; 131 3; 
132 1; 133 1; 135 11; 136 1; 144 1; 
145 2; 146 2; 147 4; 148 3; 149 118; 
150 16; 151 2; 152 24; 153 6; 154 999; 
155 194; 156 11; 159 1; 160 1; 161 2; 
164 9; 173 1; 174 2; 175 2; 176 1; 
177 3; 189 1; 190 1; 202 1; 203 1; 
204 6; 205 1; 207 2; 214 1; 216 1; 
230 2; 232 13; 233 3; 234 1; 258 3; 
301 1; 302 2; 
