Name: 5-Chloro-AKB48
InChIKey: LGENBCKWDLSPTD-UHFFFAOYSA-N
Synon: 5-Chloro-APINACA
Synon: N-(1-adamantyl)-1-(5-chloropentyl)indazole-3-carboxamide
Synon: 5-Cl-AKB48
Synon: 5-Cl-APINACA
Formula: C23H30ClN3O
MW: 399
ExactMass: 399.20774
CASNO: 0
ID: 4382
Comment: Provided by www.caymanchem.com/app/template/landing%2CForensic.vm / Item #18166 / SWGDRUG Monograph available
Num Peaks: 332
41 332; 42 53; 43 37; 45 9; 46 2; 
47 3; 48 3; 49 5; 50 15; 51 34; 
52 13; 53 57; 54 23; 55 132; 56 33; 
57 20; 58 24; 59 3; 60 1; 61 6; 
62 5; 63 43; 64 10; 65 37; 66 46; 
67 182; 68 45; 69 205; 70 21; 71 2; 
72 3; 73 39; 74 13; 75 32; 76 27; 
77 260; 78 69; 79 291; 80 28; 81 81; 
82 31; 83 5; 84 2; 85 2; 86 2; 
87 4; 88 34; 89 31; 90 153; 91 275; 
92 230; 93 401; 94 234; 95 86; 96 49; 
97 4; 98 2; 99 1; 100 1; 101 8; 
102 79; 103 192; 104 86; 105 80; 106 38; 
107 53; 108 49; 109 40; 110 4; 111 3; 
112 1; 113 1; 114 5; 115 9; 116 12; 
117 95; 118 25; 119 50; 120 95; 121 31; 
122 7; 123 2; 124 1; 125 5; 126 9; 
127 4; 128 11; 129 62; 130 71; 131 380; 
132 55; 133 75; 134 47; 135 376; 136 117; 
137 12; 138 1; 139 1; 140 2; 141 2; 
142 5; 143 20; 144 50; 145 874; 146 70; 
147 27; 148 7; 149 11; 150 540; 151 70; 
152 11; 153 3; 154 8; 155 10; 156 47; 
157 28; 158 24; 159 16; 160 4; 161 13; 
162 3; 163 8; 164 2; 165 9; 166 2; 
167 6; 168 6; 169 6; 170 5; 171 36; 
172 7; 173 3; 174 97; 175 35; 176 6; 
177 31; 178 7; 179 6; 180 2; 181 3; 
182 4; 183 6; 184 7; 185 27; 186 17; 
187 15; 189 3; 190 2; 191 21; 192 7; 
193 19; 194 5; 195 12; 196 6; 197 4; 
198 10; 199 16; 200 11; 201 2; 202 2; 
203 3; 204 1; 205 5; 206 4; 207 105; 
208 33; 209 21; 210 9; 211 7; 212 13; 
213 306; 214 33; 215 12; 216 5; 217 1; 
219 2; 220 2; 221 17; 222 4; 223 16; 
224 8; 225 8; 226 4; 227 1; 228 5; 
230 12; 231 2; 232 3; 233 2; 234 1; 
235 5; 236 104; 237 23; 238 56; 239 8; 
240 2; 241 1; 242 11; 243 2; 246 1; 
247 9; 248 5; 249 999; 250 169; 251 343; 
252 55; 253 24; 254 8; 255 3; 256 2; 
257 2; 258 1; 261 2; 262 2; 263 15; 
264 12; 265 18; 266 15; 267 5; 268 4; 
269 3; 270 5; 272 1; 273 1; 274 1; 
275 3; 276 2; 277 10; 278 9; 279 8; 
280 9; 281 48; 282 21; 283 14; 284 2; 
285 1; 286 1; 287 1; 288 2; 289 2; 
290 2; 291 1; 292 1; 293 1; 294 636; 
295 140; 296 14; 297 2; 299 5; 300 2; 
301 3; 302 2; 303 2; 304 7; 305 26; 
306 18; 307 9; 308 49; 309 20; 310 2; 
311 2; 312 1; 313 6; 314 164; 315 28; 
316 58; 317 10; 318 5; 319 4; 320 1; 
321 4; 322 2; 323 2; 324 1; 325 5; 
326 3; 327 9; 328 6; 329 3; 330 17; 
331 6; 332 5; 333 3; 334 1; 335 5; 
336 7; 337 3; 339 1; 340 1; 341 6; 
342 126; 343 25; 344 50; 345 13; 346 6; 
347 1; 348 2; 350 1; 353 1; 354 133; 
355 23; 356 70; 357 11; 358 15; 359 2; 
360 3; 362 5; 363 13; 364 7; 365 3; 
366 1; 370 4; 371 360; 372 98; 373 129; 
374 20; 375 2; 379 1; 383 1; 384 2; 
386 1; 389 1; 398 3; 399 227; 400 42; 
401 80; 402 12; 403 3; 404 1; 405 2; 
406 1; 407 1; 
