Name: 11-Ketotestosterone
Synon: 17-Hydroxyandrost-4-ene-3,11-dione
Synon: Oxotestosterone
InChIKey: WTPMRQZHJLJSBO-UHFFFAOYSA-N
Formula: C19H26O3
MW: 302
ExactMass: 302.188194
CASNO: 53187987
ID: 4383
Comment: Provided by www.caymanchem.com/app/template/landing%2CForensic.vm / Item# 10005030
Num Peaks: 246
40 24; 41 207; 42 31; 43 127; 44 35; 
45 13; 46 1; 50 8; 51 31; 52 21; 
53 122; 54 16; 55 186; 56 20; 57 179; 
58 21; 59 4; 60 1; 61 1; 62 2; 
63 15; 64 9; 65 96; 66 44; 67 187; 
68 72; 69 96; 70 13; 71 27; 72 3; 
73 25; 74 4; 75 14; 76 7; 77 291; 
78 90; 79 327; 80 61; 81 108; 82 25; 
83 42; 84 8; 85 8; 86 4; 87 6; 
89 10; 90 8; 91 518; 92 79; 93 173; 
94 71; 95 128; 96 29; 97 96; 98 11; 
99 6; 100 2; 101 3; 102 8; 103 69; 
104 33; 105 290; 106 65; 107 208; 108 64; 
109 88; 110 30; 111 28; 112 2; 113 3; 
114 2; 115 96; 116 36; 117 124; 118 39; 
119 145; 120 74; 121 274; 122 999; 123 232; 
124 51; 125 6; 126 3; 127 14; 128 62; 
129 74; 130 29; 131 118; 132 55; 133 157; 
134 138; 135 146; 136 90; 137 31; 138 5; 
139 8; 140 5; 141 26; 142 22; 143 56; 
144 38; 145 121; 146 47; 147 166; 148 44; 
149 124; 150 27; 151 9; 152 4; 153 12; 
154 10; 155 18; 156 15; 157 35; 158 22; 
159 59; 160 58; 161 108; 162 71; 163 159; 
164 18; 165 14; 166 8; 167 95; 168 13; 
169 17; 170 10; 171 34; 172 14; 173 49; 
174 24; 175 38; 176 19; 177 13; 178 9; 
179 9; 180 134; 181 370; 182 47; 183 20; 
184 8; 185 27; 186 18; 187 40; 188 20; 
189 61; 190 13; 191 13; 192 5; 193 11; 
194 70; 195 24; 196 7; 197 18; 198 10; 
199 23; 200 4; 201 20; 202 11; 203 12; 
204 13; 205 14; 206 12; 207 41; 208 13; 
209 18; 210 6; 211 13; 212 10; 213 22; 
214 8; 215 20; 216 10; 217 8; 218 6; 
219 4; 220 3; 221 6; 222 7; 223 18; 
224 8; 225 27; 226 9; 227 22; 228 11; 
229 9; 230 44; 231 19; 232 5; 233 6; 
234 1; 235 1; 237 8; 238 7; 239 7; 
240 17; 241 27; 242 7; 243 110; 244 20; 
245 46; 246 14; 247 9; 248 1; 249 3; 
250 1; 251 16; 252 4; 253 24; 254 2; 
255 10; 256 12; 257 4; 258 90; 259 75; 
260 39; 261 5; 262 1; 265 10; 266 7; 
267 7; 268 4; 269 25; 270 5; 271 1; 
272 1; 273 12; 274 65; 275 9; 276 1; 
281 12; 282 6; 283 3; 284 34; 285 11; 
286 4; 287 27; 288 6; 289 1; 293 1; 
295 1; 300 9; 302 355; 303 73; 304 7; 
305 1; 
