Name: Adinazolam
Synon: 1-(8-Chloro-6-phenyl-4H-[1,2,4]triazolo[4,5-a][1,4]benzodiazepin-1-yl)-N,N-dimethylmethanamine
Synon: Deracyn
InChIKey: GJSLOMWRLALDCT-UHFFFAOYSA-N
Formula: C19H18ClN5
MW: 351
ExactMass: 351.125072
CASNO: 37115325
ID: 4384
Comment: Provided by www.caymanchem.com/app/template/landing%2CForensic.vm / Item #18205
Num Peaks: 243
41 28; 42 155; 43 49; 44 61; 45 5; 
46 1; 47 1; 49 1; 50 11; 51 27; 
52 5; 53 3; 54 4; 55 6; 56 5; 
57 19; 58 155; 59 5; 61 1; 62 3; 
63 17; 64 3; 65 12; 66 7; 67 8; 
68 5; 69 3; 70 1; 72 1; 73 24; 
74 15; 75 35; 76 32; 77 87; 78 9; 
79 1; 80 1; 81 3; 82 3; 83 62; 
84 12; 85 2; 86 4; 87 8; 88 5; 
89 19; 90 10; 91 50; 92 4; 93 1; 
94 1; 95 3; 96 3; 97 3; 98 4; 
99 7; 100 14; 101 12; 102 25; 103 51; 
104 40; 105 4; 106 1; 107 1; 108 1; 
109 4; 110 3; 111 16; 112 7; 113 15; 
114 16; 115 17; 116 14; 117 8; 118 3; 
119 3; 120 2; 121 3; 122 4; 123 9; 
124 9; 125 16; 126 9; 127 12; 128 5; 
129 11; 130 3; 131 8; 132 2; 133 8; 
134 1; 135 2; 136 67; 137 46; 138 34; 
139 20; 140 27; 141 6; 142 7; 143 4; 
144 1; 147 1; 148 2; 149 13; 150 23; 
151 16; 152 10; 153 8; 154 5; 155 2; 
156 4; 157 1; 158 1; 161 4; 162 9; 
163 38; 164 26; 165 45; 166 6; 167 5; 
168 3; 169 2; 170 13; 171 2; 173 1; 
174 4; 175 7; 176 22; 177 24; 178 19; 
179 12; 180 2; 181 1; 186 2; 187 2; 
188 9; 189 10; 190 31; 191 24; 192 7; 
193 3; 194 1; 195 1; 196 1; 197 3; 
198 3; 199 11; 200 1; 201 9; 202 6; 
203 32; 204 40; 205 78; 206 20; 207 40; 
208 11; 209 3; 210 1; 211 4; 212 3; 
213 3; 214 5; 215 3; 216 14; 217 24; 
218 10; 219 4; 220 1; 221 2; 223 1; 
224 4; 225 2; 226 6; 227 10; 228 10; 
229 7; 230 7; 231 8; 232 48; 233 7; 
234 1; 237 2; 238 12; 239 25; 240 23; 
241 22; 242 16; 243 24; 244 11; 245 12; 
246 12; 247 3; 249 2; 250 2; 251 2; 
252 15; 253 20; 254 5; 255 8; 256 3; 
257 1; 258 1; 263 1; 264 1; 265 6; 
266 9; 267 19; 268 11; 269 6; 270 3; 
271 10; 272 8; 273 27; 274 3; 276 2; 
277 4; 278 2; 279 25; 280 47; 281 23; 
282 15; 283 4; 284 1; 290 1; 291 2; 
292 1; 293 1; 295 1; 296 1; 305 2; 
307 232; 308 999; 309 268; 310 332; 311 62; 
312 3; 315 1; 325 1; 327 1; 331 3; 
341 2; 342 1; 343 1; 
