Name: Methyldienolone
Synon: (17.beta.)-17-Hydroxy-17-methylestra-4,9-dien-3-one
InChIKey: RDJBOAMEIJEKEY-BTRQGYIVSA-N
Formula: C19H26O2
MW: 286
ExactMass: 286.19328
CASNO: 14531896
ID: 4385
Comment: Provided by www.caymanchem.com/app/template/landing%2CForensic.vm / Item# 9002585
Num Peaks: 225
40 30; 41 304; 42 41; 43 876; 44 28; 
45 46; 50 11; 51 62; 52 33; 53 154; 
54 24; 55 225; 56 17; 57 130; 58 131; 
59 39; 61 2; 62 6; 63 49; 64 26; 
65 170; 66 51; 67 208; 68 48; 69 81; 
70 10; 71 178; 72 27; 73 36; 74 8; 
75 24; 76 27; 77 395; 78 167; 79 330; 
80 45; 81 112; 82 26; 83 59; 84 17; 
85 37; 86 12; 87 6; 88 7; 89 62; 
90 25; 91 889; 92 112; 93 166; 94 49; 
95 172; 96 24; 97 51; 98 12; 99 10; 
100 7; 101 8; 102 50; 103 202; 104 134; 
105 321; 106 67; 107 341; 108 130; 109 82; 
110 28; 111 38; 112 8; 113 23; 114 10; 
115 615; 116 245; 117 682; 118 150; 119 196; 
120 49; 121 97; 122 40; 123 23; 124 9; 
125 38; 126 14; 127 136; 128 433; 129 471; 
130 155; 131 379; 132 167; 133 257; 134 101; 
135 339; 136 44; 137 43; 138 3; 139 28; 
140 8; 141 248; 142 161; 143 242; 144 112; 
145 257; 146 107; 147 164; 148 115; 149 39; 
150 7; 151 17; 152 88; 153 113; 154 67; 
155 170; 156 78; 157 189; 158 188; 159 367; 
160 838; 161 457; 162 418; 163 70; 164 21; 
165 81; 166 33; 167 57; 168 32; 169 127; 
170 81; 171 143; 172 93; 173 160; 174 293; 
175 89; 176 48; 177 21; 178 31; 179 27; 
180 10; 181 35; 182 17; 183 114; 184 95; 
185 168; 186 161; 187 158; 188 45; 189 7; 
190 4; 191 6; 192 3; 193 13; 194 8; 
195 37; 196 9; 197 101; 198 81; 199 151; 
200 147; 201 186; 202 38; 203 8; 204 1; 
205 3; 207 12; 208 2; 209 14; 210 16; 
211 135; 212 198; 213 534; 214 120; 215 942; 
216 183; 217 18; 218 4; 219 1; 220 1; 
221 3; 222 1; 223 3; 224 4; 225 66; 
226 75; 227 48; 228 999; 229 197; 230 22; 
231 3; 233 1; 235 6; 236 2; 237 4; 
238 3; 239 30; 240 34; 241 9; 242 4; 
243 11; 244 13; 245 2; 249 2; 250 4; 
251 8; 253 405; 254 86; 255 12; 256 2; 
257 5; 258 2; 259 1; 265 2; 266 1; 
267 24; 268 264; 269 67; 270 13; 271 49; 
272 11; 273 1; 281 11; 282 1; 283 4; 
284 3; 286 960; 287 193; 288 25; 289 2; 
