Name: Naloxone-d5
InChIKey: UZHSEJADLWPNLE-AWINKJFCSA-N
Formula: C19H16D5NO4
MW: 332
ExactMass: 332.178442
CASNO: 1261079382
ID: 4388
Comment: Provided by www.caymanchem.com/app/template/landing%2CForensic.vm / Item#16195
Num Peaks: 279
40 5; 41 35; 42 169; 43 71; 44 67; 
45 67; 46 409; 47 16; 48 2; 49 1; 
50 9; 51 34; 52 9; 53 18; 54 19; 
55 124; 56 17; 57 40; 58 27; 59 11; 
60 25; 61 5; 62 7; 63 30; 64 16; 
65 47; 66 18; 67 15; 68 9; 69 26; 
70 27; 71 35; 72 51; 73 85; 74 39; 
75 167; 76 30; 77 103; 78 43; 79 19; 
80 14; 81 13; 82 15; 83 21; 84 19; 
85 21; 86 52; 87 55; 88 53; 89 175; 
90 37; 91 116; 92 26; 93 10; 94 5; 
95 7; 96 27; 97 9; 98 15; 99 22; 
100 36; 101 154; 102 55; 103 83; 104 23; 
105 15; 106 8; 107 18; 108 6; 109 6; 
110 5; 111 11; 112 10; 113 20; 114 30; 
115 257; 116 69; 117 78; 118 28; 119 13; 
120 8; 121 8; 122 5; 123 13; 124 8; 
125 7; 126 23; 127 122; 128 108; 129 75; 
130 25; 131 128; 132 43; 133 36; 134 18; 
135 30; 136 4; 137 9; 138 5; 139 26; 
140 15; 141 52; 142 41; 143 77; 144 77; 
145 80; 146 47; 147 63; 148 30; 149 25; 
150 5; 151 5; 152 30; 153 29; 154 21; 
155 44; 156 30; 157 72; 158 18; 159 46; 
160 72; 161 111; 162 73; 163 32; 164 16; 
165 18; 166 11; 167 21; 168 21; 169 35; 
170 38; 171 224; 172 89; 173 161; 174 115; 
175 75; 176 28; 177 2; 178 3; 179 7; 
180 7; 181 30; 182 20; 183 23; 184 52; 
185 54; 186 60; 187 139; 188 88; 189 34; 
190 11; 191 12; 192 2; 193 13; 194 14; 
195 9; 196 7; 197 56; 198 46; 199 48; 
200 92; 201 196; 202 140; 203 44; 204 14; 
205 12; 206 11; 207 71; 209 26; 210 21; 
211 18; 212 35; 213 29; 214 20; 215 33; 
216 52; 217 38; 218 11; 219 16; 220 7; 
221 22; 222 2; 223 5; 224 4; 225 11; 
226 21; 227 14; 228 20; 229 22; 230 20; 
231 24; 232 27; 233 49; 234 107; 235 17; 
237 3; 238 5; 239 14; 240 19; 241 15; 
242 14; 243 12; 244 94; 245 61; 246 78; 
247 256; 248 50; 249 19; 250 6; 251 3; 
252 4; 253 51; 254 4; 255 34; 256 10; 
257 13; 258 29; 259 17; 260 9; 261 10; 
262 2; 263 2; 265 5; 266 3; 267 18; 
268 6; 269 3; 270 12; 271 6; 272 4; 
273 8; 274 8; 275 21; 276 19; 277 5; 
281 52; 283 8; 284 8; 285 18; 286 201; 
287 49; 288 4; 289 6; 290 1; 291 1; 
293 1; 295 8; 296 2; 297 2; 299 3; 
300 1; 301 1; 302 56; 303 11; 304 9; 
305 3; 307 1; 309 1; 311 7; 312 5; 
313 5; 314 5; 315 33; 316 6; 317 17; 
318 3; 319 1; 323 1; 325 35; 326 6; 
327 13; 328 11; 329 13; 330 7; 331 103; 
332 999; 333 209; 334 31; 335 4; 
