Name: Diethylone
Synon: 5-BDDE
Synon: N-Ethyleutylone
Synon: 3',4'-Methylenedioxy-N,N-diethylcathinone
InChIKey: DWARVNWIBRHVMQ-UHFFFAOYSA-N
Formula: C14H19NO3
MW: 249
ExactMass: 249.136494
CASNO: 0
ID: 4393
Comment: Provided by www.caymanchem.com/app/template/landing%2CForensic.vm / Item #18586
Num Peaks: 93
40 2; 41 13; 42 60; 43 6; 44 139; 
45 3; 50 4; 51 8; 52 2; 53 9; 
54 8; 55 11; 56 58; 57 10; 58 4; 
61 4; 62 22; 63 74; 64 10; 65 112; 
66 8; 67 1; 68 5; 69 2; 70 50; 
71 9; 72 126; 73 6; 74 6; 75 2; 
76 2; 77 7; 78 2; 79 5; 84 8; 
85 3; 86 1; 89 4; 90 2; 91 56; 
92 8; 93 2; 98 10; 99 8; 100 999; 
101 117; 102 5; 103 2; 104 1; 105 1; 
115 1; 117 1; 118 2; 119 16; 120 8; 
121 75; 122 9; 123 1; 131 1; 132 1; 
133 1; 135 22; 136 2; 145 1; 146 2; 
147 4; 148 3; 149 91; 150 9; 151 1; 
160 1; 161 1; 162 1; 174 6; 175 2; 
176 3; 177 3; 178 4; 189 1; 190 3; 
204 2; 205 1; 206 3; 218 4; 219 1; 
228 2; 229 5; 230 1; 232 3; 233 1; 
234 1; 247 2; 248 1; 
