Name: 4-AcO-MIPT
Synon: 4-AcO-N,N-MIPT
Synon: 4-Acetoxy-N,N-Methylisopropyltryptamine
InChIKey: CIDMXLOVFPIHDS-UHFFFAOYSA-N
Formula: C16H22N2O2
MW: 274
ExactMass: 274.168127
CASNO: 0
ID: 4397
Comment: DEA SWL
Num Peaks: 94
40 1; 41 15; 42 27; 43 73; 44 304; 
45 8; 50 1; 51 4; 52 1; 54 2; 
55 2; 56 16; 57 2; 58 5; 62 1; 
63 6; 64 3; 65 6; 70 18; 71 6; 
72 5; 75 2; 76 3; 77 11; 78 6; 
79 1; 84 5; 86 999; 87 56; 88 3; 
89 15; 90 11; 91 11; 92 2; 101 3; 
102 7; 103 9; 104 6; 105 3; 109 2; 
113 2; 114 2; 115 16; 116 9; 117 30; 
118 18; 119 2; 127 1; 128 6; 129 5; 
130 34; 131 11; 132 4; 133 4; 134 1; 
140 2; 141 1; 142 2; 143 2; 144 4; 
145 10; 146 78; 147 12; 148 3; 155 1; 
156 2; 157 4; 158 8; 159 28; 160 42; 
161 5; 170 1; 171 2; 172 2; 173 1; 
174 1; 185 1; 186 1; 187 2; 188 9; 
189 3; 199 1; 201 2; 202 9; 203 1; 
215 1; 216 1; 230 1; 231 2; 243 1; 
257 1; 259 1; 274 14; 275 2; 
