Name: Trimethyl-3,4-methylenedioxychromane
InChIKey: ZRLALQCFCZGKKK-UHFFFAOYSA-N
Formula: C13H16O3
MW: 220
ExactMass: 220.109944
CASNO: 0
ID: 4403
Comment: ENFSI / formed from 3,4-MDP-2-P-ol and acetone under acidic conditions
Num Peaks: 117
38 3; 39 31; 40 3; 41 18; 42 4; 
43 223; 44 6; 45 7; 50 17; 51 42; 
52 12; 53 22; 54 1; 55 7; 57 6; 
58 4; 59 2; 61 2; 62 11; 63 32; 
64 10; 65 26; 66 7; 67 4; 69 2; 
72 1; 73 1; 74 8; 75 12; 76 15; 
77 79; 78 22; 79 20; 80 3; 81 2; 
86 4; 87 5; 88 3; 89 20; 90 5; 
91 59; 92 15; 94 6; 95 16; 101 6; 
102 31; 103 77; 104 16; 105 20; 106 2; 
107 5; 113 1; 114 2; 115 55; 116 14; 
117 32; 118 10; 119 18; 120 3; 121 3; 
122 1; 127 6; 128 12; 129 36; 130 9; 
131 40; 132 12; 133 16; 134 3; 135 31; 
136 7; 137 1; 141 1; 143 5; 144 3; 
145 18; 146 6; 147 33; 148 8; 149 11; 
150 1; 157 100; 158 14; 159 7; 160 16; 
161 33; 162 9; 163 17; 164 1; 171 4; 
172 6; 173 3; 174 3; 175 49; 176 64; 
177 36; 178 5; 179 1; 185 1; 186 4; 
187 54; 188 8; 189 18; 190 101; 191 13; 
192 1; 201 3; 202 1; 203 4; 205 999; 
206 141; 207 15; 208 1; 219 1; 220 124; 
221 18; 222 2; 
