Name: Trihexyphenidyl
Synon: Benzhexol
InChIKey: HWHLPVGTWGOCJO-UHFFFAOYSA-N
Formula: C20H31NO
MW: 301
ExactMass: 301.240564
CASNO: 144116
ID: 4406
Comment: AAFS / Probability Based Matching Data Base Entry
Num Peaks: 82
29 6; 30 3; 39 6; 40 1; 41 46; 
42 27; 43 7; 44 7; 51 2; 53 4; 
54 6; 55 57; 56 10; 57 5; 58 1; 
65 3; 67 6; 68 5; 69 20; 70 22; 
71 1; 76 1; 77 40; 78 8; 79 11; 
80 1; 81 3; 82 5; 83 16; 84 24; 
85 27; 86 3; 89 1; 91 15; 92 1; 
93 1; 94 1; 95 1; 96 16; 97 20; 
98 999; 99 69; 100 2; 102 1; 103 4; 
105 30; 106 2; 107 7; 110 2; 111 1; 
112 14; 113 4; 114 4; 115 5; 116 1; 
117 3; 118 1; 120 1; 121 1; 127 1; 
128 2; 129 3; 131 1; 133 3; 141 1; 
142 2; 143 1; 189 1; 190 1; 216 4; 
217 1; 218 160; 219 89; 220 10; 221 1; 
224 2; 283 16; 284 6; 285 1; 300 2; 
301 8; 302 1; 
