Name: Eszopiclone
Synon: S-Zopiclone
Synon: Lunesta
InChIKey: GBBSUAFBMRNDJC-MRXNPFEDSA-N
Formula: C17H17ClN6O3
MW: 388
ExactMass: 388.105066
CASNO: 138729472
ID: 4408
Comment: DEA SWL
Num Peaks: 112
40 12; 41 16; 42 133; 43 66; 44 46; 
50 19; 51 24; 52 35; 53 8; 54 11; 
55 18; 56 250; 57 57; 58 53; 60 3; 
61 4; 62 7; 63 8; 64 16; 65 6; 
66 5; 68 4; 70 128; 71 32; 72 25; 
73 8; 74 3; 75 8; 76 111; 77 38; 
78 35; 79 24; 81 2; 82 8; 83 12; 
84 11; 85 31; 86 4; 87 9; 92 3; 
95 6; 96 1; 97 43; 98 78; 99 352; 
100 27; 101 6; 102 2; 103 12; 104 13; 
105 5; 106 3; 112 349; 113 48; 114 112; 
115 14; 126 3; 127 22; 128 14; 129 7; 
130 5; 131 4; 133 3; 136 2; 137 3; 
139 255; 140 26; 141 86; 143 999; 144 69; 
145 8; 151 2; 154 19; 155 29; 156 11; 
157 5; 163 12; 164 7; 165 4; 168 2; 
180 2; 181 24; 182 52; 183 6; 187 3; 
189 2; 190 26; 191 22; 192 10; 193 7; 
201 6; 204 2; 205 3; 208 3; 209 2; 
210 10; 215 7; 217 298; 218 47; 219 121; 
220 13; 233 4; 245 696; 246 139; 247 252; 
248 47; 249 8; 258 3; 261 20; 262 3; 
263 7; 274 6; 
