Name: Fluphenazine
Synon: Prolixin
InChIKey: PLDUPXSUYLZYBN-UHFFFAOYSA-N
Formula: C22H26F3N3OS
MW: 437
ExactMass: 437.174868
CASNO: 69238
ID: 4409
Comment: AAFS / Probability Based Matching Data Base Entry
Num Peaks: 111
42 139; 43 39; 44 19; 45 20; 54 15; 
55 38; 56 89; 57 30; 58 43; 68 18; 
69 33; 70 150; 71 29; 72 17; 73 13; 
74 18; 77 10; 81 9; 82 28; 83 24; 
84 43; 85 13; 86 20; 88 12; 95 9; 
96 22; 97 39; 98 95; 99 26; 100 74; 
109 9; 111 42; 112 13; 113 78; 114 15; 
115 12; 123 8; 125 37; 126 19; 127 14; 
128 15; 139 36; 140 8; 141 34; 143 148; 
144 13; 152 9; 153 37; 157 63; 158 9; 
169 9; 171 49; 172 8; 184 8; 196 22; 
198 9; 201 9; 202 15; 203 78; 209 9; 
214 8; 222 25; 223 12; 228 16; 232 8; 
234 17; 235 12; 239 8; 240 9; 246 18; 
247 33; 248 231; 249 43; 258 11; 260 25; 
261 11; 262 9; 265 10; 266 257; 267 81; 
268 19; 274 9; 278 10; 280 999; 281 216; 
282 67; 283 11; 291 10; 292 33; 293 46; 
294 43; 295 11; 306 90; 307 58; 308 15; 
336 8; 350 35; 351 9; 363 21; 378 9; 
398 12; 406 153; 407 109; 408 33; 409 9; 
419 97; 420 33; 421 11; 437 214; 438 54; 
439 15; 
