Name: Methapyriline
InChIKey: HNJJXZKZRAWDPF-UHFFFAOYSA-N
Formula: C14H19N3S
MW: 261
ExactMass: 261.129969
CASNO: 91805
ID: 4410
Comment: DEA SWL
Num Peaks: 94
40 2; 41 5; 42 60; 43 16; 44 12; 
45 41; 46 1; 47 3; 50 3; 51 26; 
52 24; 53 43; 54 4; 55 2; 56 23; 
57 20; 58 999; 59 37; 63 4; 64 2; 
65 4; 66 3; 67 4; 69 9; 70 13; 
71 190; 72 220; 73 12; 76 1; 77 2; 
78 76; 79 79; 80 9; 81 1; 82 1; 
83 1; 84 1; 85 2; 91 1; 92 4; 
93 8; 94 4; 95 5; 97 779; 98 50; 
99 36; 100 1; 105 10; 106 13; 107 22; 
108 2; 109 1; 110 3; 111 2; 112 7; 
117 1; 118 2; 119 31; 120 4; 121 6; 
122 1; 124 3; 125 1; 130 1; 131 3; 
133 2; 134 1; 135 3; 143 1; 145 1; 
155 3; 156 2; 157 15; 158 1; 162 5; 
163 4; 169 3; 170 1; 174 1; 187 2; 
189 31; 190 67; 191 106; 192 15; 193 4; 
201 1; 203 24; 204 3; 205 1; 216 1; 
217 2; 261 25; 262 4; 263 1; 
