Name: 25B-NBF
Synon: 2-(4-bromo-2,5-dimethoxyphenyl)-N-(2-fluorobenzyl)ethanamine
Synon: 2C-B-NBF
InChIKey: ATMBBMXJNIJRST-UHFFFAOYSA-N
Formula: C17H19BrFNO2
MW: 367
ExactMass: 367.05832
CASNO: 1539266175
ID: 4412
Comment: ENFSI/DWG
Num Peaks: 145
39 4; 41 1; 42 2; 43 1; 50 3; 
51 7; 52 1; 53 6; 57 4; 59 2; 
62 2; 63 10; 64 5; 65 6; 66 1; 
67 2; 69 1; 70 1; 74 1; 75 6; 
76 5; 77 36; 78 10; 79 7; 80 2; 
81 2; 82 2; 83 39; 84 2; 88 1; 
89 17; 90 12; 91 23; 92 11; 93 4; 
94 1; 95 1; 96 2; 97 1; 102 3; 
103 2; 104 3; 105 29; 106 9; 107 17; 
108 15; 109 921; 110 73; 111 2; 116 1; 
117 3; 118 5; 119 5; 120 9; 121 12; 
122 9; 123 2; 124 2; 129 1; 131 1; 
132 2; 133 5; 134 5; 135 8; 136 27; 
137 9; 138 999; 139 94; 140 4; 143 7; 
144 1; 145 7; 146 1; 147 4; 148 7; 
149 4; 150 6; 151 3; 152 5; 153 1; 
155 1; 156 2; 157 3; 158 2; 159 2; 
162 1; 163 1; 164 5; 165 1; 169 6; 
170 2; 171 9; 172 2; 173 3; 174 1; 
183 2; 184 5; 185 2; 186 10; 187 2; 
188 6; 189 1; 198 1; 199 23; 200 3; 
201 23; 202 2; 203 1; 212 1; 213 6; 
214 2; 215 13; 216 2; 217 8; 218 1; 
226 1; 227 3; 228 5; 229 21; 230 123; 
231 29; 232 117; 233 11; 234 1; 240 1; 
242 2; 243 3; 244 2; 245 2; 255 1; 
256 1; 257 2; 258 1; 272 1; 286 1; 
320 1; 322 1; 334 5; 335 3; 336 7; 
337 3; 338 2; 367 4; 368 1; 369 3; 
