Name: 25B-NBF HFBA derivative
InChIKey: XFWSJSOBBQTREL-UHFFFAOYSA-N
Synon: 2C-B-NBF HFBA derivative
Formula: C21H18BrF8NO3
MW: 563
ExactMass: 563.034233
CASNO: 0
ID: 4414
Comment: ENFSI/DWG
Num Peaks: 188
39 5; 41 1; 42 2; 43 1; 45 1; 
50 3; 51 9; 52 2; 53 7; 55 1; 
56 3; 57 5; 59 4; 62 2; 63 12; 
64 6; 65 9; 66 1; 67 2; 69 20; 
70 1; 73 2; 74 1; 75 6; 76 7; 
77 51; 78 15; 79 14; 80 3; 81 4; 
82 3; 83 44; 84 2; 87 1; 88 1; 
89 24; 90 22; 91 40; 92 18; 93 5; 
94 1; 95 2; 96 3; 97 8; 100 4; 
101 1; 102 4; 103 6; 104 5; 105 45; 
106 13; 107 22; 108 15; 109 999; 110 76; 
111 3; 115 1; 116 1; 117 3; 118 5; 
119 15; 120 22; 121 26; 122 25; 123 9; 
124 1; 125 10; 126 1; 127 1; 128 1; 
131 3; 132 5; 133 12; 134 12; 135 19; 
136 11; 137 3; 138 1; 143 7; 145 9; 
146 2; 147 4; 148 57; 149 21; 150 26; 
151 32; 152 3; 155 2; 156 3; 157 4; 
158 4; 159 3; 161 1; 162 4; 163 5; 
164 101; 165 16; 166 1; 168 1; 169 24; 
170 4; 171 14; 172 3; 173 4; 175 1; 
176 1; 177 1; 178 1; 179 1; 180 2; 
181 1; 183 4; 184 8; 185 3; 186 13; 
187 3; 188 7; 189 2; 191 1; 192 1; 
195 1; 196 4; 197 3; 198 2; 199 58; 
200 7; 201 58; 202 6; 203 3; 207 2; 
209 1; 210 1; 211 1; 212 1; 213 11; 
214 4; 215 10; 216 2; 217 1; 221 1; 
225 1; 226 6; 227 28; 228 17; 229 209; 
230 31; 231 181; 232 18; 239 1; 240 2; 
241 2; 242 495; 243 67; 244 478; 245 65; 
246 5; 249 1; 253 1; 255 1; 256 2; 
257 1; 258 1; 269 1; 270 1; 271 1; 
272 2; 273 1; 285 1; 315 1; 320 6; 
321 2; 327 1; 335 2; 337 2; 341 1; 
346 1; 356 1; 375 4; 405 1; 465 4; 
466 1; 485 19; 486 4; 563 36; 564 8; 
565 37; 566 8; 567 1; 
