Name: 25B-NBF-imine
Synon: N-[2-(4-bromo-2,5-dimethoxyphenyl)ethyl]-1-(2-fluorobenzyl)methanimine
Synon: 2C-B-NBF-imine
InChIKey: ICAGLBCCAPQTQL-JAIQZWGSSA-N
Formula: C17H17BrFNO2
MW: 365
ExactMass: 365.04267
CASNO: 0
ID: 4415
Comment: ENFSI/DWG
Num Peaks: 190
38 1; 39 7; 40 1; 41 4; 42 1; 
43 1; 50 7; 51 16; 52 4; 53 14; 
54 1; 55 1; 57 6; 59 3; 61 1; 
62 6; 63 20; 64 9; 65 11; 66 2; 
67 3; 68 2; 69 2; 70 2; 73 1; 
74 4; 75 18; 76 12; 77 69; 78 19; 
79 14; 80 3; 81 6; 82 4; 83 35; 
84 2; 86 1; 87 2; 88 3; 89 34; 
90 25; 91 39; 92 21; 93 5; 94 5; 
95 8; 96 4; 97 1; 99 1; 100 1; 
101 2; 102 10; 103 7; 104 5; 105 57; 
106 18; 107 52; 108 49; 109 735; 110 56; 
111 2; 115 1; 116 2; 117 5; 118 5; 
119 11; 120 18; 121 19; 122 22; 123 4; 
124 15; 125 2; 128 1; 129 1; 130 1; 
131 3; 132 4; 133 14; 134 15; 135 59; 
136 999; 137 91; 138 8; 139 1; 143 14; 
144 2; 145 12; 146 3; 147 2; 148 21; 
149 8; 150 20; 151 4; 152 1; 155 3; 
156 4; 157 8; 158 4; 159 4; 160 1; 
161 1; 162 3; 163 3; 164 3; 165 1; 
167 2; 168 2; 169 10; 170 6; 171 15; 
172 4; 173 6; 174 2; 175 1; 177 3; 
178 1; 180 2; 181 1; 182 1; 183 5; 
184 9; 185 5; 186 17; 187 4; 188 9; 
189 1; 190 2; 191 1; 195 1; 196 2; 
197 2; 198 4; 199 50; 200 7; 201 50; 
202 5; 203 3; 209 1; 210 1; 211 4; 
212 3; 213 12; 214 3; 215 11; 216 3; 
217 1; 218 1; 220 1; 224 1; 225 1; 
226 4; 227 8; 228 12; 229 116; 230 19; 
231 109; 232 11; 233 1; 238 2; 239 1; 
240 6; 241 3; 242 11; 243 4; 244 10; 
245 2; 254 4; 255 2; 256 15; 257 3; 
258 1; 270 4; 271 1; 272 2; 287 1; 
319 2; 320 1; 321 2; 323 1; 325 1; 
332 1; 334 278; 335 51; 336 267; 337 49; 
338 5; 365 35; 366 7; 367 34; 368 6; 
