Name: 25B-NBF TFA derivative
InChIKey: VOIYVZGXHUMMNI-UHFFFAOYSA-N
Synon: 2C-B-NBF TFA derivative
Formula: C19H18BrF4NO3
MW: 463
ExactMass: 463.040619
CASNO: 0
ID: 4416
Comment: ENFSI/DWG
Num Peaks: 168
39 9; 41 3; 42 3; 43 3; 45 1; 
50 7; 51 14; 52 5; 53 11; 55 3; 
56 4; 57 8; 59 7; 62 4; 63 20; 
64 11; 65 14; 66 3; 67 4; 69 20; 
73 12; 74 2; 75 8; 76 12; 77 70; 
78 21; 79 22; 80 7; 81 7; 82 6; 
83 63; 84 5; 87 3; 89 32; 90 31; 
91 61; 92 28; 93 7; 94 3; 95 4; 
96 6; 97 10; 102 6; 103 9; 104 7; 
105 59; 106 16; 107 30; 108 22; 109 999; 
110 80; 111 3; 115 3; 117 6; 118 9; 
119 14; 120 24; 121 48; 122 31; 123 12; 
125 10; 131 4; 132 7; 133 14; 134 16; 
135 27; 136 13; 137 5; 143 11; 145 15; 
146 3; 147 8; 148 81; 149 32; 150 41; 
151 55; 152 8; 154 2; 155 2; 156 3; 
157 7; 158 7; 159 4; 162 6; 163 4; 
164 159; 165 22; 166 3; 169 13; 170 6; 
171 17; 172 3; 173 5; 176 2; 177 2; 
178 3; 179 3; 183 6; 184 11; 185 6; 
186 19; 187 5; 188 11; 189 3; 192 3; 
193 2; 194 3; 196 4; 197 3; 198 3; 
199 82; 200 9; 201 81; 202 7; 203 4; 
207 7; 208 7; 209 1; 210 2; 211 2; 
213 14; 214 5; 215 12; 220 6; 221 3; 
226 9; 227 41; 228 17; 229 278; 230 39; 
231 235; 232 23; 239 3; 242 652; 243 76; 
244 649; 245 75; 246 7; 249 1; 251 3; 
253 6; 254 1; 255 4; 259 4; 268 2; 
269 5; 275 5; 283 2; 315 3; 325 3; 
326 3; 327 5; 328 1; 331 1; 332 2; 
341 5; 343 1; 346 2; 385 56; 386 11; 
405 1; 415 2; 430 1; 431 1; 463 104; 
464 24; 465 110; 466 22; 
