Name: Clovoxamine
Synon: 1-(4-chlorophenyl)-5-methoxypentan-1-one O-2-aminoethyl oxime
InChIKey: XXPVSQRPGBUFKM-SAPNQHFASA-N
Formula: C14H21ClN2O2
MW: 284
ExactMass: 284.129156
CASNO: 54739194
ID: 4417
Comment: AAFS
Num Peaks: 144
36 1; 37 1; 38 3; 39 46; 40 11; 
41 159; 42 58; 43 280; 44 357; 45 675; 
46 17; 47 2; 50 38; 51 31; 52 10; 
53 19; 54 19; 55 113; 56 68; 57 14; 
58 40; 59 4; 60 18; 61 11; 62 9; 
63 16; 64 8; 65 11; 66 2; 67 8; 
68 11; 69 12; 71 999; 72 44; 73 7; 
74 25; 75 147; 76 48; 77 26; 80 4; 
81 1; 82 5; 83 3; 84 9; 85 22; 
86 28; 87 24; 88 3; 89 21; 90 6; 
91 9; 94 1; 95 3; 97 3; 99 9; 
100 6; 101 29; 102 86; 103 20; 104 2; 
106 4; 109 2; 110 8; 111 165; 112 20; 
113 53; 114 8; 115 33; 116 27; 117 18; 
118 12; 125 47; 126 7; 127 24; 128 24; 
129 12; 130 27; 131 28; 132 18; 133 6; 
134 1; 136 9; 137 99; 138 229; 139 58; 
140 90; 141 19; 142 14; 143 14; 144 8; 
145 2; 146 2; 149 11; 150 7; 151 39; 
152 11; 153 484; 154 58; 155 174; 156 23; 
157 4; 158 5; 162 2; 163 4; 164 42; 
165 28; 166 179; 167 35; 168 59; 169 19; 
170 5; 171 2; 175 3; 177 12; 178 20; 
179 14; 180 46; 181 13; 182 27; 183 3; 
184 5; 190 8; 192 75; 193 28; 194 42; 
195 15; 196 7; 197 2; 208 12; 209 8; 
210 82; 211 13; 212 27; 213 3; 224 62; 
225 22; 226 23; 227 5; 228 2; 239 1; 
242 265; 243 39; 244 90; 245 10; 
