Name: A-796,260
Synon: 1-(2-morpholin-4-ylethyl)-1H-indol-3-yl]-(2,2,3,3-tetramethylcyclopropyl)methanone
Synon: LTI-258
InChIKey: ZCFHOMLAFTWDFM-UHFFFAOYSA-N
Formula: C22H30N2O2
MW: 354
ExactMass: 354.230728
CASNO: 895155267
ID: 4420
Comment: Provided by www.caymanchem.com/app/template/landing%2CForensic.vm / Item #11606  Lot #0438795 / SWGDRUG Monograph available
Num Peaks: 118
41 25; 42 26; 43 12; 44 6; 45 3; 
51 1; 53 5; 54 6; 55 40; 56 64; 
57 10; 58 2; 59 1; 63 1; 65 1; 
67 4; 68 3; 69 8; 70 36; 71 3; 
72 9; 75 2; 76 2; 77 6; 78 2; 
79 3; 81 6; 82 2; 83 10; 84 6; 
85 1; 86 1; 88 2; 89 5; 90 1; 
91 2; 95 1; 96 1; 97 4; 98 12; 
100 999; 101 65; 102 14; 103 5; 104 1; 
109 2; 112 4; 114 108; 115 25; 116 7; 
117 5; 118 1; 125 6; 126 1; 127 2; 
128 11; 129 24; 130 17; 131 2; 139 1; 
140 2; 141 2; 142 3; 143 16; 144 9; 
145 1; 152 2; 153 1; 154 4; 155 2; 
156 4; 157 6; 158 4; 165 2; 166 2; 
167 8; 168 5; 169 2; 170 8; 171 3; 
172 1; 178 1; 179 1; 180 10; 181 7; 
182 5; 183 2; 184 2; 193 1; 194 6; 
195 3; 196 6; 197 2; 198 1; 199 3; 
208 2; 209 1; 210 5; 211 2; 212 1; 
222 1; 224 16; 225 2; 229 1; 238 2; 
239 6; 240 1; 254 4; 255 1; 257 21; 
258 4; 295 1; 296 1; 311 2; 339 3; 
340 1; 354 17; 355 4; 
