Name: 4-Fluoro-.alpha.-PHP
InChIKey: BCJXLSGKMNRRKO-UHFFFAOYSA-N
Synon: 4-Fluoro-PV-7
Synon: 1-(4-fluorophenyl)-2-(pyrrolidin-1-yl)hexan-1-one
Synon: 4F-.alpha.-PHP
Synon: 4-fluoro-.alpha.-pyrrolidinohexiophenone
Synon: 4-fluoro-.alpha.-pyrrolidinohexanophenone
Synon: 4F-PHP
Formula: C16H22FNO
MW: 263
ExactMass: 263.168543
CASNO: 0
ID: 4423
Comment: DEA SFL1 Lot # RM-160407-01
Num Peaks: 78
30 4; 39 8; 40 1; 41 33; 42 26; 
43 10; 44 2; 50 2; 51 2; 53 4; 
54 17; 55 29; 56 17; 57 4; 63 1; 
65 1; 67 4; 68 16; 69 46; 70 20; 
71 1; 72 2; 74 2; 75 29; 76 3; 
77 2; 79 1; 80 3; 81 4; 82 7; 
83 5; 84 60; 85 3; 93 1; 94 11; 
95 120; 96 71; 97 41; 98 24; 99 1; 
101 1; 103 1; 107 2; 108 3; 109 16; 
110 24; 111 3; 112 2; 115 1; 120 2; 
121 2; 122 3; 123 98; 124 9; 125 1; 
133 4; 134 1; 135 2; 136 1; 138 23; 
140 999; 141 158; 142 7; 146 1; 147 1; 
148 1; 149 2; 150 1; 151 3; 163 1; 
164 1; 177 1; 178 2; 186 1; 204 2; 
206 15; 207 2; 262 2; 
