Name: Clonazepam-d4
InChIKey: DGBIGWXXNGSACT-RHQRLBAQSA-N
Formula: C15H6D4ClN3O3
MW: 319
ExactMass: 319.066175
CASNO: 170082152
ID: 4424
Comment: Provided by www.caymanchem.com/app/template/landing%2CForensic.vm / Item #18727
Num Peaks: 275
41 19; 42 36; 43 8; 44 20; 45 1; 
46 9; 47 3; 48 1; 49 4; 50 30; 
51 89; 52 60; 53 22; 54 28; 55 3; 
56 6; 57 1; 58 1; 59 5; 60 2; 
61 10; 62 43; 63 109; 64 60; 65 29; 
66 14; 67 9; 68 7; 69 5; 70 3; 
71 4; 72 3; 73 23; 74 31; 75 107; 
76 91; 77 241; 78 226; 79 32; 80 48; 
81 18; 82 5; 83 14; 84 24; 85 10; 
86 13; 87 45; 88 45; 89 51; 90 45; 
91 69; 92 51; 93 65; 94 14; 95 31; 
96 21; 97 11; 98 12; 99 30; 100 33; 
101 44; 102 65; 103 85; 104 109; 105 83; 
106 82; 107 8; 108 4; 109 15; 110 11; 
111 14; 112 22; 113 25; 114 14; 115 70; 
116 24; 117 64; 118 45; 119 48; 120 35; 
121 18; 122 9; 123 51; 124 19; 125 21; 
126 21; 127 30; 128 39; 129 136; 130 83; 
131 56; 132 28; 133 16; 134 8; 135 8; 
136 4; 137 12; 138 2; 139 7; 140 32; 
141 78; 142 96; 143 70; 144 57; 145 9; 
146 6; 147 18; 148 7; 149 20; 150 11; 
151 19; 152 44; 153 114; 154 205; 155 156; 
156 111; 157 34; 158 17; 159 3; 160 2; 
161 4; 162 3; 163 7; 164 27; 165 30; 
166 44; 167 65; 168 49; 169 23; 170 41; 
171 39; 172 12; 173 2; 175 6; 176 10; 
177 32; 178 40; 179 84; 180 116; 181 134; 
182 150; 183 142; 184 28; 185 3; 186 1; 
187 4; 188 4; 189 6; 190 32; 191 18; 
192 21; 193 27; 194 37; 195 33; 196 43; 
197 46; 198 26; 199 4; 200 3; 201 4; 
202 4; 203 22; 204 24; 205 12; 206 30; 
207 90; 208 74; 209 226; 210 113; 211 29; 
212 4; 213 2; 214 3; 215 13; 216 51; 
217 54; 218 33; 219 12; 220 10; 221 9; 
222 4; 223 6; 224 13; 225 36; 226 56; 
227 13; 228 5; 229 19; 230 7; 231 22; 
232 24; 233 18; 234 4; 235 7; 236 27; 
237 32; 238 506; 239 98; 240 7; 241 6; 
242 71; 243 124; 244 414; 245 168; 246 151; 
247 41; 248 8; 249 3; 250 2; 251 6; 
252 2; 253 29; 254 18; 255 11; 256 120; 
257 31; 258 11; 259 18; 260 52; 261 40; 
262 25; 263 18; 264 8; 265 2; 266 5; 
267 7; 268 3; 269 4; 270 3; 271 101; 
272 60; 273 65; 274 19; 275 7; 276 9; 
277 7; 278 1; 279 2; 280 2; 281 8; 
282 39; 283 2; 284 999; 285 189; 286 23; 
287 6; 288 3; 289 71; 290 510; 291 325; 
292 452; 293 140; 294 103; 295 11; 296 3; 
298 1; 299 1; 300 1; 301 5; 302 9; 
303 9; 304 2; 305 1; 306 1; 311 1; 
313 1; 315 5; 316 9; 317 510; 318 128; 
319 533; 320 111; 321 123; 322 24; 323 1; 
