Name: 3,4-Methylenedioxy-.alpha.-dimethylamino-isovalerophenone
Synon: 1-(Benzo[d][1,3]dioxol-5-yl)-2-(dimethylamino)-3-methylbutan-1-one
InChIKey: SZMQLCSYJQIPAH-UHFFFAOYSA-N
Formula: C14H19NO3
MW: 249
ExactMass: 249.136494
CASNO: 0
ID: 4427
Comment: Provided by www.caymanchem.com/app/template/landing%2CForensic.vm / Item #9002599 Batch #0476277
Num Peaks: 98
40 1; 41 29; 42 89; 43 17; 44 86; 
45 3; 46 2; 50 4; 51 8; 52 1; 
53 9; 54 2; 55 23; 56 8; 57 5; 
58 20; 61 3; 62 18; 63 60; 64 8; 
65 86; 66 7; 67 2; 68 11; 69 5; 
70 69; 71 5; 72 2; 74 5; 75 2; 
76 1; 77 10; 78 2; 79 6; 80 1; 
81 1; 82 6; 83 4; 84 75; 85 137; 
86 8; 89 2; 90 2; 91 30; 92 6; 
93 1; 94 1; 98 9; 99 6; 100 999; 
101 91; 102 4; 103 3; 104 3; 105 4; 
106 1; 107 1; 115 2; 116 1; 117 2; 
118 2; 119 9; 120 9; 121 72; 122 8; 
131 2; 132 2; 133 2; 134 1; 135 14; 
136 1; 145 2; 146 2; 147 7; 148 3; 
149 96; 150 9; 151 1; 160 2; 161 1; 
162 2; 163 1; 164 1; 175 4; 176 4; 
177 1; 178 18; 179 1; 188 4; 189 2; 
190 4; 191 5; 192 1; 204 8; 205 2; 
206 17; 207 1; 249 1; 
