Name: 3-Fluoro-AMB
InChIKey: YPUVLRMGECVDHZ-FQNRMIAFSA-N
Synon: 3-Fluoro-AMP
Synon: Methyl-(1-(3-fluoropentyl)-1H-indazole-3-carbonyl)-L-valinate
Synon: 3F-AMB
Synon: 3F-AMP
Formula: C19H26FN3O3
MW: 363
ExactMass: 363.19582
CASNO: 0
ID: 4430
Comment: Provided by www.caymanchem.com/app/template/landing%2CForensic.vm / Item #9002737 Batch #0481555
Num Peaks: 144
41 48; 42 6; 43 37; 44 4; 45 1; 
47 6; 50 1; 51 3; 52 1; 53 4; 
54 2; 55 20; 56 8; 57 1; 59 31; 
60 2; 61 5; 62 3; 63 4; 64 2; 
65 2; 67 3; 68 2; 69 19; 70 7; 
71 11; 72 4; 73 6; 74 2; 75 5; 
76 11; 77 15; 78 2; 82 1; 83 3; 
85 1; 86 1; 87 4; 88 23; 89 17; 
90 38; 91 6; 92 1; 98 6; 99 1; 
101 2; 102 24; 103 71; 104 21; 105 2; 
114 2; 115 2; 116 5; 117 22; 118 7; 
119 1; 121 1; 128 2; 129 30; 130 41; 
131 77; 132 10; 133 1; 135 1; 142 3; 
143 7; 144 12; 145 204; 146 20; 147 3; 
148 1; 149 1; 155 2; 156 5; 157 6; 
158 8; 159 3; 160 1; 161 2; 168 1; 
169 2; 170 2; 171 10; 172 5; 173 2; 
174 32; 175 8; 176 2; 177 2; 183 1; 
184 4; 185 6; 186 4; 187 1; 189 1; 
200 12; 201 4; 203 3; 204 1; 205 1; 
207 4; 211 1; 212 1; 213 19; 214 9; 
215 3; 216 1; 217 1; 228 5; 229 5; 
230 1; 231 8; 233 999; 234 145; 235 12; 
246 3; 247 3; 249 78; 250 12; 251 1; 
253 1; 254 1; 261 5; 262 1; 274 1; 
284 7; 285 1; 286 1; 288 7; 289 6; 
290 1; 302 1; 304 264; 305 51; 306 5; 
316 2; 320 5; 321 5; 331 3; 332 2; 
343 1; 363 36; 364 7; 365 1; 
