Name: Ephenidine
InChIKey: IGFZMQXEKIZPDR-UHFFFAOYSA-N
Synon: EPE
Synon: NEDPA
Synon: NSC 33648
Synon: N-Ethyl-1,2-diphenylethylamine
Formula: C16H19N
MW: 225
ExactMass: 225.15175
CASNO: 60951191
ID: 4431
Comment: Provided by www.caymanchem.com/app/template/landing%2CForensic.vm / Item #18327 Batch #0480244
Num Peaks: 78
41 6; 42 4; 44 3; 50 8; 51 30; 
52 8; 53 3; 54 2; 56 17; 62 3; 
63 18; 64 5; 65 59; 66 4; 74 4; 
75 5; 76 12; 77 111; 78 25; 79 135; 
80 9; 82 1; 83 2; 87 1; 88 2; 
89 29; 90 12; 91 161; 92 15; 93 1; 
101 1; 102 9; 103 35; 104 52; 105 21; 
106 54; 107 4; 115 10; 116 3; 117 13; 
118 41; 119 8; 120 2; 126 2; 127 2; 
128 4; 129 1; 130 4; 131 1; 132 43; 
133 9; 134 999; 135 117; 136 5; 139 3; 
141 2; 148 5; 150 2; 151 5; 152 12; 
153 5; 154 1; 163 1; 164 2; 165 28; 
166 14; 167 2; 176 6; 177 4; 178 28; 
179 17; 180 7; 181 16; 182 3; 193 1; 
194 2; 195 1; 224 2; 
