Name: Suvorexant
Synon: MK-4305
Synon: [(7R)-4-(5-Chloro-2-benzoxazolyl)hexahydro-7-methyl-1H-1,4-diazepin-1-yl)][5-methyl-2-(2H-1,2,3-triazol-2-yl)phenyl]methanone
InChIKey: JYTNQNCOQXFQPK-MRXNPFEDSA-N
Formula: C23H23ClN6O2
MW: 450
ExactMass: 450.157103
CASNO: 1030377333
ID: 4436
Comment: Provided by www.caymanchem.com/app/template/landing%2CForensic.vm / Item #9002140 Batch #0462872
Num Peaks: 223
40 2; 41 19; 42 54; 43 3; 44 24; 
45 1; 50 2; 51 9; 52 5; 53 7; 
54 10; 55 38; 56 27; 57 3; 58 1; 
61 1; 62 2; 63 15; 64 2; 65 9; 
66 1; 67 3; 68 13; 69 18; 70 68; 
71 4; 72 1; 73 15; 74 3; 75 6; 
76 22; 77 123; 78 32; 79 5; 80 1; 
81 4; 82 37; 83 2; 84 11; 85 2; 
87 1; 88 1; 89 15; 90 8; 91 22; 
92 3; 93 1; 94 4; 95 2; 96 60; 
97 8; 98 6; 99 4; 100 1; 101 2; 
102 19; 103 36; 104 255; 105 35; 106 5; 
109 1; 111 3; 112 11; 113 2; 114 1; 
115 2; 116 3; 117 6; 118 6; 119 12; 
120 1; 124 5; 125 5; 126 13; 127 4; 
128 9; 129 3; 130 10; 131 7; 132 20; 
133 14; 134 3; 135 7; 137 1; 138 6; 
139 8; 140 4; 141 2; 142 2; 144 2; 
145 3; 146 6; 147 4; 148 1; 149 1; 
151 1; 152 2; 153 13; 154 5; 155 3; 
156 3; 157 3; 158 3; 159 19; 160 9; 
161 4; 162 1; 163 1; 165 2; 166 2; 
167 24; 168 9; 169 7; 170 4; 171 3; 
172 2; 173 3; 174 1; 175 1; 177 2; 
179 6; 180 22; 181 46; 182 13; 183 16; 
184 5; 185 14; 186 999; 187 182; 188 23; 
189 1; 191 2; 193 12; 194 6; 195 71; 
196 15; 197 20; 198 3; 199 1; 200 6; 
201 2; 202 3; 203 2; 204 1; 205 2; 
207 61; 208 22; 209 18; 210 4; 211 1; 
212 1; 213 2; 214 2; 215 5; 219 2; 
220 4; 221 98; 222 19; 223 33; 224 6; 
225 3; 226 1; 227 5; 228 1; 229 37; 
230 25; 231 3; 233 4; 235 2; 236 1; 
237 1; 239 1; 241 1; 242 1; 247 2; 
248 38; 249 8; 250 48; 251 6; 252 12; 
253 13; 254 7; 255 13; 256 12; 257 19; 
258 2; 262 1; 264 34; 265 5; 266 13; 
267 2; 268 1; 269 4; 270 8; 281 10; 
282 4; 283 6; 284 1; 297 1; 298 1; 
325 1; 327 2; 331 2; 341 4; 342 1; 
343 1; 346 1; 347 1; 355 1; 381 9; 
382 18; 383 6; 384 6; 405 2; 406 1; 
415 1; 416 1; 435 2; 449 12; 450 50; 
451 10; 452 16; 453 3; 
