Name: 25T2-NBOMe
InChIKey: OZEBFZPAWCXEGK-UHFFFAOYSA-N
Synon: 2C-T-2-NBOMe
Synon: 25T2-NB2OMe
Synon: 4-(Ethylthio)-2,5-dimethoxy-N-[(2-methoxyphenyl)methyl]-benzeneethanamine
Synon: 2C-T-2-NB2OMe
Formula: C20H27NO3S
MW: 361
ExactMass: 361.171165
CASNO: 1391492275
ID: 4437
Comment: Provided by www.caymanchem.com/app/template/landing%2CForensic.vm / Item #9002690-0479127-GCMS
Num Peaks: 144
41 3; 42 5; 43 2; 45 6; 50 3; 
51 9; 52 5; 53 6; 55 2; 58 1; 
59 7; 61 1; 62 2; 63 7; 64 4; 
65 46; 66 5; 67 5; 69 5; 70 1; 
71 2; 73 6; 74 1; 75 5; 76 4; 
77 44; 78 38; 79 20; 80 3; 81 1; 
82 1; 83 1; 84 2; 85 3; 89 13; 
90 9; 91 346; 92 33; 93 38; 94 6; 
95 5; 96 5; 97 8; 98 1; 99 1; 
102 1; 103 4; 104 7; 105 15; 106 8; 
107 24; 108 10; 109 13; 110 10; 111 6; 
112 1; 113 1; 115 2; 116 2; 117 7; 
118 13; 119 12; 120 12; 121 999; 122 78; 
123 13; 124 5; 125 8; 126 1; 127 1; 
131 1; 132 7; 133 11; 134 13; 135 12; 
136 11; 137 13; 138 14; 139 6; 140 6; 
141 2; 147 5; 148 35; 149 12; 150 322; 
151 48; 152 15; 153 35; 154 6; 155 3; 
161 1; 162 3; 163 5; 164 7; 165 6; 
166 3; 167 14; 168 4; 169 4; 176 1; 
177 2; 178 1; 179 2; 180 1; 181 29; 
182 7; 183 14; 184 1; 191 1; 192 1; 
193 3; 194 1; 195 4; 196 2; 197 13; 
198 1; 199 1; 207 4; 208 2; 209 3; 
210 2; 211 56; 212 344; 213 44; 214 18; 
215 1; 223 1; 224 3; 225 6; 253 4; 
254 1; 255 1; 267 2; 269 1; 281 2; 
282 1; 327 1; 328 12; 329 4; 330 3; 
331 2; 359 4; 360 1; 361 1; 
