Name: Delta-9-THC-d3
Synon: Delta-9-Tetrahydrocannabinol-d3
InChIKey: CYQFCXCEBYINGO-FIBGUPNXSA-N
Formula: C21H27D3O2
MW: 317
ExactMass: 317.24341
CASNO: 81586392
ID: 4441
Comment: Provided by www.caymanchem.com/app/template/landing%2CForensic.vm / Item #19332 Batch #0480455
Num Peaks: 252
40 8; 41 197; 42 49; 43 156; 44 60; 
45 45; 46 56; 47 1; 50 3; 51 16; 
52 9; 53 48; 54 7; 55 75; 56 11; 
57 13; 58 20; 59 40; 60 22; 61 1; 
62 2; 63 10; 64 5; 65 49; 66 14; 
67 98; 68 16; 69 93; 70 8; 71 3; 
72 6; 73 4; 74 13; 75 5; 76 7; 
77 122; 78 38; 79 88; 80 20; 81 102; 
82 14; 83 12; 84 4; 85 1; 86 2; 
87 3; 88 2; 89 17; 90 8; 91 173; 
92 29; 93 62; 94 16; 95 64; 96 11; 
97 5; 98 6; 99 3; 100 6; 101 6; 
102 12; 103 36; 104 13; 105 86; 106 22; 
107 85; 108 25; 109 23; 110 4; 111 3; 
112 6; 113 5; 115 115; 116 33; 117 43; 
118 11; 119 62; 120 18; 121 56; 122 28; 
123 44; 124 18; 125 3; 126 5; 127 38; 
128 101; 129 67; 130 16; 131 52; 132 16; 
133 34; 134 20; 135 29; 136 21; 137 18; 
138 6; 139 13; 140 6; 141 65; 142 30; 
143 30; 144 25; 145 47; 146 16; 147 78; 
148 20; 149 24; 150 13; 151 13; 152 48; 
153 45; 154 23; 155 32; 156 12; 157 39; 
158 22; 159 42; 160 42; 161 59; 162 18; 
163 18; 164 10; 165 67; 166 24; 167 20; 
168 28; 169 36; 170 17; 171 36; 172 19; 
173 70; 174 150; 175 82; 176 29; 177 11; 
178 25; 179 18; 180 12; 181 37; 182 23; 
183 38; 184 21; 185 37; 186 23; 187 103; 
188 46; 189 29; 190 19; 191 8; 192 5; 
193 8; 194 20; 195 27; 196 126; 197 53; 
198 25; 199 69; 200 43; 201 97; 202 34; 
203 12; 204 9; 205 2; 206 2; 207 2; 
208 8; 209 12; 210 28; 211 28; 212 15; 
213 60; 214 45; 215 67; 216 19; 217 5; 
218 7; 220 93; 221 21; 222 10; 223 9; 
224 46; 225 24; 226 12; 227 30; 228 22; 
229 20; 230 11; 231 9; 232 29; 234 861; 
235 153; 236 47; 237 8; 238 3; 239 6; 
240 9; 241 13; 242 37; 243 334; 244 68; 
245 5; 246 48; 247 27; 248 47; 249 46; 
250 7; 251 1; 253 5; 254 1; 255 8; 
256 10; 257 41; 258 280; 259 61; 260 75; 
261 22; 262 13; 263 3; 265 1; 267 1; 
268 1; 269 3; 270 3; 271 15; 272 19; 
274 486; 275 121; 276 22; 277 2; 282 1; 
283 1; 284 7; 285 5; 286 11; 287 4; 
288 46; 289 28; 290 4; 298 6; 299 3; 
300 73; 302 999; 303 216; 304 25; 305 1; 
313 1; 314 2; 315 5; 317 776; 318 174; 
319 20; 320 2; 
