Name: 5-PPDi
Synon: 1-(2,3-dihydro-1H-inden-5-yl)-2-(pyrrolidin-1-yl)butan-1-one
InChIKey: HLBROWUOAAQHCM-UHFFFAOYSA-N
Formula: C17H23NO
MW: 257
ExactMass: 257.177965
CASNO: 0
ID: 4451
Comment: ENFSI / NFL SI, EU project RESPONSE, confirmed by NMR
Num Peaks: 61
51 4; 52 1; 53 4; 54 12; 55 33; 
56 9; 58 7; 62 1; 63 7; 64 1; 
65 7; 66 1; 67 1; 68 8; 69 11; 
70 42; 71 2; 75 1; 76 1; 77 4; 
78 2; 79 1; 80 1; 81 1; 82 4; 
83 2; 84 3; 87 1; 88 1; 89 7; 
91 30; 92 2; 94 2; 95 1; 96 19; 
97 11; 98 1; 102 4; 103 1; 108 1; 
110 26; 112 999; 113 87; 115 71; 116 19; 
117 21; 118 2; 127 1; 128 4; 129 3; 
130 1; 131 3; 141 1; 143 1; 145 23; 
146 2; 171 1; 200 6; 201 1; 226 1; 
228 3; 
