Name: MDMB-CHMCZCA
Synon: EGMB-CHMINACA
Synon: Methyl 2-(9-(cyclohexylmethyl)-9H-carbazole-3-carboxamido)-3,3-dimethyl butanoate
InChIKey: FAWVRKNYDPKTDZ-UHFFFAOYSA-N
Formula: C27H34N2O3
MW: 434
ExactMass: 434.256943
CASNO: 0
ID: 4452
Comment: ENFSI / EDND webpage, Swedish NFP, confirmed by NMR
Num Peaks: 183
29 27; 30 1; 31 3; 32 4; 33 1; 
39 13; 40 2; 41 82; 42 7; 43 10; 
44 3; 45 1; 50 1; 51 1; 53 8; 
54 4; 55 97; 56 8; 57 131; 58 6; 
59 9; 63 1; 65 2; 67 10; 68 3; 
69 16; 70 3; 73 9; 74 1; 75 1; 
76 3; 77 3; 78 1; 79 2; 81 2; 
82 1; 83 10; 84 2; 87 1; 88 3; 
90 4; 91 2; 93 1; 95 3; 96 1; 
97 3; 98 1; 101 1; 102 2; 104 4; 
112 1; 113 1; 114 2; 115 2; 116 1; 
125 1; 126 5; 127 3; 128 2; 129 1; 
133 1; 135 1; 137 3; 138 13; 139 33; 
140 12; 141 1; 144 2; 147 1; 149 1; 
150 6; 151 25; 152 31; 153 33; 154 5; 
163 1; 164 24; 165 49; 166 143; 167 25; 
168 3; 176 2; 177 10; 178 111; 179 522; 
180 120; 181 13; 182 1; 188 4; 189 1; 
190 1; 191 6; 192 6; 193 40; 194 113; 
195 17; 196 1; 202 1; 203 4; 204 19; 
205 20; 206 10; 207 27; 208 14; 209 3; 
210 1; 216 1; 217 4; 218 6; 219 2; 
220 3; 221 6; 222 2; 223 22; 224 4; 
230 1; 231 1; 232 2; 233 1; 234 6; 
235 38; 236 6; 237 1; 246 1; 248 1; 
249 2; 250 1; 253 2; 260 2; 261 4; 
262 10; 263 24; 264 6; 265 1; 276 1; 
277 1; 278 1; 281 3; 282 1; 288 14; 
290 999; 291 258; 292 36; 293 5; 294 1; 
295 46; 296 10; 297 1; 304 1; 305 1; 
306 1; 317 2; 318 37; 319 10; 320 1; 
341 1; 343 1; 345 10; 346 170; 347 42; 
348 5; 351 68; 352 16; 353 2; 360 10; 
361 3; 375 2; 376 1; 378 94; 379 22; 
380 3; 387 6; 388 1; 402 11; 403 5; 
404 1; 405 1; 417 3; 418 1; 419 2; 
434 134; 435 40; 436 7; 
