Name: MDMB-FUBICA
InChIKey: RVAWIZIGOSKPBP-UHFFFAOYSA-N
Synon: Methyl 2-(1-(4-fluorobenzyl)-1H-indol-3-carboxamide)-3,3-dimethylbutanoate
Formula: C23H25FN2O3
MW: 396
ExactMass: 396.184921
CASNO: 1971007916
ID: 4453
Comment: ENFSI / EDND webpage, Swedish NFP, confirmed by NMR
Num Peaks: 150
29 13; 30 1; 31 1; 32 2; 39 9; 
40 1; 41 32; 42 4; 43 3; 44 9; 
45 1; 50 1; 51 3; 52 1; 53 2; 
54 1; 55 5; 56 3; 57 61; 58 2; 
59 13; 60 1; 62 3; 63 8; 64 1; 
65 1; 67 1; 68 2; 69 5; 70 2; 
73 17; 74 3; 75 6; 76 3; 77 3; 
78 1; 81 2; 82 1; 83 65; 84 4; 
85 1; 86 1; 87 3; 88 10; 89 15; 
90 3; 91 1; 95 1; 96 2; 97 1; 
101 6; 102 4; 103 2; 107 10; 108 8; 
109 999; 110 77; 111 3; 114 10; 115 39; 
116 10; 117 2; 119 1; 128 7; 129 4; 
130 1; 133 2; 135 4; 142 1; 143 60; 
144 23; 145 2; 146 1; 147 3; 149 1; 
154 1; 155 1; 156 2; 157 2; 158 1; 
168 1; 169 1; 170 2; 171 8; 172 1; 
175 2; 176 2; 177 1; 191 2; 193 2; 
194 3; 195 3; 196 4; 197 2; 198 1; 
199 1; 201 1; 202 1; 203 1; 204 3; 
205 1; 207 14; 208 3; 209 2; 220 1; 
221 6; 222 26; 223 8; 224 13; 225 15; 
226 3; 228 2; 238 2; 249 1; 250 9; 
251 8; 252 517; 253 115; 254 13; 255 1; 
267 1; 279 7; 280 69; 281 18; 282 3; 
283 1; 307 4; 308 43; 309 9; 310 1; 
322 4; 323 1; 325 1; 327 1; 331 1; 
337 4; 338 1; 340 77; 341 19; 342 3; 
343 1; 349 3; 355 1; 364 2; 365 2; 
379 1; 381 1; 396 44; 397 11; 398 1; 
