Name: DOF
Synon: 1-(4-fluoro-2,5-dimethoxyphenyl)propan-2-amine
Synon: 4-Fluoro-2,5-Dimethoxyamphetamine
InChIKey: NRANUECGGQVXOT-UHFFFAOYSA-N
Formula: C11H16FNO2
MW: 213
ExactMass: 213.116507
CASNO: 125903697
ID: 4454
Comment: ENFSI / NFL SI, EU project RESPONSE, confirmed by NMR
Num Peaks: 128
31 2; 32 3; 38 1; 39 12; 40 2; 
41 6; 42 32; 43 10; 44 999; 45 28; 
50 5; 51 10; 52 3; 53 7; 54 2; 
55 2; 56 3; 57 18; 58 1; 59 4; 
61 1; 62 3; 63 8; 64 4; 65 8; 
66 2; 67 8; 68 3; 69 8; 70 9; 
71 3; 72 5; 73 15; 74 3; 75 16; 
76 3; 77 22; 78 4; 79 3; 80 2; 
81 8; 82 6; 83 48; 84 9; 85 2; 
86 1; 87 2; 88 1; 89 3; 90 1; 
91 11; 93 3; 94 6; 95 18; 96 41; 
97 19; 98 3; 99 4; 100 1; 101 3; 
102 1; 103 2; 104 2; 105 4; 106 2; 
107 11; 108 6; 109 35; 110 6; 111 15; 
112 8; 113 3; 115 1; 116 1; 117 1; 
118 1; 119 1; 120 3; 121 4; 122 4; 
123 5; 124 8; 125 5; 126 18; 127 6; 
133 1; 134 2; 135 4; 136 4; 137 3; 
138 4; 139 42; 140 7; 141 8; 142 1; 
147 2; 148 3; 149 3; 150 2; 151 4; 
152 2; 153 5; 154 8; 155 66; 156 9; 
157 1; 162 1; 163 1; 164 2; 165 3; 
166 6; 167 4; 168 6; 169 30; 170 219; 
171 22; 172 2; 178 1; 179 1; 180 7; 
181 3; 182 5; 183 2; 196 3; 197 1; 
198 4; 212 1; 213 1; 
