Name: Nifoxipam
InChIKey: UHFIFTRHLBAWGY-UHFFFAOYSA-N
Synon: 5-(2-fluorophenyl)-3-hydroxy-7-nitro-1H-benzo[e][1,4]diazepin-2(3H)-one
Synon: 3-Hydroxydesmethylflunitrazepam
Formula: C15H10FN3O4
MW: 315
ExactMass: 315.065535
CASNO: 74723107
ID: 4456
Comment: ENFSI / EDND webpage, Swedish NFP
Num Peaks: 204
30 86; 31 12; 32 24; 37 9; 38 31; 
39 52; 40 7; 41 12; 42 6; 43 6; 
44 9; 45 7; 46 18; 49 9; 50 202; 
51 121; 52 54; 53 14; 54 4; 55 8; 
56 8; 57 56; 58 4; 59 3; 61 23; 
62 80; 63 124; 64 39; 65 11; 66 3; 
67 3; 68 34; 69 46; 70 42; 71 10; 
72 12; 73 28; 74 291; 75 777; 76 131; 
77 67; 78 20; 79 15; 80 26; 81 51; 
82 14; 83 22; 85 54; 86 40; 87 51; 
88 51; 89 25; 90 29; 91 28; 92 24; 
93 34; 94 194; 95 173; 96 100; 97 24; 
98 93; 99 121; 100 97; 101 209; 102 365; 
103 39; 104 12; 105 39; 106 55; 107 38; 
108 7; 109 8; 110 21; 111 54; 113 6; 
114 6; 115 4; 116 25; 117 31; 118 54; 
119 26; 120 59; 121 71; 122 677; 123 112; 
124 34; 125 42; 126 25; 127 14; 128 106; 
129 22; 130 8; 131 72; 132 63; 133 42; 
134 28; 136 5; 137 10; 138 8; 139 6; 
140 5; 141 5; 142 15; 143 34; 144 175; 
145 124; 146 32; 147 25; 148 34; 149 126; 
150 88; 151 28; 152 11; 153 7; 155 24; 
156 26; 157 74; 158 79; 159 17; 162 7; 
163 15; 164 35; 165 15; 166 6; 167 34; 
168 183; 169 324; 170 140; 171 48; 172 9; 
173 6; 174 59; 175 104; 176 296; 177 90; 
178 14; 179 6; 180 9; 181 28; 182 46; 
183 19; 184 52; 185 18; 186 5; 189 6; 
190 6; 191 36; 192 29; 193 36; 194 78; 
195 421; 196 164; 197 47; 198 4; 201 27; 
202 96; 203 106; 204 98; 205 14; 207 12; 
208 5; 209 21; 210 73; 211 65; 212 6; 
213 7; 218 4; 219 14; 220 50; 221 154; 
222 945; 223 999; 224 150; 225 12; 228 13; 
236 4; 237 7; 238 73; 239 55; 240 6; 
242 3; 243 10; 248 3; 249 8; 250 658; 
251 142; 252 30; 253 9; 266 22; 267 70; 
268 81; 269 638; 270 124; 271 12; 278 5; 
279 3; 280 603; 281 104; 282 13; 283 4; 
296 17; 297 199; 298 39; 299 7; 
