Name: 2-Bromomethamphetamine
InChIKey: DKQQZKGGVNMTBO-UHFFFAOYSA-N
Synon: 1-(2-bromophenyl)-n-methylpropan-2-amine
Formula: C10H14BrN
MW: 227
ExactMass: 227.030962
CASNO: 4302947
ID: 4459
Comment: ENFSI / NFL SI, EU project RESPONSE, confirmed by NMR
Num Peaks: 83
30 43; 31 1; 32 3; 37 1; 38 3; 
39 19; 40 3; 41 13; 42 40; 43 14; 
44 4; 49 1; 50 11; 51 16; 52 3; 
53 1; 54 4; 55 3; 56 59; 58 999; 
59 35; 62 11; 63 34; 64 9; 65 16; 
66 4; 70 1; 71 1; 72 1; 73 1; 
74 5; 75 8; 76 6; 77 13; 78 5; 
79 3; 80 3; 81 1; 82 3; 85 1; 
86 3; 87 3; 89 68; 90 63; 91 35; 
92 3; 101 2; 102 7; 103 7; 104 6; 
105 2; 106 2; 107 1; 113 1; 114 1; 
115 35; 116 11; 117 25; 118 11; 119 2; 
128 1; 129 1; 130 9; 131 6; 132 18; 
133 9; 134 1; 143 2; 144 2; 145 2; 
146 5; 147 1; 169 34; 171 31; 172 3; 
197 1; 199 1; 212 13; 213 1; 214 12; 
215 1; 226 4; 228 3; 
