Name: Isopropylphenidate
InChIKey: AZVPADMEIMLODT-UHFFFAOYSA-N
Synon: Isopropyl 2-phenyl-2-(2-piperidyl)acetate
Synon: IPH
Synon: IPPD
Synon: Dimethylphenidate
Synon: Ritalinic Acid isopropyl ester
Formula: C16H23NO2
MW: 261
ExactMass: 261.172878
CASNO: 99088490
ID: 4460
Comment: ENFSI / NFL SI, EU project RESPONSE
Num Peaks: 90
31 2; 32 4; 37 1; 38 5; 39 37; 
40 7; 41 68; 42 21; 43 130; 44 9; 
45 5; 49 1; 50 6; 51 14; 52 6; 
53 6; 54 21; 55 80; 56 61; 57 5; 
58 1; 59 2; 62 3; 63 16; 64 5; 
65 40; 66 4; 67 7; 68 10; 69 2; 
70 1; 74 1; 75 2; 76 2; 77 20; 
78 6; 79 10; 80 6; 81 2; 82 40; 
83 36; 84 999; 85 67; 86 2; 87 1; 
89 26; 90 27; 91 244; 92 61; 93 4; 
96 1; 97 1; 102 5; 103 8; 104 4; 
105 4; 106 1; 107 2; 115 26; 116 11; 
117 26; 118 26; 119 14; 120 2; 127 2; 
128 7; 129 9; 130 15; 131 4; 132 4; 
135 1; 136 8; 141 1; 142 1; 143 2; 
144 6; 145 2; 146 1; 158 1; 170 1; 
172 13; 173 4; 174 5; 175 1; 178 16; 
179 2; 198 1; 216 1; 218 1; 259 2; 
