Name: Afloqualone
Synon: 6-Amino-2-(fluoromethyl)-3-(2-methylphenyl)-3H-quinazolin-4-one
InChIKey: VDOSWXIDETXFET-UHFFFAOYSA-N
Formula: C16H14FN3O
MW: 283
ExactMass: 283.112091
CASNO: 56287742
ID: 4461
Comment: ENFSI / EDND webpage, Swedish NFP, confirmed by NMR
Num Peaks: 168
32 46; 33 16; 37 4; 38 11; 39 76; 
40 14; 41 80; 42 6; 43 6; 44 6; 
50 20; 51 69; 52 71; 53 28; 54 10; 
55 4; 56 2; 61 6; 62 27; 63 123; 
64 79; 65 252; 66 24; 67 3; 71 3; 
73 4; 74 7; 75 13; 76 24; 77 75; 
78 77; 79 46; 80 11; 81 2; 83 15; 
84 17; 87 3; 88 9; 89 87; 90 76; 
91 528; 92 65; 93 9; 94 2; 95 3; 
96 9; 97 14; 98 26; 101 5; 102 13; 
103 27; 104 43; 105 192; 106 29; 107 19; 
108 2; 109 9; 111 25; 114 5; 115 14; 
116 33; 117 80; 118 34; 119 7; 120 14; 
121 3; 122 7; 123 10; 125 17; 126 6; 
127 7; 128 7; 129 7; 130 45; 132 244; 
133 30; 134 18; 135 3; 136 5; 138 3; 
139 4; 140 10; 141 6; 142 7; 143 21; 
144 11; 145 4; 146 9; 147 4; 148 7; 
149 22; 150 40; 151 9; 152 8; 153 5; 
154 5; 155 2; 156 8; 157 6; 158 5; 
159 14; 160 2; 164 15; 165 4; 166 8; 
167 13; 168 7; 169 3; 174 3; 175 2; 
176 32; 177 12; 178 9; 179 10; 180 10; 
181 10; 182 2; 190 3; 191 4; 192 13; 
193 20; 194 11; 195 11; 196 3; 204 3; 
205 26; 206 17; 207 23; 208 11; 209 6; 
216 3; 218 8; 219 7; 220 28; 221 22; 
222 19; 223 7; 224 2; 229 2; 231 4; 
232 15; 233 16; 234 23; 235 12; 236 2; 
237 3; 238 3; 239 6; 244 2; 246 20; 
247 6; 248 37; 250 999; 251 172; 252 17; 
253 3; 254 5; 262 71; 263 14; 264 6; 
266 210; 267 52; 268 83; 269 12; 282 61; 
283 619; 284 118; 285 13; 
