Name: 3-Chloroethcathinone
Synon: 3-CEC
Synon: PAL-361
Synon: 1-(3-chlorophenyl)-2-(ethylamino)propan-1-one
InChIKey: ZMJIUWPWADQNLC-UHFFFAOYSA-N
Formula: C11H14ClNO
MW: 211
ExactMass: 211.076392
CASNO: 0
ID: 4464
Comment: ENFSI / EDND webpage, Swedish NFP; confirmed by NMR
Num Peaks: 71
30 5; 32 1; 38 2; 39 3; 40 2; 
41 7; 42 47; 43 10; 44 338; 45 11; 
49 1; 50 29; 51 17; 52 1; 53 2; 
54 2; 55 6; 56 35; 57 6; 61 2; 
62 1; 63 4; 65 1; 68 2; 69 1; 
70 29; 71 7; 72 999; 73 57; 74 17; 
75 70; 76 17; 77 15; 78 2; 84 2; 
85 8; 86 1; 87 3; 89 3; 91 1; 
101 1; 102 2; 103 6; 104 1; 105 1; 
110 2; 111 73; 112 7; 113 24; 114 2; 
115 2; 116 1; 117 1; 125 3; 127 1; 
130 1; 131 4; 132 1; 133 3; 138 1; 
139 29; 140 3; 141 9; 142 1; 161 1; 
166 1; 167 1; 168 4; 169 1; 170 1; 
196 2; 
