Name: 1-(2,5-Dimethoxybenzyl)piperazine
InChIKey: KITIJFNTLBMYQD-UHFFFAOYSA-N
Formula: C13H20N2O2
MW: 236
ExactMass: 236.152478
CASNO: 356085579
ID: 4466
Comment: ENFSI / NFL SI, EU project RESPONSE, confirmed by NMR
Num Peaks: 113
50 5; 51 21; 52 9; 53 11; 54 12; 
55 15; 56 188; 57 21; 58 35; 59 2; 
62 2; 63 10; 64 7; 65 66; 66 10; 
67 6; 68 4; 69 3; 70 8; 71 10; 
72 1; 74 1; 75 3; 76 5; 77 70; 
78 63; 79 27; 80 5; 81 4; 82 3; 
83 12; 84 7; 85 194; 86 10; 87 3; 
89 13; 90 10; 91 93; 92 16; 93 15; 
94 6; 95 3; 97 21; 99 17; 100 1; 
102 1; 103 2; 104 4; 105 12; 106 17; 
107 10; 108 39; 109 8; 117 2; 118 2; 
119 5; 121 222; 122 22; 123 29; 124 2; 
131 1; 132 2; 133 3; 134 4; 135 9; 
136 21; 137 29; 138 6; 145 1; 146 2; 
147 3; 148 37; 149 51; 151 999; 152 117; 
153 10; 160 5; 161 3; 162 11; 164 43; 
165 11; 166 16; 167 1; 174 3; 175 1; 
176 41; 177 14; 178 29; 179 23; 180 95; 
181 15; 182 1; 188 5; 189 1; 191 34; 
192 34; 194 201; 195 23; 196 2; 203 1; 
205 77; 206 21; 207 43; 208 5; 219 6; 
220 1; 221 10; 222 1; 234 1; 235 14; 
236 131; 237 19; 238 2; 
