Name: Fladrafinil (Not Certified by NIST)
InChIKey: VKGUUSVYPXTWMA-UHFFFAOYSA-N
Synon: CRL 40941
Synon: Fluorafinil
Synon: 2-[bis(4-fluorophenyl)methylsulfinyl]-N-hydroxyacetamide
Formula: C15H13F2NO3S
MW: 325
ExactMass: 325.05842
CASNO: 90212809
ID: 4468
Comment: Note: Spectrum not certified by NIST / ENFSI / NFL SI, EU project RESPONSE, confirmed by NMR
Num Peaks: 89
50 1; 51 2; 57 11; 59 1; 62 1; 
63 3; 69 1; 70 1; 73 1; 74 2; 
75 7; 81 4; 83 13; 87 1; 91 1; 
94 2; 95 2; 96 2; 99 1; 101 2; 
105 1; 106 1; 107 8; 108 1; 109 5; 
120 5; 121 1; 125 1; 127 1; 131 2; 
133 11; 134 1; 143 1; 144 4; 145 1; 
146 3; 147 1; 149 1; 150 1; 151 9; 
152 2; 155 1; 156 1; 157 9; 158 1; 
162 1; 163 6; 164 8; 165 2; 168 2; 
169 3; 170 21; 171 2; 175 5; 176 1; 
177 5; 178 1; 180 2; 181 18; 183 258; 
184 38; 185 8; 186 1; 188 22; 189 3; 
190 1; 193 2; 194 3; 195 1; 199 5; 
201 205; 202 59; 203 999; 204 146; 205 10; 
207 4; 212 2; 214 7; 215 1; 268 1; 
269 1; 275 1; 281 1; 286 1; 288 5; 
289 2; 295 1; 306 2; 307 1; 
