Name: Methamnetamine
Synon: N-methyl-1-(naphthalen-2-yl)propan-2-amine
Synon: Methylnaphetamine
Synon: N-methyl-PAL-287
Synon: MNT
Synon: MNA
InChIKey: BWWWOLYZMKACSB-UHFFFAOYSA-N
Formula: C14H17N
MW: 199
ExactMass: 199.1361
CASNO: 0
ID: 4469
Comment: ENFSI / Univ Copenhagen
Num Peaks: 71
40 1; 41 6; 42 22; 43 10; 44 2; 
50 3; 51 6; 52 1; 54 1; 56 42; 
58 999; 59 35; 62 4; 63 13; 64 2; 
65 5; 70 3; 74 5; 75 7; 76 7; 
77 7; 78 1; 82 1; 83 1; 84 3; 
86 2; 87 5; 88 3; 89 12; 91 7; 
92 6; 98 2; 99 2; 100 1; 101 3; 
102 5; 113 6; 115 115; 116 11; 126 9; 
127 11; 128 19; 129 4; 137 1; 139 53; 
140 14; 141 120; 142 25; 143 3; 150 2; 
151 6; 152 22; 153 17; 154 7; 155 2; 
163 2; 164 3; 165 16; 166 6; 167 13; 
168 8; 169 5; 180 2; 181 1; 182 6; 
183 2; 184 6; 196 1; 197 3; 198 3; 
199 1; 
