Name: 4-Methyl-N,N-dimethylcathinone
InChIKey: FXLSIGLYVVJURY-UHFFFAOYSA-N
Synon: 4-Methyl-N,N-DMC
Synon: 2-(dimethylamino)-1-(4-methylphenyl)-1-propanone
Synon: 4-MDMC
Formula: C12H17NO
MW: 191
ExactMass: 191.131014
CASNO: 1448845144
ID: 4474
Comment: Provided by www.caymanchem.com/app/template/landing%2CForensic.vm / Item #17393 Batch #0465774
Num Peaks: 64
41 12; 42 70; 43 8; 44 38; 45 2; 
50 6; 51 11; 52 4; 53 2; 54 5; 
55 10; 56 56; 57 19; 58 2; 61 1; 
62 7; 63 26; 64 8; 65 78; 66 5; 
68 1; 70 41; 71 17; 72 999; 73 53; 
74 3; 75 3; 76 2; 77 7; 78 2; 
79 1; 86 1; 87 2; 88 1; 89 30; 
90 12; 91 99; 92 9; 93 1; 102 1; 
103 3; 104 1; 105 7; 115 5; 116 1; 
117 4; 118 1; 119 33; 120 3; 128 1; 
130 1; 131 1; 132 2; 133 3; 145 1; 
146 2; 147 1; 148 4; 160 3; 161 1; 
162 1; 174 3; 176 2; 191 1; 
