Name: .gamma.-Linolenic Acid methyl ester
Synon: gamma-Linolenic Acid methyl ester
Synon: Methyl GLA
Synon: Methyl .gamma.-Linolenate
Synon: 6Z,9Z,12Z-octadecatrienoic acid, methyl ester
InChIKey: JFRWATCOFCPIBM-JPFHKJGASA-N
Formula: C19H32O2
MW: 292
ExactMass: 292.24023
CASNO: 16326322
ID: 4477
Comment: Provided by www.caymanchem.com/app/template/landing%2CForensic.vm / Item #10006579 Batch #0464286
Num Peaks: 183
40 11; 41 461; 42 65; 43 156; 44 9; 
45 15; 50 2; 51 21; 52 17; 53 100; 
54 114; 55 344; 56 38; 57 74; 58 5; 
59 186; 60 7; 61 3; 62 1; 63 8; 
64 3; 65 118; 66 133; 67 803; 68 117; 
69 174; 70 18; 71 52; 72 5; 73 23; 
74 126; 75 9; 76 3; 77 350; 78 169; 
79 999; 80 615; 81 507; 82 105; 83 71; 
84 44; 85 74; 86 5; 87 157; 88 21; 
89 5; 90 3; 91 511; 92 121; 93 496; 
94 260; 95 321; 96 86; 97 52; 98 13; 
99 18; 100 3; 101 31; 102 7; 103 25; 
104 19; 105 189; 106 95; 107 254; 108 86; 
109 73; 110 34; 111 17; 112 2; 113 7; 
114 2; 115 33; 116 12; 117 53; 118 35; 
119 96; 120 133; 121 187; 122 51; 123 49; 
124 18; 125 5; 126 1; 127 10; 128 8; 
129 26; 130 15; 131 56; 132 12; 133 73; 
134 42; 135 94; 136 63; 137 46; 138 9; 
139 3; 140 2; 141 6; 142 2; 143 10; 
144 19; 145 22; 146 5; 147 66; 148 20; 
149 96; 150 127; 151 23; 152 4; 153 3; 
154 7; 155 4; 157 27; 158 5; 159 7; 
160 3; 161 49; 162 36; 163 85; 164 30; 
165 8; 166 2; 167 3; 168 4; 169 1; 
171 17; 172 3; 173 4; 174 2; 175 55; 
176 13; 177 37; 178 13; 179 4; 180 5; 
181 6; 182 3; 185 7; 186 1; 187 2; 
188 1; 189 17; 190 4; 191 13; 192 3; 
193 4; 194 63; 195 12; 196 2; 203 5; 
204 3; 205 3; 206 2; 207 9; 208 6; 
209 2; 210 1; 216 1; 217 2; 218 5; 
219 2; 221 11; 222 9; 223 1; 224 1; 
231 2; 232 1; 235 14; 236 3; 238 4; 
243 12; 244 2; 249 5; 250 1; 251 3; 
260 2; 261 2; 263 3; 264 1; 290 1; 
292 51; 293 11; 294 1; 
