Name: 3,4-Methylenedioxy-.alpha.-Pyrrolidinohexanophenone
InChIKey: OBLFRFGUZZRECT-UHFFFAOYSA-N
Synon: MDPHP
Synon: 3,4-MDPHP
Synon: 3,4-MD-.alpha.-PHP
Synon: 1-(1,3-benzodioxol-5-yl)-2-(1-pyrrolidinyl)-1hexanone
Formula: C17H23NO3
MW: 289
ExactMass: 289.167793
CASNO: 776994640
ID: 4478
Comment: Provided by www.caymanchem.com/app/template/landing%2CForensic.vm / Item #13631 batch #0464802
Num Peaks: 93
40 1; 41 49; 42 35; 43 13; 44 3; 
50 2; 51 5; 52 1; 53 9; 54 19; 
55 32; 56 20; 57 3; 61 1; 62 10; 
63 39; 64 6; 65 82; 66 6; 67 6; 
68 16; 69 49; 70 20; 71 1; 72 2; 
74 1; 75 1; 76 1; 77 6; 78 2; 
79 4; 80 5; 81 4; 82 7; 83 3; 
84 56; 85 3; 89 2; 90 1; 91 23; 
92 4; 93 2; 94 6; 95 3; 96 54; 
97 36; 98 21; 99 1; 103 2; 104 1; 
105 2; 106 1; 108 3; 110 27; 111 3; 
112 1; 116 1; 117 2; 118 1; 119 6; 
120 5; 121 68; 122 8; 123 1; 124 1; 
131 2; 132 1; 133 1; 135 8; 136 2; 
138 21; 139 6; 140 999; 141 138; 142 6; 
145 1; 146 2; 147 3; 148 1; 149 80; 
150 7; 160 1; 161 1; 164 4; 174 1; 
175 1; 177 2; 189 1; 204 2; 230 1; 
232 7; 233 1; 288 1; 
