Name: MMB-FUBICA
InChIKey: NYQOGZPXNJSYDW-FQEVSTJZSA-N
Synon: AMB-FUBICA
Synon: N-[[1-[(4-fluorophenyl)methyl]-1H-indol-3-yl]carbonyl]-L-valine, methyl ester
Formula: C22H23FN2O3
MW: 382
ExactMass: 382.169271
CASNO: 1971007905
ID: 4479
Comment: Provided by www.caymanchem.com/app/template/landing%2CForensic.vm / Item #20182 Batch #0488727
Num Peaks: 127
41 20; 42 3; 43 31; 44 4; 45 1; 
50 1; 51 3; 52 1; 53 1; 54 1; 
55 6; 56 3; 57 5; 59 17; 60 1; 
62 3; 63 8; 64 1; 65 1; 68 1; 
69 2; 70 3; 72 1; 73 3; 74 3; 
75 6; 76 3; 77 3; 78 1; 81 2; 
82 1; 83 67; 84 4; 85 1; 86 1; 
87 3; 88 11; 89 16; 90 3; 91 1; 
95 1; 96 1; 97 1; 98 1; 101 6; 
102 4; 103 1; 104 1; 107 11; 108 7; 
109 999; 110 75; 111 4; 114 15; 115 46; 
116 10; 117 2; 127 1; 128 6; 129 3; 
130 2; 131 1; 141 1; 142 2; 143 78; 
144 18; 145 2; 146 2; 156 1; 157 1; 
158 1; 168 1; 169 1; 170 1; 171 1; 
175 2; 176 1; 177 1; 185 1; 191 1; 
194 3; 195 2; 196 3; 197 2; 198 1; 
199 1; 201 1; 202 1; 203 1; 204 3; 
207 3; 214 6; 215 1; 220 1; 221 5; 
222 27; 223 9; 224 13; 225 9; 226 2; 
249 1; 250 11; 252 467; 253 86; 254 8; 
255 1; 268 288; 269 51; 270 4; 279 1; 
280 6; 281 3; 307 8; 308 5; 309 1; 
323 10; 324 2; 335 5; 340 6; 341 2; 
350 6; 351 4; 364 2; 365 2; 382 45; 
383 11; 384 1; 
