Name: N-Desmethylclomipramine
InChIKey: VPIXQGUBUKFLRF-UHFFFAOYSA-N
Formula: C18H21ClN2
MW: 300
ExactMass: 300.139326
CASNO: 303480
ID: 4486
Comment: Provided by www.caymanchem.com/app/template/landing%2CForensic.vm / Item #19034 Batch #0484415
Num Peaks: 232
40 10; 41 51; 42 139; 43 68; 44 999; 
45 37; 49 2; 50 18; 51 51; 52 16; 
53 7; 54 8; 55 7; 56 92; 57 65; 
58 25; 59 2; 61 2; 62 16; 63 76; 
64 22; 65 57; 66 6; 67 2; 68 17; 
69 3; 70 162; 71 647; 72 102; 73 19; 
74 16; 75 49; 76 35; 77 107; 78 36; 
79 8; 80 2; 81 3; 82 6; 83 4; 
84 20; 85 4; 86 8; 87 17; 88 20; 
89 195; 90 61; 91 131; 92 12; 93 6; 
94 1; 95 3; 96 16; 97 3; 98 4; 
99 23; 100 5; 101 34; 102 55; 103 47; 
104 27; 105 16; 106 66; 107 17; 108 4; 
109 11; 110 3; 111 14; 112 9; 113 21; 
114 25; 115 74; 116 48; 117 103; 118 63; 
119 15; 120 5; 121 1; 122 1; 123 14; 
124 9; 125 61; 126 29; 127 45; 128 54; 
129 74; 130 223; 131 32; 132 9; 133 4; 
134 2; 135 5; 136 4; 137 12; 138 18; 
139 51; 140 63; 141 27; 142 18; 143 16; 
144 16; 145 2; 146 2; 147 2; 148 1; 
149 14; 150 43; 151 81; 152 94; 153 37; 
154 31; 155 6; 156 4; 157 1; 158 3; 
159 1; 160 1; 161 5; 162 16; 163 65; 
164 172; 165 233; 166 117; 167 71; 168 14; 
169 2; 173 4; 174 9; 175 12; 176 70; 
177 77; 178 188; 179 97; 180 44; 181 10; 
182 2; 186 5; 187 4; 188 16; 189 31; 
190 128; 191 296; 192 360; 193 359; 194 126; 
195 26; 196 3; 197 1; 198 1; 199 19; 
200 14; 201 35; 202 22; 203 29; 204 182; 
205 81; 206 122; 207 86; 208 40; 209 7; 
210 2; 211 2; 212 35; 213 80; 214 97; 
215 44; 216 42; 217 54; 218 90; 219 95; 
220 69; 221 61; 222 22; 223 4; 224 3; 
225 16; 226 99; 227 551; 228 459; 229 810; 
230 244; 231 213; 232 69; 233 49; 234 30; 
235 16; 236 3; 237 1; 238 26; 239 13; 
240 135; 241 50; 242 476; 243 112; 244 149; 
245 32; 246 3; 249 1; 250 2; 251 7; 
252 26; 253 27; 254 207; 255 93; 256 141; 
257 44; 258 27; 259 4; 263 2; 264 3; 
265 4; 266 13; 268 887; 269 833; 270 426; 
271 289; 272 48; 273 4; 281 4; 282 2; 
283 1; 284 2; 285 8; 286 2; 287 2; 
297 3; 298 5; 300 209; 301 46; 302 72; 
303 14; 304 1; 
