Name: 4-Chloro-N-butylcathinone
InChIKey: FMDPVFRFGCOFKM-UHFFFAOYSA-N
Synon: para-Butyl-N-Chlorocathinone
Synon: 4-Chlorobutylcathinone
Synon: 2-(butylamino)-1-(4-chlorophenyl)-1-propanone
Formula: C13H18ClNO
MW: 239
ExactMass: 239.107692
CASNO: 1225621715
ID: 4487
Comment: Provided by www.caymanchem.com/app/template/landing%2CForensic.vm / Item #19972 Batch #0487011
Num Peaks: 85
40 4; 41 96; 42 75; 43 18; 44 371; 
45 10; 49 1; 50 29; 51 17; 52 2; 
53 6; 54 7; 55 21; 56 63; 57 92; 
58 79; 59 3; 61 2; 62 1; 63 4; 
65 1; 67 1; 68 5; 69 2; 70 15; 
71 3; 72 2; 73 4; 74 19; 75 102; 
76 26; 77 21; 78 3; 82 1; 84 16; 
85 11; 86 2; 87 4; 89 5; 90 1; 
91 2; 96 1; 98 41; 99 5; 100 999; 
101 72; 102 5; 103 15; 104 5; 105 1; 
110 3; 111 140; 112 14; 113 46; 114 5; 
115 5; 116 2; 117 1; 125 21; 126 2; 
127 6; 128 1; 130 2; 131 8; 132 2; 
133 3; 137 2; 138 1; 139 94; 140 10; 
141 31; 142 3; 147 1; 152 1; 166 2; 
167 2; 168 9; 169 1; 170 2; 178 1; 
180 1; 194 1; 196 5; 198 1; 207 1; 
