Name: .alpha.-Hydroxyalprazolam
InChIKey: ZURUZYHEEMDQBU-UHFFFAOYSA-N
Formula: C17H13ClN4O
MW: 324
ExactMass: 324.07779
CASNO: 37115438
ID: 4489
Comment: Provided by www.caymanchem.com/app/template/landing%2CForensic.vm / Item #15287 batch #0464849
Num Peaks: 253
40 6; 41 17; 42 4; 43 6; 44 14; 
45 8; 46 1; 47 3; 48 1; 49 8; 
50 101; 51 209; 52 51; 53 25; 54 4; 
55 3; 56 1; 57 1; 59 7; 60 2; 
61 29; 62 50; 63 106; 64 46; 65 42; 
66 5; 67 3; 68 3; 69 3; 70 3; 
71 2; 72 7; 73 94; 74 117; 75 266; 
76 188; 77 454; 78 51; 79 8; 80 3; 
81 15; 82 7; 83 3; 84 5; 85 18; 
86 27; 87 83; 88 111; 89 116; 90 22; 
91 35; 92 10; 93 18; 94 5; 95 4; 
97 15; 98 40; 99 62; 100 118; 101 110; 
102 237; 103 168; 104 74; 105 10; 106 8; 
107 6; 108 4; 109 8; 110 63; 111 79; 
112 36; 113 30; 114 29; 115 36; 116 37; 
117 13; 118 3; 119 26; 120 28; 121 21; 
122 5; 123 20; 124 52; 125 25; 126 54; 
127 39; 128 56; 129 78; 130 8; 131 3; 
132 3; 133 28; 134 8; 135 35; 136 112; 
137 359; 138 99; 139 78; 140 21; 141 5; 
142 4; 143 2; 144 1; 145 2; 146 2; 
147 21; 148 5; 149 28; 150 69; 151 108; 
152 34; 153 20; 154 17; 155 1; 156 31; 
157 4; 158 7; 159 1; 160 2; 161 11; 
162 26; 163 232; 164 82; 165 59; 166 18; 
167 6; 168 1; 173 5; 174 15; 175 33; 
176 153; 177 209; 178 55; 179 19; 180 5; 
181 3; 182 1; 183 1; 184 1; 185 4; 
186 5; 187 3; 188 20; 189 23; 190 107; 
191 68; 192 31; 193 15; 194 5; 195 18; 
196 4; 197 18; 198 6; 199 13; 200 11; 
201 30; 202 54; 203 219; 204 317; 205 820; 
206 122; 207 130; 208 37; 209 13; 210 13; 
211 8; 212 14; 213 13; 214 9; 215 11; 
216 11; 217 6; 218 4; 219 6; 220 3; 
221 17; 222 2; 223 6; 224 20; 225 6; 
226 12; 227 6; 228 5; 229 28; 230 39; 
231 195; 232 137; 233 7; 234 2; 235 1; 
236 2; 237 12; 238 62; 239 544; 240 133; 
241 195; 242 26; 243 3; 244 1; 245 1; 
249 22; 250 7; 251 9; 252 6; 253 82; 
254 48; 255 17; 256 4; 257 9; 258 17; 
259 999; 260 189; 261 17; 263 3; 264 4; 
265 218; 266 76; 267 81; 268 35; 269 7; 
270 5; 271 3; 273 1; 277 2; 278 2; 
279 11; 280 1; 281 34; 282 23; 284 8; 
285 3; 291 1; 292 1; 293 539; 294 589; 
295 296; 296 209; 297 38; 298 3; 301 1; 
307 1; 308 1; 309 1; 311 5; 313 4; 
314 1; 315 2; 316 2; 317 1; 323 2; 
324 2; 325 16; 326 1; 
