Name: 7-Aminoflunitrazepam
InChIKey: LTCDLGUFORGHGY-UHFFFAOYSA-N
Formula: C16H14FN3O
MW: 283
ExactMass: 283.112091
CASNO: 34084509
ID: 4491
Comment: Provided by www.caymanchem.com/app/template/landing%2CForensic.vm / Item #14258 Batch #0492813
Num Peaks: 211
40 3; 41 14; 42 23; 43 2; 50 9; 
51 21; 52 32; 53 15; 54 15; 55 3; 
56 3; 57 15; 58 1; 59 2; 61 2; 
62 11; 63 33; 64 20; 65 54; 66 33; 
67 10; 68 6; 69 8; 70 6; 72 2; 
73 3; 74 13; 75 45; 76 24; 77 40; 
78 31; 79 48; 80 14; 81 16; 82 3; 
83 30; 85 12; 86 11; 87 10; 88 9; 
89 21; 90 34; 91 41; 92 63; 93 33; 
94 21; 95 32; 96 19; 98 8; 99 26; 
100 10; 101 10; 102 24; 103 29; 104 53; 
105 39; 106 103; 107 53; 108 14; 109 52; 
110 27; 112 9; 113 46; 115 9; 116 21; 
117 51; 118 47; 119 56; 120 31; 121 19; 
122 20; 123 8; 124 3; 125 10; 126 1; 
127 20; 128 37; 129 5; 130 4; 131 45; 
132 46; 133 105; 134 37; 135 15; 136 7; 
137 3; 138 6; 139 15; 140 13; 141 8; 
142 2; 143 5; 144 41; 145 30; 146 20; 
147 14; 148 3; 149 4; 150 9; 151 17; 
152 20; 153 11; 154 4; 155 4; 156 5; 
157 30; 158 37; 159 18; 160 12; 161 10; 
162 13; 163 7; 164 16; 165 11; 166 20; 
167 9; 168 8; 169 14; 170 38; 171 18; 
172 9; 173 3; 174 2; 175 2; 176 9; 
177 10; 178 8; 179 7; 180 21; 181 14; 
182 12; 183 36; 184 32; 185 40; 186 13; 
187 3; 188 1; 189 1; 190 8; 191 13; 
192 27; 193 21; 194 11; 195 10; 196 11; 
197 8; 198 63; 199 23; 200 9; 201 2; 
202 1; 203 4; 204 2; 205 12; 206 12; 
207 18; 208 12; 209 13; 210 21; 211 36; 
212 59; 213 14; 214 5; 215 1; 216 1; 
217 4; 218 7; 219 22; 220 32; 221 16; 
222 6; 223 29; 224 10; 225 20; 226 45; 
227 52; 228 9; 232 1; 233 3; 234 19; 
235 9; 236 26; 237 26; 238 95; 239 35; 
240 133; 241 28; 242 3; 247 3; 248 6; 
249 11; 250 2; 251 1; 252 9; 254 539; 
255 646; 256 105; 257 10; 262 2; 263 17; 
264 153; 265 30; 266 7; 267 32; 268 7; 
269 1; 282 378; 283 999; 284 180; 285 18; 
286 1; 
