Name: AH 8529
Synon: 4-chloro-N-[[1-(dimethylamino)cyclohexyl]methyl]-benzamide
InChIKey: NROYLFLWMSYSMA-UHFFFAOYSA-N
Formula: C16H23ClN2O
MW: 294
ExactMass: 294.14989
CASNO: 41805009
ID: 4492
Comment: Provided by www.caymanchem.com/app/template/landing%2CForensic.vm / Item #19368 Batch #0483132
Num Peaks: 90
41 20; 42 29; 43 5; 44 27; 45 2; 
46 9; 50 10; 51 7; 52 1; 53 9; 
54 6; 55 34; 56 19; 57 2; 58 43; 
59 2; 61 1; 63 1; 65 3; 66 3; 
67 10; 68 24; 69 7; 70 27; 71 7; 
72 3; 73 2; 74 7; 75 48; 76 16; 
77 13; 78 2; 79 15; 80 4; 81 26; 
82 18; 83 7; 84 53; 85 12; 86 1; 
87 1; 91 3; 93 3; 94 6; 95 6; 
96 32; 97 10; 98 3; 99 5; 100 1; 
102 1; 103 1; 104 4; 105 2; 106 1; 
107 1; 108 3; 109 3; 110 17; 111 110; 
112 20; 113 36; 114 3; 120 1; 122 2; 
123 1; 124 18; 125 13; 126 999; 127 117; 
128 5; 137 2; 138 4; 139 115; 140 10; 
141 37; 142 3; 151 1; 153 5; 154 1; 
156 2; 158 1; 168 1; 207 1; 208 1; 
249 2; 250 1; 251 2; 253 1; 292 1; 
