Name: AH 8533
Synon: 2-chloro-N-[[1-(dimethylamino)cyclohexyl]methyl]-benzamide
InChIKey: ZEXNERUNUXHAFO-UHFFFAOYSA-N
Formula: C16H23ClN2O
MW: 294
ExactMass: 294.14989
CASNO: 759397790
ID: 4494
Comment: Provided by www.caymanchem.com/app/template/landing%2CForensic.vm / Item #19336 Batch #0483225
Num Peaks: 91
41 21; 42 29; 43 6; 44 27; 45 2; 
46 9; 50 11; 51 8; 52 2; 53 9; 
54 6; 55 34; 56 19; 57 2; 58 43; 
59 2; 61 1; 63 1; 65 4; 66 2; 
67 10; 68 25; 69 6; 70 27; 71 7; 
72 3; 73 1; 74 7; 75 47; 76 16; 
77 21; 78 3; 79 16; 80 4; 81 25; 
82 18; 83 7; 84 53; 85 12; 86 1; 
87 1; 89 1; 90 1; 91 4; 92 1; 
93 3; 94 6; 95 5; 96 32; 97 10; 
98 3; 99 4; 102 2; 103 1; 104 4; 
105 7; 106 1; 107 1; 108 3; 109 3; 
110 16; 111 93; 112 17; 113 29; 114 2; 
120 1; 122 2; 123 1; 124 18; 125 13; 
126 999; 127 118; 128 5; 137 2; 138 4; 
139 119; 140 10; 141 38; 142 3; 151 1; 
153 6; 154 1; 156 3; 158 1; 168 1; 
207 1; 249 3; 250 1; 251 2; 253 1; 
292 2; 
