Name: Cannabidivarin
Synon: CBDV
Synon: GWP42006
Synon: 2-[(1R,6R)-3-methyl-6-(1-methylethenyl)-2-cyclohexen-1-yl]-5-propyl-1,3-benzenediol
InChIKey: REOZWEGFPHTFEI-JKSUJKDBSA-N
Formula: C19H26O2
MW: 286
ExactMass: 286.19328
CASNO: 24274484
ID: 4497
Comment: Provided by www.caymanchem.com/app/template/landing%2CForensic.vm / Item #9001574 Batch #0485833
Num Peaks: 198
40 8; 41 60; 42 6; 43 34; 44 5; 
50 2; 51 10; 52 5; 53 33; 54 3; 
55 31; 56 2; 57 1; 59 1; 62 1; 
63 7; 64 3; 65 26; 66 8; 67 56; 
68 32; 69 18; 70 1; 71 1; 73 1; 
74 1; 75 2; 76 4; 77 55; 78 16; 
79 38; 80 7; 81 19; 82 4; 83 3; 
89 8; 90 3; 91 78; 92 13; 93 20; 
94 5; 95 10; 96 1; 97 1; 101 3; 
102 5; 103 15; 104 5; 105 29; 106 8; 
107 32; 108 29; 109 9; 110 1; 111 1; 
113 1; 114 1; 115 41; 116 11; 117 17; 
118 3; 119 29; 120 26; 121 58; 122 9; 
123 14; 124 9; 125 1; 126 1; 127 14; 
128 34; 129 19; 130 4; 131 21; 132 7; 
133 10; 134 15; 135 7; 136 7; 137 11; 
138 1; 139 4; 140 1; 141 18; 142 7; 
143 6; 144 9; 145 15; 146 5; 147 33; 
148 5; 149 8; 150 4; 151 3; 152 20; 
153 11; 154 6; 155 6; 156 2; 157 11; 
158 8; 159 30; 160 17; 161 20; 162 3; 
163 6; 164 2; 165 84; 166 13; 167 12; 
168 4; 169 5; 170 3; 171 8; 172 4; 
173 25; 174 104; 175 30; 176 6; 177 3; 
178 13; 179 24; 180 19; 181 9; 182 4; 
183 7; 184 3; 185 7; 186 4; 187 26; 
188 8; 189 27; 190 8; 191 7; 192 3; 
193 4; 194 2; 195 4; 196 2; 197 5; 
198 2; 199 7; 200 6; 201 57; 202 3; 
203 999; 204 141; 205 24; 206 3; 207 2; 
208 3; 209 2; 210 2; 211 4; 212 2; 
213 9; 214 5; 215 14; 216 7; 217 11; 
218 102; 219 16; 220 1; 223 1; 224 1; 
225 2; 226 1; 227 4; 228 2; 229 11; 
230 5; 231 7; 232 1; 238 2; 239 1; 
241 3; 242 5; 243 68; 244 13; 245 2; 
251 1; 253 2; 255 1; 256 1; 257 6; 
258 8; 259 1; 267 7; 268 2; 269 10; 
271 64; 272 13; 273 1; 282 1; 284 3; 
286 96; 287 19; 288 2; 
