Name: ADB-BICA
Synon: N-(1-amino-3,3-dimethyl-1-oxobutan-2-yl)-1-benzyl-1H-indole-3-carboxamide
InChIKey: OGVITAUBEIIKNT-UHFFFAOYSA-N
Formula: C22H25N3O2
MW: 363
ExactMass: 363.194677
CASNO: 0
ID: 4498
Comment: Provided by www.caymanchem.com/app/template/landing%2CForensic.vm / Item #19729 Batch #0487299
Num Peaks: 168
40 2; 41 72; 42 12; 43 10; 44 30; 
45 2; 50 6; 51 11; 52 2; 53 5; 
54 2; 55 8; 56 12; 57 67; 58 2; 
59 2; 62 6; 63 14; 64 5; 65 88; 
66 5; 67 1; 68 3; 69 5; 70 6; 
71 1; 73 8; 74 3; 75 7; 76 4; 
77 9; 78 5; 81 1; 82 2; 83 2; 
86 4; 87 5; 88 13; 89 26; 90 12; 
91 999; 92 79; 93 3; 96 3; 97 1; 
98 1; 100 1; 101 7; 102 5; 103 5; 
104 1; 105 1; 114 15; 115 45; 116 15; 
117 5; 118 1; 119 1; 126 1; 127 1; 
128 13; 129 4; 130 2; 131 1; 132 1; 
133 3; 135 5; 136 1; 141 1; 142 6; 
143 73; 144 30; 145 2; 147 4; 149 2; 
150 1; 151 4; 152 1; 153 1; 154 3; 
155 1; 156 3; 157 2; 158 1; 161 2; 
163 1; 164 1; 165 1; 167 1; 169 1; 
171 6; 172 1; 175 1; 176 8; 177 5; 
178 10; 179 5; 181 1; 190 1; 191 2; 
192 3; 193 1; 194 1; 195 1; 196 1; 
197 4; 198 1; 202 2; 203 10; 204 47; 
205 16; 206 27; 207 31; 208 8; 209 4; 
210 3; 217 1; 221 1; 228 5; 229 3; 
232 19; 233 3; 234 975; 235 179; 236 17; 
237 1; 253 10; 254 2; 255 2; 261 7; 
262 15; 263 3; 267 2; 268 1; 269 3; 
281 4; 283 2; 284 1; 287 2; 288 4; 
289 46; 290 151; 291 29; 292 2; 306 1; 
307 8; 308 1; 315 1; 319 46; 320 13; 
321 1; 325 1; 327 2; 328 1; 330 1; 
331 7; 332 2; 341 1; 342 1; 343 1; 
345 5; 346 25; 347 3; 348 1; 355 4; 
363 31; 364 6; 365 1; 
