Name: 2-Fluoro-ADB
InChIKey: WOONLIUQOOLXHP-LRHAYUFXSA-N
Synon: 2-Fluoro MDMB-PINACA
Formula: C20H28FN3O3
MW: 377
ExactMass: 377.21147
CASNO: 0
ID: 4502
Comment: Provided by www.caymanchem.com/app/template/landing%2CForensic.vm / Item #9002715 Batch #0481551 / SWGDRUG Monograph available
Num Peaks: 171
40 1; 41 82; 42 9; 43 16; 44 4; 
45 2; 46 1; 47 14; 50 2; 51 5; 
52 1; 53 6; 54 2; 55 20; 56 6; 
57 90; 58 4; 59 27; 60 2; 61 2; 
62 3; 63 4; 64 2; 65 2; 66 1; 
67 6; 68 4; 69 30; 70 11; 71 1; 
73 10; 74 2; 75 6; 76 14; 77 19; 
78 3; 82 1; 83 4; 84 5; 85 4; 
86 4; 87 3; 88 31; 89 18; 90 38; 
91 5; 92 1; 97 1; 99 1; 101 3; 
102 29; 103 108; 104 31; 105 3; 112 3; 
114 1; 115 2; 116 6; 117 25; 118 8; 
119 2; 121 1; 127 1; 128 3; 129 39; 
130 38; 131 234; 132 24; 133 4; 134 1; 
135 1; 142 2; 143 8; 144 40; 145 247; 
146 27; 147 3; 149 1; 154 2; 155 4; 
156 4; 157 8; 158 13; 159 6; 160 1; 
161 2; 162 3; 163 2; 167 1; 168 3; 
169 9; 170 2; 171 10; 172 3; 173 3; 
174 5; 175 2; 176 2; 177 1; 182 1; 
183 2; 184 1; 185 5; 186 6; 187 2; 
188 1; 189 7; 190 1; 191 1; 193 1; 
195 1; 197 1; 200 2; 201 8; 202 1; 
203 5; 204 2; 205 8; 206 18; 207 4; 
211 1; 212 1; 213 13; 214 7; 215 2; 
217 2; 226 3; 227 1; 228 1; 231 16; 
233 999; 234 161; 235 14; 236 1; 242 1; 
244 1; 246 82; 247 13; 248 2; 250 2; 
253 1; 254 1; 260 1; 261 3; 262 5; 
263 1; 265 3; 269 1; 272 1; 275 1; 
278 6; 279 1; 289 231; 290 39; 291 4; 
301 1; 302 4; 303 4; 304 1; 316 1; 
318 107; 319 22; 321 202; 322 40; 323 5; 
330 6; 331 2; 346 2; 362 4; 377 12; 
378 3; 
