Name: 4-Fluoro-AMB
Synon: 4-Fluoro-AMP
InChIKey: LALXOELXNROCJM-FQNRMIAFSA-N
Formula: C19H26FN3O3
MW: 363
ExactMass: 363.19582
CASNO: 0
ID: 4506
Comment: Provided by www.caymanchem.com/app/template/landing%2CForensic.vm / Item #9002738 Batch #0481556
Num Peaks: 166
41 80; 42 12; 43 60; 44 8; 45 3; 
46 1; 47 40; 48 1; 50 2; 51 6; 
52 3; 53 7; 54 4; 55 35; 56 12; 
57 3; 58 1; 59 44; 60 4; 61 3; 
62 5; 63 7; 64 3; 65 4; 66 1; 
67 7; 68 4; 69 59; 70 13; 71 17; 
72 8; 73 10; 74 4; 75 7; 76 16; 
77 23; 78 4; 79 1; 82 1; 83 5; 
84 1; 85 1; 86 1; 87 7; 88 38; 
89 28; 90 64; 91 9; 92 2; 96 1; 
98 11; 99 1; 101 3; 102 38; 103 109; 
104 30; 105 3; 114 3; 115 4; 116 8; 
117 35; 118 10; 119 3; 121 3; 127 2; 
128 6; 129 49; 130 67; 131 114; 132 14; 
133 2; 135 1; 142 6; 143 11; 144 19; 
145 350; 146 34; 147 3; 149 1; 154 1; 
155 3; 156 7; 157 10; 158 13; 159 5; 
160 1; 161 10; 162 2; 163 1; 165 1; 
167 1; 168 3; 169 5; 170 4; 171 32; 
172 8; 173 2; 174 45; 175 9; 176 1; 
177 42; 178 4; 183 3; 184 6; 185 47; 
186 12; 187 4; 189 3; 195 1; 198 1; 
200 3; 201 4; 202 1; 203 1; 205 1; 
210 1; 211 3; 212 2; 213 121; 214 50; 
215 11; 216 3; 217 4; 220 1; 228 6; 
229 5; 231 15; 233 999; 234 147; 235 11; 
246 3; 247 5; 249 101; 250 16; 251 1; 
253 2; 256 1; 261 7; 262 2; 269 1; 
274 1; 281 1; 284 30; 285 6; 286 2; 
288 12; 289 8; 290 1; 300 1; 302 2; 
304 334; 305 65; 306 6; 316 2; 320 7; 
321 6; 322 1; 328 1; 331 4; 332 3; 
343 6; 344 1; 348 2; 363 51; 364 11; 
365 1; 
