Name: Linolenic Acid Methyl Ester
Synon: Methyl ALA
Synon: Methyl Linolenate
Synon: Methyl .alpha.-Linolenate
Synon: 9Z,12Z,15Z-octadecatrienoic acid, methyl ester
InChIKey: DVWSXZIHSUZZKJ-YSTUJMKBSA-N
Formula: C19H32O2
MW: 292
ExactMass: 292.24023
CASNO: 301008
ID: 4509
Comment: Provided by www.caymanchem.com/app/template/landing%2CForensic.vm / Item #10022304 Batch #C300992
Num Peaks: 182
40 3; 41 378; 42 46; 43 143; 44 9; 
45 17; 50 6; 51 19; 52 14; 53 96; 
54 78; 55 371; 56 28; 57 36; 58 3; 
59 166; 60 5; 61 1; 62 1; 63 7; 
64 1; 65 92; 66 91; 67 646; 68 122; 
69 191; 70 14; 71 19; 72 2; 73 26; 
74 144; 75 9; 76 3; 77 265; 78 138; 
79 999; 80 386; 81 403; 82 100; 83 81; 
84 15; 85 27; 86 2; 87 122; 88 11; 
89 4; 90 1; 91 339; 92 68; 93 488; 
94 204; 95 538; 96 81; 97 52; 98 12; 
99 12; 100 2; 101 24; 102 3; 103 16; 
104 9; 105 112; 106 37; 107 210; 108 302; 
109 119; 110 21; 111 18; 112 2; 113 5; 
114 1; 115 29; 116 6; 117 32; 118 7; 
119 51; 120 23; 121 161; 122 90; 123 41; 
124 7; 125 8; 126 1; 127 6; 128 5; 
129 21; 130 3; 131 32; 132 6; 133 31; 
134 14; 135 120; 136 72; 137 18; 138 3; 
139 4; 140 2; 141 7; 142 1; 143 15; 
144 3; 145 13; 146 2; 147 28; 148 9; 
149 92; 150 41; 151 8; 152 1; 153 2; 
154 2; 155 1; 157 6; 158 1; 159 6; 
160 2; 161 13; 162 7; 163 31; 164 19; 
165 5; 167 2; 168 2; 171 5; 173 31; 
174 5; 175 13; 176 3; 177 10; 178 9; 
179 2; 180 1; 181 2; 182 1; 185 4; 
187 2; 188 1; 189 6; 190 1; 191 18; 
192 6; 193 2; 194 1; 195 1; 196 1; 
199 3; 201 1; 203 3; 204 2; 205 2; 
206 2; 207 2; 208 1; 209 1; 210 2; 
213 2; 217 4; 218 1; 221 1; 222 2; 
223 8; 224 5; 231 3; 232 1; 235 3; 
236 32; 237 6; 238 3; 243 2; 249 6; 
250 2; 251 1; 260 1; 261 25; 262 4; 
263 17; 264 4; 277 1; 290 1; 292 43; 
293 5; 294 1; 
