Name: Palmitoleic Acid methyl ester
Synon: 9Z-hexadecenoic acid, methyl ester
Synon: cis-9-Hexadecenoic Acid Methyl Ester
Synon: Methyl cis-9-Hexadecenoate
Synon: Methyl Palmitoleate
InChIKey: IZFGRAGOVZCUFB-HJWRWDBZSA-N
Formula: C17H32O2
MW: 268
ExactMass: 268.24023
CASNO: 1120258
ID: 4510
Comment: Provided by www.caymanchem.com/app/template/landing%2CForensic.vm / Item #10022302 Batch #C300988
Num Peaks: 174
40 18; 41 750; 42 164; 43 500; 44 23; 
45 30; 50 3; 51 13; 52 10; 53 117; 
54 243; 55 999; 56 214; 57 161; 58 10; 
59 345; 60 11; 61 4; 62 1; 63 3; 
64 1; 65 50; 66 32; 67 495; 68 254; 
69 834; 70 187; 71 96; 72 15; 73 75; 
74 782; 75 90; 76 7; 77 52; 78 17; 
79 156; 80 64; 81 425; 82 251; 83 573; 
84 456; 85 98; 86 8; 87 529; 88 49; 
89 4; 91 47; 92 11; 93 69; 94 58; 
95 288; 96 493; 97 468; 98 394; 99 55; 
100 15; 101 94; 102 10; 103 2; 104 1; 
105 23; 106 9; 107 48; 108 39; 109 164; 
110 258; 111 214; 112 84; 113 49; 114 55; 
115 88; 116 13; 117 3; 118 3; 119 44; 
120 15; 121 53; 122 26; 123 195; 124 123; 
125 103; 126 21; 127 48; 128 52; 129 47; 
130 10; 131 3; 132 2; 133 38; 134 32; 
135 50; 136 20; 137 115; 138 111; 139 60; 
140 10; 141 98; 142 16; 143 39; 144 6; 
145 1; 147 30; 148 24; 149 26; 150 11; 
151 66; 152 177; 153 48; 154 7; 155 25; 
156 3; 157 9; 158 3; 159 1; 161 18; 
162 6; 163 9; 164 4; 165 41; 166 33; 
167 12; 168 2; 169 8; 170 1; 171 11; 
172 6; 173 1; 175 13; 176 3; 177 4; 
178 3; 179 27; 180 12; 181 5; 182 3; 
183 4; 185 13; 186 7; 187 1; 189 7; 
190 2; 191 1; 192 58; 193 48; 194 193; 
195 38; 196 2; 197 2; 199 4; 200 3; 
205 1; 207 28; 208 17; 209 3; 211 2; 
213 2; 217 1; 218 17; 219 11; 220 1; 
221 6; 222 1; 225 13; 227 1; 235 2; 
236 222; 237 177; 238 27; 239 5; 250 4; 
266 1; 268 52; 269 10; 270 1; 
