Name: Myristic Acid Methyl Ester
Synon: Methyl Myristate
Synon: Methyl Tetradecanoate
Synon: NSC 5029
Synon: Tetradecanoic Acid methyl ester
InChIKey: ZAZKJZBWRNNLDS-UHFFFAOYSA-N
Formula: C15H30O2
MW: 242
ExactMass: 242.22458
CASNO: 124107
ID: 4511
Comment: Provided by www.caymanchem.com/app/template/landing%2CForensic.vm / Item #10022301 Batch #C300987
Num Peaks: 105
40 4; 41 239; 42 54; 43 248; 44 10; 
45 10; 51 2; 52 1; 53 18; 54 17; 
55 214; 56 41; 57 105; 58 7; 59 110; 
60 3; 61 2; 65 4; 66 2; 67 32; 
68 14; 69 139; 70 27; 71 41; 72 3; 
73 27; 74 999; 75 149; 76 8; 77 4; 
78 1; 79 11; 80 3; 81 22; 82 9; 
83 78; 84 35; 85 22; 86 2; 87 667; 
88 60; 89 5; 91 2; 93 7; 94 2; 
95 17; 96 7; 97 58; 98 29; 99 5; 
100 3; 101 60; 102 5; 107 4; 108 1; 
109 8; 110 3; 111 21; 112 6; 113 3; 
114 1; 115 20; 116 7; 121 5; 123 3; 
124 2; 125 9; 126 2; 127 1; 129 61; 
130 11; 131 1; 135 3; 137 1; 138 1; 
139 4; 140 1; 143 184; 144 18; 145 1; 
149 2; 153 1; 157 37; 158 4; 163 1; 
166 2; 167 1; 168 3; 171 14; 172 2; 
181 1; 185 41; 186 6; 191 1; 199 148; 
200 19; 201 2; 209 1; 211 69; 212 10; 
213 29; 214 4; 242 73; 243 13; 244 1; 
