Name: Docosapentaenoic Acid methyl ester
Synon: all-cis-7,10,13,16,19-DPA methyl ester
Synon: all-Z-7,10,13,16,19-DPA methyl ester
Synon: DPA methyl ester
Synon: (7Z,10Z,13Z,16Z,19Z)-7,10,13,16,19-docosapentaenoic acid, methyl ester
InChIKey: PTFHIRHGARALFY-JEBPEJKESA-N
Formula: C23H36O2
MW: 344
ExactMass: 344.27153
CASNO: 108698028
ID: 4517
Comment: Provided by www.caymanchem.com/app/template/landing%2CForensic.vm / Item #9001870 Batch #0467349
Num Peaks: 215
40 4; 41 328; 42 28; 43 69; 44 5; 
45 13; 50 6; 51 19; 52 15; 53 91; 
54 50; 55 301; 56 19; 57 19; 58 2; 
59 116; 60 4; 61 3; 63 6; 64 3; 
65 112; 66 118; 67 612; 68 67; 69 142; 
70 19; 71 22; 72 2; 73 36; 74 80; 
75 7; 76 2; 77 354; 78 180; 79 999; 
80 373; 81 285; 82 53; 83 53; 84 14; 
85 34; 86 2; 87 100; 88 9; 89 6; 
90 3; 91 704; 92 172; 93 467; 94 193; 
95 236; 96 32; 97 30; 98 11; 99 11; 
100 1; 101 16; 102 5; 103 38; 104 44; 
105 334; 106 115; 107 176; 108 205; 109 70; 
110 10; 111 11; 112 2; 113 5; 114 2; 
115 51; 116 20; 117 163; 118 46; 119 282; 
120 84; 121 105; 122 58; 123 23; 124 2; 
125 4; 126 1; 127 10; 128 19; 129 38; 
130 16; 131 123; 132 34; 133 145; 134 70; 
135 74; 136 25; 137 11; 138 3; 139 2; 
140 3; 141 10; 142 3; 143 20; 144 7; 
145 79; 146 22; 147 75; 148 53; 149 28; 
150 9; 151 3; 152 2; 153 3; 154 2; 
155 4; 156 1; 157 14; 158 6; 159 49; 
160 14; 161 50; 162 30; 163 18; 164 3; 
165 3; 166 1; 167 1; 168 2; 169 5; 
170 1; 171 12; 172 4; 173 27; 174 13; 
175 50; 176 19; 177 6; 178 1; 179 2; 
180 1; 181 2; 183 6; 184 1; 185 13; 
186 3; 187 20; 188 10; 189 11; 190 3; 
191 2; 193 1; 194 1; 195 1; 197 3; 
198 1; 199 5; 200 1; 201 29; 202 7; 
203 6; 204 1; 205 1; 207 3; 208 35; 
209 7; 210 1; 211 2; 213 2; 215 18; 
216 4; 217 1; 219 1; 220 1; 221 3; 
222 7; 223 2; 225 3; 227 2; 229 6; 
230 2; 231 1; 233 2; 234 2; 235 7; 
236 5; 237 1; 241 2; 243 4; 247 4; 
248 11; 249 4; 250 1; 251 1; 253 1; 
261 4; 262 7; 263 1; 264 3; 265 1; 
269 1; 273 2; 274 1; 275 17; 276 7; 
277 1; 281 1; 283 2; 284 1; 287 2; 
288 2; 289 2; 290 4; 301 4; 302 1; 
303 1; 313 2; 315 6; 316 1; 344 3; 
