Name: Arachidonic Acid methyl ester
Synon: Methyl Arachidonate
Synon: 5Z,8Z,11Z,14Z-eicosatetraenoic acid, methyl ester
InChIKey: OFIDNKMQBYGNIW-ZKWNWVNESA-N
Formula: C21H34O2
MW: 318
ExactMass: 318.25588
CASNO: 2566894
ID: 4518
Comment: Provided by www.caymanchem.com/app/template/landing%2CForensic.vm / Item #90014 Batch #0489594
Num Peaks: 206
40 10; 41 408; 42 48; 43 165; 44 9; 
45 12; 50 7; 51 22; 52 16; 53 90; 
54 75; 55 297; 56 28; 57 57; 58 4; 
59 111; 60 5; 61 3; 62 2; 63 9; 
64 3; 65 128; 66 133; 67 663; 68 80; 
69 142; 70 17; 71 39; 72 4; 73 16; 
74 190; 75 12; 76 4; 77 398; 78 224; 
79 999; 80 560; 81 350; 82 61; 83 47; 
84 18; 85 57; 86 3; 87 61; 88 23; 
89 7; 90 4; 91 782; 92 207; 93 526; 
94 169; 95 176; 96 59; 97 38; 98 9; 
99 18; 100 2; 101 12; 102 8; 103 40; 
104 66; 105 360; 106 296; 107 191; 108 41; 
109 61; 110 19; 111 5; 112 2; 113 4; 
114 2; 115 49; 116 21; 117 137; 118 41; 
119 225; 120 123; 121 123; 122 29; 123 27; 
124 11; 125 6; 126 2; 127 11; 128 18; 
129 40; 130 30; 131 102; 132 34; 133 169; 
134 49; 135 88; 136 28; 137 16; 138 3; 
139 2; 140 4; 141 18; 142 4; 143 14; 
144 12; 145 41; 146 28; 147 96; 148 33; 
149 40; 150 136; 151 22; 152 5; 153 2; 
154 6; 155 6; 156 1; 157 23; 158 4; 
159 25; 160 17; 161 51; 162 22; 163 19; 
164 45; 165 10; 166 5; 167 5; 168 2; 
169 8; 170 3; 171 9; 172 2; 173 22; 
174 9; 175 71; 176 22; 177 47; 178 10; 
179 4; 180 52; 181 11; 182 1; 183 19; 
184 3; 185 4; 186 1; 187 23; 188 7; 
189 21; 190 14; 191 9; 192 2; 193 6; 
194 12; 195 3; 197 6; 198 1; 199 1; 
201 17; 202 4; 203 55; 204 11; 205 5; 
206 5; 207 23; 208 7; 211 1; 213 1; 
215 8; 216 2; 217 22; 218 5; 219 7; 
220 21; 221 7; 222 1; 229 2; 230 1; 
231 6; 232 2; 233 9; 234 4; 235 1; 
236 1; 238 3; 239 1; 243 1; 244 3; 
245 3; 247 13; 248 4; 249 1; 250 7; 
251 1; 257 1; 258 1; 261 6; 262 2; 
264 6; 265 1; 269 3; 275 3; 277 1; 
286 1; 287 1; 289 1; 290 1; 318 9; 
319 1; 
