Name: omega-3 Arachidonic Acid methyl ester
Synon: .omega.-3 Arachidonic Acid methyl ester
Synon: 8Z,11Z,14Z,17Z-eicosatetraenoic acid, methyl ester
InChIKey: OHQGIWOBGITZPC-GJDCDIHCSA-N
Formula: C21H34O2
MW: 318
ExactMass: 318.25588
CASNO: 132712700
ID: 4521
Comment: Provided by www.caymanchem.com/app/template/landing%2CForensic.vm / Item #10006454 Batch #0487790
Num Peaks: 211
40 15; 41 363; 42 40; 43 93; 44 11; 
45 18; 50 6; 51 21; 52 15; 53 98; 
54 58; 55 345; 56 22; 57 31; 58 3; 
59 140; 60 4; 61 2; 62 1; 63 8; 
64 3; 65 110; 66 107; 67 583; 68 81; 
69 184; 70 22; 71 17; 72 2; 73 23; 
74 92; 75 8; 76 3; 77 315; 78 160; 
79 999; 80 381; 81 303; 82 61; 83 56; 
84 12; 85 32; 86 2; 87 113; 88 10; 
89 6; 90 2; 91 560; 92 133; 93 516; 
94 219; 95 253; 96 32; 97 40; 98 12; 
99 11; 100 1; 101 20; 102 5; 103 31; 
104 26; 105 276; 106 96; 107 223; 108 228; 
109 89; 110 13; 111 13; 112 2; 113 5; 
114 1; 115 42; 116 13; 117 78; 118 17; 
119 217; 120 65; 121 129; 122 119; 123 33; 
124 5; 125 7; 126 1; 127 8; 128 12; 
129 22; 130 7; 131 54; 132 12; 133 126; 
134 52; 135 146; 136 40; 137 13; 138 2; 
139 3; 140 3; 141 9; 142 2; 143 13; 
144 4; 145 26; 146 9; 147 72; 148 55; 
149 49; 150 18; 151 6; 152 2; 153 3; 
154 4; 155 3; 156 1; 157 12; 158 2; 
159 23; 160 6; 161 83; 162 26; 163 15; 
164 6; 165 4; 166 1; 167 2; 168 2; 
169 3; 171 9; 172 3; 173 15; 174 3; 
175 59; 176 18; 177 15; 178 3; 179 2; 
180 1; 181 1; 182 1; 183 5; 185 6; 
186 1; 187 6; 188 2; 189 24; 190 10; 
191 9; 192 2; 193 3; 194 1; 195 1; 
196 1; 197 4; 198 1; 199 9; 200 2; 
201 3; 202 1; 203 9; 204 3; 205 1; 
206 1; 207 7; 208 4; 209 3; 210 1; 
211 2; 215 2; 216 1; 217 7; 218 1; 
219 1; 221 2; 222 46; 223 8; 224 2; 
225 3; 229 2; 231 1; 233 1; 234 1; 
235 5; 236 10; 237 2; 238 4; 239 2; 
243 5; 244 1; 247 3; 248 2; 249 30; 
250 12; 251 2; 253 2; 257 6; 258 2; 
261 4; 262 10; 263 4; 264 6; 265 1; 
267 1; 269 1; 275 8; 276 2; 277 2; 
287 10; 288 2; 289 10; 290 3; 318 10; 
319 2; 
