Name: Despropionyl para-Fluorofentanyl
Synon: Despropionyl 4-Fluorofentanyl
Synon: Despropionyl p-Fluorofentanyl
Synon: N-(4-fluorophenyl)-1-(2-phenylethyl)-4-piperidinamine
InChIKey: WWDHLOLWLHHFBH-UHFFFAOYSA-N
Formula: C19H23FN2
MW: 298
ExactMass: 298.184526
CASNO: 122861410
ID: 4527
Comment: Provided by www.caymanchem.com/app/template/landing%2CForensic.vm / Item #20104 Batch #0487834
Num Peaks: 133
40 3; 41 54; 42 252; 43 26; 44 442; 
45 12; 49 1; 50 10; 51 26; 52 12; 
53 14; 54 21; 55 30; 56 35; 57 37; 
58 6; 59 1; 61 2; 62 6; 63 23; 
64 12; 65 87; 66 7; 67 13; 68 34; 
69 23; 70 98; 71 7; 72 3; 73 1; 
74 5; 75 34; 76 8; 77 95; 78 33; 
79 70; 80 14; 81 10; 82 28; 83 67; 
84 40; 85 4; 87 1; 88 1; 89 21; 
90 12; 91 261; 92 25; 93 3; 94 15; 
95 97; 96 200; 97 34; 98 5; 101 4; 
102 8; 103 86; 105 195; 106 17; 107 4; 
108 7; 109 80; 110 42; 111 77; 112 12; 
115 7; 116 5; 117 14; 118 5; 119 1; 
120 1; 121 5; 122 72; 123 15; 124 46; 
125 4; 127 1; 128 3; 129 3; 130 25; 
131 7; 132 11; 133 7; 134 13; 135 45; 
136 222; 137 59; 138 11; 139 1; 142 1; 
143 2; 144 10; 145 3; 146 5; 147 2; 
148 55; 149 36; 150 149; 151 18; 152 1; 
156 1; 158 2; 159 1; 160 37; 161 7; 
162 16; 163 11; 164 999; 165 114; 166 18; 
167 2; 174 1; 176 3; 177 4; 178 6; 
179 1; 184 3; 185 3; 186 5; 187 4; 
188 5; 189 1; 191 1; 205 9; 206 3; 
207 834; 208 119; 209 8; 253 1; 296 2; 
298 46; 299 10; 300 1; 
