Name: Noroxycodone
Synon: 4,5.alpha.-epoxy-14-hydroxy-3-methoxy-morphinan-6-one
InChIKey: RIKMCJUNPCRFMW-UHFFFAOYSA-N
Formula: C17H19NO4
MW: 301
ExactMass: 301.131409
CASNO: 57664967
ID: 4528
Comment: Provided by www.caymanchem.com/app/template/landing%2CForensic.vm / Item #15902 Batch #0486141
Num Peaks: 237
40 4; 41 29; 42 57; 43 60; 44 26; 
45 11; 46 1; 47 1; 50 12; 51 34; 
52 15; 53 28; 54 12; 55 88; 56 85; 
57 55; 58 12; 59 5; 60 1; 61 1; 
62 11; 63 51; 64 18; 65 47; 66 14; 
67 16; 68 22; 69 14; 70 48; 71 9; 
72 6; 73 16; 74 10; 75 26; 76 28; 
77 105; 78 44; 79 27; 80 25; 81 10; 
82 10; 83 5; 84 41; 85 12; 86 9; 
87 14; 88 10; 89 62; 90 29; 91 86; 
92 18; 93 11; 94 10; 95 8; 96 9; 
97 8; 98 41; 99 13; 101 27; 102 61; 
103 64; 104 28; 105 23; 106 15; 107 14; 
108 18; 109 1; 110 5; 111 2; 112 2; 
113 22; 114 27; 115 248; 116 74; 117 61; 
118 34; 119 8; 120 5; 121 6; 122 1; 
123 13; 124 2; 125 3; 126 188; 127 107; 
128 144; 129 69; 130 53; 131 69; 132 28; 
133 18; 134 7; 135 11; 136 10; 137 11; 
138 7; 139 30; 140 16; 141 48; 142 24; 
143 42; 144 79; 145 60; 146 39; 147 28; 
148 13; 149 7; 150 5; 151 9; 152 25; 
153 25; 154 28; 155 49; 156 50; 157 49; 
158 39; 159 58; 160 39; 161 74; 162 28; 
163 6; 164 7; 165 17; 166 11; 167 15; 
168 29; 169 33; 170 47; 171 69; 172 50; 
173 68; 174 58; 175 167; 176 65; 177 15; 
178 11; 179 2; 180 4; 181 13; 182 18; 
183 41; 184 76; 185 197; 186 81; 187 182; 
188 278; 189 106; 190 21; 191 8; 192 2; 
193 9; 194 9; 195 14; 196 21; 197 38; 
198 49; 199 81; 200 166; 201 244; 202 110; 
203 52; 204 16; 205 6; 206 1; 207 24; 
209 9; 210 10; 211 31; 212 44; 213 42; 
214 61; 215 180; 216 581; 217 155; 218 38; 
219 5; 220 2; 221 4; 222 3; 223 3; 
224 11; 225 17; 226 45; 227 41; 228 43; 
229 41; 230 70; 231 22; 232 4; 233 1; 
234 1; 236 1; 237 1; 238 5; 239 15; 
240 21; 241 13; 242 11; 243 14; 244 49; 
245 53; 246 14; 247 1; 249 4; 250 2; 
251 2; 252 1; 253 15; 254 18; 255 14; 
256 50; 257 20; 258 91; 259 21; 260 3; 
265 1; 266 1; 267 7; 268 2; 269 3; 
270 5; 271 3; 272 22; 273 24; 274 5; 
275 1; 281 3; 282 6; 283 7; 284 10; 
285 3; 286 14; 287 2; 299 8; 301 999; 
302 200; 303 29; 
