Name: 4-Fluoro NNEI
Synon: 4-Fluoro-MN-24
Synon: 1-(4-fluoropentyl)-N-(naphthalen-1-yl)-1H-indole-3-carboxamide
InChIKey: PSTMVUJRDHDKHN-UHFFFAOYSA-N
Formula: C24H23FN2O
MW: 374
ExactMass: 374.179441
CASNO: 0
ID: 4530
Comment: Provided by www.caymanchem.com/app/template/landing%2CForensic.vm / Item #9002741 Batch #0481559
Num Peaks: 169
40 1; 41 61; 42 2; 43 14; 46 1; 
47 36; 50 3; 51 7; 52 2; 53 3; 
55 2; 59 6; 61 5; 62 6; 63 12; 
64 1; 65 8; 67 3; 69 33; 70 2; 
71 1; 73 12; 74 4; 75 9; 76 8; 
77 12; 78 6; 85 1; 87 6; 88 12; 
89 45; 90 7; 91 4; 92 1; 97 1; 
101 15; 102 35; 103 10; 104 1; 105 1; 
113 7; 114 26; 115 212; 116 112; 117 14; 
118 1; 119 2; 121 1; 125 1; 126 5; 
127 13; 128 33; 129 62; 130 31; 131 2; 
133 5; 134 1; 135 7; 139 1; 140 17; 
141 12; 142 43; 143 75; 144 256; 145 26; 
146 1; 147 3; 148 2; 149 29; 152 1; 
153 2; 154 10; 155 11; 156 9; 157 12; 
158 8; 161 2; 163 4; 165 1; 166 1; 
167 3; 168 6; 169 13; 170 17; 171 2; 
176 4; 177 3; 178 1; 179 2; 180 1; 
181 1; 182 1; 183 2; 184 9; 185 4; 
186 1; 187 1; 188 1; 189 1; 190 2; 
191 5; 192 3; 193 4; 194 1; 195 1; 
196 2; 197 2; 198 1; 202 1; 204 2; 
205 2; 207 3; 208 7; 209 6; 210 6; 
211 2; 212 167; 213 27; 214 3; 216 1; 
221 1; 223 1; 227 1; 228 1; 229 1; 
230 6; 231 1; 232 999; 233 157; 234 7; 
235 1; 239 1; 240 1; 241 2; 242 1; 
253 10; 254 3; 255 3; 256 2; 257 2; 
265 1; 266 1; 267 5; 268 3; 269 4; 
270 1; 281 1; 282 3; 283 3; 284 1; 
285 4; 297 1; 299 1; 325 2; 327 2; 
328 1; 329 1; 331 4; 332 2; 342 1; 
343 1; 354 12; 355 5; 356 1; 357 1; 
358 1; 374 65; 375 18; 376 2; 
