Name: para-Methoxyfentanyl
InChIKey: QKQAUPIOVFHVJI-UHFFFAOYSA-N
Synon: 4-Methoxyfentanyl
Synon: NIH 10490
Synon: N-(4-methoxyphenyl)-N-[1-(2-phenylethyl)-4-piperidinyl]-propanamide
Formula: C23H30N2O2
MW: 366
ExactMass: 366.230728
CASNO: 1688411
ID: 4533
Comment: Provided by www.caymanchem.com/app/template/landing%2CForensic.vm / Item #20035 Batch #0488249
Num Peaks: 206
40 1; 41 60; 42 203; 43 24; 44 99; 
45 7; 49 1; 50 12; 51 30; 52 17; 
53 22; 54 22; 55 48; 56 33; 57 241; 
58 9; 59 3; 61 2; 62 5; 63 21; 
64 18; 65 57; 66 10; 67 35; 68 43; 
69 43; 70 112; 71 8; 72 3; 73 27; 
74 4; 75 15; 76 11; 77 123; 78 57; 
79 90; 80 39; 81 16; 82 39; 83 11; 
84 10; 85 2; 86 2; 87 4; 88 1; 
89 15; 90 17; 91 235; 92 56; 93 12; 
94 33; 95 31; 96 280; 97 38; 98 26; 
99 1; 101 1; 102 14; 103 70; 104 78; 
105 288; 106 39; 107 32; 108 94; 109 13; 
110 1; 111 1; 112 1; 113 1; 115 6; 
116 5; 117 31; 118 17; 119 9; 120 17; 
121 39; 122 30; 123 84; 124 19; 125 2; 
126 1; 128 4; 129 3; 130 33; 131 13; 
132 37; 133 18; 134 93; 135 31; 136 28; 
137 3; 138 2; 139 9; 140 1; 141 1; 
142 2; 143 2; 144 10; 145 26; 146 40; 
147 18; 148 54; 149 33; 150 11; 151 2; 
153 2; 154 4; 155 1; 156 4; 157 1; 
158 8; 159 4; 160 59; 161 36; 162 88; 
163 18; 165 3; 167 1; 173 1; 174 6; 
175 12; 176 741; 177 112; 178 6; 179 31; 
180 10; 181 2; 182 2; 183 1; 184 19; 
185 15; 186 31; 187 16; 188 113; 189 22; 
190 6; 191 4; 192 10; 194 1; 195 1; 
196 1; 197 8; 198 1; 200 1; 202 4; 
203 4; 204 3; 205 1; 207 34; 208 18; 
209 10; 210 2; 211 2; 215 1; 217 12; 
218 21; 219 299; 220 45; 221 2; 223 2; 
230 1; 232 177; 233 27; 234 3; 239 1; 
244 1; 245 1; 246 5; 249 3; 251 5; 
252 1; 253 18; 254 8; 255 2; 256 1; 
257 1; 266 1; 267 10; 269 2; 270 1; 
271 1; 273 2; 274 1; 275 999; 276 180; 
277 21; 281 9; 282 5; 295 1; 309 1; 
315 2; 325 2; 326 1; 327 3; 328 1; 
329 1; 331 6; 341 12; 343 6; 346 3; 
347 1; 356 2; 357 1; 358 1; 364 2; 
365 1; 
