Name: para-Chlorofentanyl
Synon: 4-Chlorofentanyl
Synon: N-(4-chlorophenyl)-N-[1-(2-phenylethyl)-4-piperidinyl]-propanamide
InChIKey: CUGMWAHBYRKBKL-UHFFFAOYSA-N
Formula: C22H27ClN2O
MW: 370
ExactMass: 370.18119
CASNO: 117994271
ID: 4534
Comment: Provided by www.caymanchem.com/app/template/landing%2CForensic.vm / Item #20034 Batch #0489672
Num Peaks: 191
40 3; 41 65; 42 274; 43 46; 44 230; 
45 6; 49 1; 50 11; 51 22; 52 9; 
53 14; 54 22; 55 55; 56 44; 57 363; 
58 15; 59 1; 61 2; 62 6; 63 23; 
64 9; 65 72; 66 7; 67 39; 68 53; 
69 52; 70 94; 71 9; 72 1; 73 8; 
74 6; 75 38; 76 15; 77 99; 78 35; 
79 88; 80 19; 81 7; 82 40; 83 9; 
84 13; 85 5; 86 3; 87 2; 88 2; 
89 21; 90 21; 91 270; 92 31; 93 10; 
94 23; 95 25; 96 198; 97 30; 98 10; 
99 13; 100 5; 101 7; 102 13; 103 80; 
104 51; 105 293; 106 28; 107 2; 108 2; 
109 1; 110 2; 111 88; 112 10; 113 29; 
114 3; 115 10; 116 8; 117 39; 118 14; 
119 5; 120 2; 123 1; 124 1; 125 22; 
126 10; 127 83; 128 19; 129 30; 130 111; 
131 34; 132 33; 133 4; 134 11; 135 4; 
137 6; 138 58; 139 37; 140 39; 141 10; 
142 7; 143 7; 144 38; 145 32; 146 10; 
147 2; 148 2; 149 2; 150 1; 151 9; 
152 49; 153 27; 154 24; 155 9; 156 6; 
157 3; 158 9; 159 3; 160 22; 161 4; 
162 1; 163 1; 164 28; 165 34; 166 90; 
167 23; 168 29; 169 5; 170 2; 172 1; 
176 1; 177 1; 178 7; 179 9; 180 462; 
181 55; 182 155; 183 27; 184 16; 185 12; 
186 33; 187 9; 188 28; 189 3; 190 1; 
192 32; 193 11; 194 16; 195 5; 196 2; 
197 2; 201 3; 206 3; 208 2; 209 1; 
219 1; 220 1; 221 13; 222 18; 223 347; 
224 53; 225 111; 226 15; 227 1; 231 1; 
236 95; 237 13; 238 30; 239 4; 240 1; 
243 1; 244 8; 245 3; 250 5; 251 1; 
252 2; 253 3; 255 1; 261 1; 263 1; 
265 1; 277 3; 279 999; 280 175; 281 344; 
282 59; 283 4; 313 2; 315 1; 327 1; 
328 1; 331 1; 341 1; 368 3; 369 1; 
370 1; 
