Name: Oleic Acid methyl ester
Synon: Methyl cis-9-octadecenoate
Synon: Methyl Oleate
Synon: 9Z-octadecenoic acid, methyl ester
InChIKey: QYDYPVFESGNLHU-KHPPLWFESA-N
Formula: C19H36O2
MW: 296
ExactMass: 296.27153
CASNO: 112629
ID: 4536
Comment: Provided by www.caymanchem.com/app/template/landing%2CForensic.vm / Item #10016330 Batch #C300990
Num Peaks: 199
40 14; 41 763; 42 143; 43 563; 44 25; 
45 29; 49 1; 50 3; 51 10; 52 9; 
53 106; 54 245; 55 999; 56 221; 57 313; 
58 18; 59 312; 60 10; 61 3; 62 1; 
63 2; 64 1; 65 47; 66 32; 67 536; 
68 270; 69 856; 70 226; 71 133; 72 16; 
73 78; 74 785; 75 99; 76 7; 77 49; 
78 18; 79 166; 80 74; 81 474; 82 278; 
83 662; 84 503; 85 122; 86 8; 87 543; 
88 50; 89 5; 91 49; 92 12; 93 76; 
94 64; 95 323; 96 522; 97 557; 98 431; 
99 61; 100 14; 101 94; 102 10; 103 2; 
104 1; 105 24; 106 9; 107 52; 108 44; 
109 182; 110 269; 111 257; 112 96; 113 47; 
114 55; 115 89; 116 13; 117 4; 118 3; 
119 47; 120 17; 121 59; 122 26; 123 196; 
124 130; 125 125; 126 27; 127 44; 128 58; 
129 54; 130 15; 131 3; 132 1; 133 40; 
134 36; 135 56; 136 18; 137 117; 138 96; 
139 70; 140 13; 141 88; 142 17; 143 46; 
144 6; 145 2; 147 31; 148 28; 149 33; 
150 14; 151 72; 152 81; 153 40; 154 7; 
155 19; 156 4; 157 15; 158 3; 159 1; 
161 19; 162 8; 163 16; 164 12; 165 42; 
166 61; 167 24; 168 5; 169 29; 170 4; 
171 10; 172 2; 173 1; 175 14; 176 5; 
177 3; 178 5; 179 27; 180 136; 181 30; 
182 3; 183 21; 184 3; 185 8; 186 3; 
187 1; 189 8; 190 2; 191 3; 192 2; 
193 16; 194 21; 195 4; 196 2; 197 5; 
198 1; 199 13; 200 5; 201 1; 203 3; 
204 1; 205 1; 206 1; 207 23; 208 15; 
209 8; 210 2; 211 1; 213 13; 214 7; 
215 1; 217 2; 218 1; 220 54; 221 53; 
222 171; 223 38; 224 4; 225 1; 227 2; 
228 3; 235 34; 236 19; 237 3; 239 1; 
241 2; 245 2; 246 19; 247 10; 248 2; 
249 6; 250 1; 253 14; 254 2; 255 1; 
264 308; 265 212; 266 35; 267 6; 278 3; 
294 1; 296 53; 297 11; 298 1; 
