Name: 7-Aminoflunitrazepam-d7
InChIKey: LTCDLGUFORGHGY-AAYPNNLASA-N
Formula: C16H7D7FN3O
MW: 290
ExactMass: 290.156027
CASNO: 879894276
ID: 4539
Comment: Provided by www.caymanchem.com/app/template/landing%2CForensic.vm / Item #19054 Batch #0487466
Num Peaks: 240
40 6; 41 23; 42 22; 43 5; 44 6; 
45 19; 46 3; 47 1; 50 4; 51 16; 
52 46; 53 22; 54 22; 55 6; 56 4; 
57 1; 58 6; 59 13; 60 3; 61 4; 
62 9; 63 24; 64 29; 65 45; 66 39; 
67 16; 68 10; 69 29; 70 10; 71 14; 
72 5; 73 9; 74 4; 75 11; 76 21; 
77 32; 78 75; 79 58; 80 24; 81 17; 
82 13; 83 14; 84 9; 85 17; 86 20; 
87 20; 88 12; 89 11; 90 25; 91 43; 
92 49; 93 46; 94 30; 95 5; 96 13; 
97 22; 98 14; 99 42; 100 17; 101 18; 
102 14; 103 11; 104 25; 105 45; 106 42; 
107 44; 108 69; 109 37; 110 26; 111 36; 
112 29; 113 46; 114 12; 115 14; 116 14; 
117 70; 118 42; 119 39; 120 31; 121 58; 
122 7; 123 10; 124 14; 125 31; 126 15; 
127 10; 128 7; 129 14; 130 19; 131 58; 
132 7; 133 21; 134 33; 135 60; 136 76; 
137 61; 138 26; 139 14; 140 7; 141 9; 
142 14; 143 24; 144 33; 145 27; 146 8; 
147 19; 148 19; 149 20; 150 10; 151 6; 
152 5; 153 8; 154 11; 155 12; 156 12; 
157 11; 158 10; 159 15; 160 27; 161 36; 
162 19; 163 20; 164 8; 165 18; 166 10; 
167 13; 168 7; 169 14; 170 20; 171 16; 
172 15; 173 19; 174 22; 175 14; 176 8; 
177 5; 178 5; 179 8; 180 7; 181 7; 
182 6; 183 6; 184 10; 185 18; 186 21; 
187 28; 188 49; 189 39; 190 15; 191 6; 
192 3; 193 3; 194 10; 195 17; 196 24; 
197 24; 198 17; 199 11; 200 9; 201 12; 
202 26; 203 22; 204 17; 205 10; 206 8; 
207 12; 208 3; 209 5; 210 7; 211 8; 
212 9; 213 16; 214 25; 215 29; 216 60; 
217 21; 218 13; 219 3; 220 2; 221 4; 
222 9; 223 20; 224 29; 225 18; 226 11; 
227 24; 228 11; 229 8; 230 17; 231 11; 
232 16; 233 23; 234 39; 235 6; 237 1; 
238 2; 239 5; 240 12; 241 50; 242 80; 
243 57; 244 125; 245 28; 246 14; 247 4; 
248 7; 249 2; 251 2; 252 6; 253 17; 
254 6; 255 2; 256 2; 257 2; 258 3; 
259 4; 260 50; 261 611; 262 747; 263 121; 
264 12; 265 1; 267 1; 268 2; 269 12; 
270 48; 271 228; 272 48; 273 6; 274 5; 
275 1; 282 1; 286 2; 287 5; 288 358; 
289 150; 290 999; 291 211; 292 22; 293 1; 
