Name: Methylone-d3
InChIKey: VKEQBMCRQDSRET-BMSJAHLVSA-N
Formula: C11H10D3NO3
MW: 210
ExactMass: 210.108374
CASNO: 1246820212
ID: 4540
Comment: Provided by www.caymanchem.com/app/template/landing%2CForensic.vm / Item 15826
Num Peaks: 72
41 9; 42 25; 43 23; 44 3; 45 21; 
46 2; 50 7; 51 9; 52 2; 53 12; 
54 1; 55 3; 56 2; 57 2; 58 26; 
59 55; 60 19; 61 999; 62 70; 63 82; 
64 12; 65 87; 66 7; 67 1; 73 1; 
74 7; 75 3; 76 2; 77 4; 78 2; 
79 5; 80 1; 89 2; 90 2; 91 32; 
92 7; 93 2; 97 1; 103 1; 104 1; 
118 1; 119 7; 120 8; 121 68; 122 10; 
123 1; 133 1; 134 2; 135 3; 136 1; 
137 3; 146 1; 147 1; 148 1; 149 66; 
150 8; 151 1; 162 1; 163 1; 165 3; 
167 1; 176 2; 177 1; 178 2; 179 1; 
191 4; 192 6; 193 1; 194 1; 195 1; 
208 1; 210 1; 
