Name: O-Desmethyl-cis-tramadol-d6
InChIKey: UWJUQVWARXYRCG-BMJHUOGNSA-N
Formula: C15H17D6NO2
MW: 255
ExactMass: 255.21054
CASNO: 1261393876
ID: 4544
Comment: Provided by www.caymanchem.com/app/template/landing%2CForensic.vm / Item# 18349 Batch# 0491372
Num Peaks: 111
40 2; 41 15; 42 3; 43 5; 44 9; 
45 17; 46 13; 47 6; 48 5; 49 28; 
50 4; 51 38; 52 22; 53 7; 54 1; 
55 29; 56 2; 57 1; 58 1; 59 3; 
60 3; 61 3; 62 6; 63 24; 64 999; 
65 61; 66 8; 67 7; 68 2; 69 5; 
70 3; 71 2; 72 1; 73 5; 74 2; 
75 4; 76 3; 77 28; 78 9; 79 16; 
80 6; 81 3; 82 1; 83 1; 85 1; 
86 1; 87 3; 88 1; 89 5; 90 14; 
91 14; 92 5; 93 23; 94 15; 95 8; 
96 1; 97 1; 98 1; 99 1; 101 1; 
102 2; 103 7; 104 5; 105 4; 106 1; 
107 18; 108 4; 115 12; 116 6; 117 5; 
118 2; 119 2; 120 8; 121 35; 122 4; 
123 1; 127 5; 128 5; 129 4; 130 1; 
131 12; 132 3; 133 5; 134 3; 135 1; 
136 2; 141 2; 143 1; 144 3; 145 17; 
146 9; 147 3; 148 1; 149 3; 152 1; 
153 1; 157 2; 158 2; 159 7; 160 2; 
161 2; 162 1; 173 1; 174 15; 175 2; 
204 1; 207 2; 208 1; 254 5; 255 43; 
256 7; 
