Name: 3,4-MDMA-d5
InChIKey: SHXWCVYOXRDMCX-RMOCDOLISA-N
Formula: C11H10D5NO2
MW: 198
ExactMass: 198.141663
CASNO: 136765430
ID: 4545
Comment: Provided by www.caymanchem.com/app/template/landing%2CForensic.vm / Item #18573 Batch #0475119
Num Peaks: 77
40 6; 41 4; 42 7; 43 7; 44 15; 
45 5; 46 17; 47 2; 48 1; 50 8; 
51 27; 52 33; 53 11; 54 3; 55 2; 
56 2; 57 1; 58 4; 59 31; 60 11; 
61 35; 62 999; 63 48; 64 7; 65 5; 
66 5; 67 3; 68 1; 69 1; 74 3; 
75 5; 76 5; 77 15; 78 69; 79 24; 
80 14; 81 5; 82 1; 90 2; 91 21; 
92 3; 93 3; 94 2; 95 1; 96 1; 
98 1; 103 1; 104 4; 105 7; 106 19; 
107 9; 108 2; 109 2; 120 1; 121 2; 
122 2; 123 1; 125 2; 132 1; 133 2; 
134 1; 135 6; 136 63; 137 31; 138 4; 
139 1; 149 2; 150 1; 153 1; 163 1; 
164 2; 165 2; 181 1; 182 1; 183 5; 
196 2; 198 2; 
