Name: Lorazepam-d4
InChIKey: DIWRORZWFLOCLC-RHQRLBAQSA-N
Formula: C15H6D4Cl2N2O2
MW: 324
ExactMass: 324.03704
CASNO: 84344150
ID: 4546
Comment: Provided by www.caymanchem.com/app/template/landing%2CForensic.vm / Item# 15819
Num Peaks: 233
40 4; 41 5; 42 18; 43 2; 45 2; 
47 2; 48 1; 49 4; 50 41; 51 25; 
52 81; 53 23; 54 55; 55 4; 56 1; 
57 1; 60 5; 61 15; 62 24; 63 38; 
64 32; 65 20; 66 22; 67 2; 68 2; 
69 2; 71 1; 72 5; 73 38; 74 91; 
75 231; 76 120; 77 83; 78 348; 79 33; 
80 41; 81 41; 82 8; 83 3; 84 20; 
85 25; 86 28; 87 78; 88 34; 89 44; 
90 32; 92 4; 93 4; 94 6; 95 15; 
96 7; 97 8; 98 16; 99 59; 100 179; 
101 64; 102 56; 103 32; 104 27; 105 27; 
106 154; 107 27; 108 19; 109 29; 110 156; 
111 38; 112 70; 113 27; 114 26; 115 282; 
116 63; 117 107; 118 25; 119 6; 120 2; 
121 2; 122 74; 123 18; 124 22; 125 25; 
126 19; 127 29; 128 19; 129 24; 130 20; 
131 5; 132 2; 133 5; 134 3; 135 11; 
136 103; 137 105; 138 47; 139 54; 140 25; 
141 61; 142 283; 143 41; 144 90; 145 9; 
146 2; 147 6; 148 8; 149 4; 150 8; 
151 20; 152 46; 153 81; 154 76; 155 47; 
156 19; 157 2; 158 1; 159 1; 160 1; 
161 3; 162 21; 163 134; 164 42; 165 60; 
166 20; 167 19; 168 5; 169 1; 171 1; 
172 1; 173 2; 174 3; 175 4; 176 11; 
177 32; 178 72; 179 130; 180 138; 181 214; 
182 36; 183 2; 184 1; 186 5; 187 8; 
188 11; 189 11; 190 17; 191 8; 192 7; 
193 4; 194 2; 195 1; 196 1; 197 1; 
198 1; 199 1; 200 3; 201 3; 202 3; 
203 6; 204 12; 205 56; 206 80; 207 105; 
208 115; 209 22; 210 1; 211 2; 212 4; 
213 14; 214 33; 215 40; 216 28; 217 18; 
218 7; 219 2; 221 1; 223 1; 224 1; 
225 1; 228 1; 236 1; 237 3; 238 2; 
239 7; 240 11; 241 26; 242 83; 243 999; 
244 193; 245 330; 246 53; 247 4; 249 1; 
250 2; 251 7; 252 17; 253 12; 254 9; 
255 3; 256 1; 257 5; 258 1; 259 1; 
265 1; 268 1; 269 1; 270 6; 271 76; 
272 17; 273 24; 274 5; 275 6; 276 71; 
277 202; 278 754; 279 236; 280 462; 281 99; 
282 76; 283 11; 291 1; 292 2; 293 1; 
294 1; 295 1; 304 9; 305 35; 306 377; 
307 86; 308 239; 309 43; 310 41; 311 5; 
312 1; 325 2; 327 2; 
