Name: Naltrexone-d4
InChIKey: DQCKKXVULJGBQN-LNLMKGTHSA-N
Formula: C20H19D4NO4
MW: 345
ExactMass: 345.187815
CASNO: 0
ID: 4547
Comment: Provided by www.caymanchem.com/app/template/landing%2CForensic.vm / Item #15829
Num Peaks: 311
40 16; 41 65; 42 116; 43 78; 44 32; 
45 12; 46 10; 47 9; 48 7; 49 7; 
50 17; 51 24; 52 11; 53 22; 54 17; 
55 114; 56 75; 57 66; 58 49; 59 827; 
60 42; 61 16; 62 5; 63 10; 64 7; 
65 14; 66 10; 67 12; 68 21; 69 26; 
70 36; 71 12; 72 19; 73 81; 74 24; 
75 82; 76 18; 77 72; 78 43; 79 20; 
80 13; 81 32; 82 29; 83 10; 84 39; 
85 57; 86 14; 87 22; 88 98; 89 31; 
90 20; 91 102; 92 26; 93 12; 94 8; 
95 13; 96 111; 97 18; 98 27; 99 23; 
100 47; 101 54; 102 146; 103 111; 104 15; 
105 33; 106 16; 107 17; 108 9; 109 8; 
110 14; 111 8; 112 17; 113 13; 114 189; 
115 199; 116 66; 117 87; 118 27; 119 61; 
120 13; 121 9; 122 7; 123 14; 124 9; 
125 11; 126 17; 127 96; 128 133; 129 59; 
130 31; 131 88; 132 28; 133 17; 134 23; 
135 98; 136 21; 137 18; 138 9; 139 17; 
140 19; 141 47; 142 38; 143 36; 144 55; 
145 69; 146 30; 147 156; 148 8; 149 18; 
150 8; 151 7; 152 19; 153 31; 154 36; 
155 39; 156 91; 157 52; 158 27; 159 26; 
160 31; 161 128; 162 52; 163 46; 164 13; 
165 16; 166 17; 167 15; 168 10; 169 34; 
170 16; 171 85; 172 45; 173 109; 174 77; 
175 57; 176 16; 177 8; 178 20; 179 32; 
180 14; 181 35; 182 14; 183 15; 184 99; 
185 58; 186 34; 187 129; 188 55; 189 43; 
190 21; 191 27; 192 27; 193 17; 194 10; 
195 55; 196 16; 197 37; 198 24; 199 44; 
200 55; 201 109; 202 119; 203 33; 204 18; 
205 9; 206 8; 207 185; 208 17; 209 42; 
210 25; 211 19; 212 19; 213 15; 214 21; 
215 33; 216 34; 217 21; 218 10; 219 12; 
220 9; 221 19; 222 23; 223 11; 224 14; 
225 10; 226 25; 227 12; 228 26; 229 21; 
230 15; 231 15; 232 9; 233 4; 234 4; 
235 10; 236 4; 237 6; 238 6; 239 17; 
240 29; 241 22; 242 27; 243 50; 244 47; 
245 45; 246 24; 247 173; 248 17; 249 21; 
250 8; 251 36; 252 6; 253 60; 254 29; 
255 13; 256 6; 257 13; 258 41; 259 35; 
260 263; 261 74; 262 15; 263 5; 264 6; 
265 36; 266 14; 267 25; 268 16; 269 24; 
270 23; 271 13; 272 10; 273 8; 274 8; 
275 6; 276 4; 277 2; 278 4; 279 2; 
280 4; 281 178; 282 14; 283 42; 284 29; 
285 8; 286 155; 287 26; 288 14; 289 30; 
290 10; 291 3; 292 4; 293 2; 294 2; 
295 4; 296 5; 297 6; 298 16; 299 4; 
300 269; 301 40; 302 12; 303 5; 304 3; 
305 2; 306 4; 307 3; 308 3; 309 3; 
310 8; 311 6; 312 7; 313 7; 314 4; 
315 8; 316 22; 317 11; 318 7; 319 2; 
320 3; 321 2; 322 2; 323 2; 324 4; 
325 13; 326 10; 327 28; 328 20; 329 10; 
330 30; 331 37; 332 9; 333 8; 334 5; 
335 7; 336 2; 337 2; 338 2; 339 5; 
340 2; 341 25; 342 9; 343 24; 344 19; 
345 999; 346 290; 347 43; 348 6; 349 3; 
350 2; 
