Name: Meprobamate-d7
InChIKey: NPPQSCRMBWNHMW-OGPQSMJYSA-N
Formula: C9H11D7N2O4
MW: 225
ExactMass: 225.170594
CASNO: 1411774827
ID: 4548
Comment: Provided by www.caymanchem.com/app/template/landing%2CForensic.vm / Item #18059
Num Peaks: 105
40 23; 41 57; 42 151; 43 341; 44 839; 
45 241; 46 200; 47 52; 48 50; 49 33; 
50 42; 51 6; 52 6; 53 18; 54 18; 
55 39; 56 54; 57 184; 58 235; 59 588; 
60 265; 61 134; 62 234; 63 126; 64 103; 
65 41; 66 6; 67 4; 68 11; 69 28; 
70 47; 71 548; 72 130; 73 198; 74 114; 
75 344; 76 81; 77 21; 78 18; 79 2; 
80 6; 81 5; 82 8; 83 17; 84 52; 
85 40; 86 52; 87 132; 88 129; 89 999; 
90 239; 91 297; 92 57; 93 27; 94 3; 
95 1; 96 2; 97 1; 98 2; 99 2; 
100 10; 101 42; 102 238; 103 83; 104 22; 
105 10; 106 47; 107 46; 108 215; 109 13; 
114 4; 115 14; 116 10; 117 1; 118 2; 
119 2; 120 39; 121 323; 122 26; 123 2; 
131 1; 132 7; 133 1; 134 1; 135 9; 
136 7; 137 1; 138 2; 145 1; 146 1; 
147 2; 149 1; 150 19; 151 357; 152 29; 
153 3; 163 1; 164 1; 165 3; 177 1; 
181 1; 191 1; 193 1; 207 3; 209 1; 
