Name: Desalkylflurazepam-d4
InChIKey: UVCOILFBWYKHHB-RHQRLBAQSA-N
Formula: C15H6D4ClFN2O
MW: 292
ExactMass: 292.071676
CASNO: 1286430010
ID: 4549
Comment: Provided by www.caymanchem.com/app/template/landing%2CForensic.vm / Item# 19508 Batch# 0491501
Num Peaks: 248
40 8; 41 11; 42 29; 43 5; 44 3; 
45 2; 47 4; 49 7; 50 26; 51 42; 
52 50; 53 8; 54 22; 55 2; 56 3; 
57 5; 58 7; 59 28; 60 4; 61 16; 
62 36; 63 73; 64 26; 65 25; 66 19; 
67 4; 68 3; 69 13; 70 5; 71 23; 
72 16; 73 58; 74 40; 75 106; 76 92; 
77 137; 78 126; 79 15; 80 15; 81 13; 
82 15; 83 30; 84 12; 85 15; 86 58; 
87 94; 88 40; 89 44; 90 58; 91 37; 
92 19; 93 20; 94 10; 95 19; 96 21; 
97 54; 98 31; 99 105; 100 96; 101 58; 
102 70; 103 4; 104 95; 105 46; 106 59; 
107 18; 108 19; 109 31; 110 60; 111 120; 
112 93; 113 100; 114 102; 115 3; 116 9; 
117 7; 118 26; 119 15; 120 19; 121 19; 
122 27; 123 27; 124 58; 125 67; 126 60; 
127 24; 128 24; 129 23; 130 17; 131 13; 
132 26; 133 15; 134 15; 135 18; 136 43; 
137 57; 138 155; 139 42; 140 45; 141 11; 
142 6; 143 6; 144 5; 145 7; 146 14; 
147 24; 148 52; 149 20; 150 20; 151 23; 
152 32; 153 43; 154 41; 155 28; 156 14; 
157 10; 158 11; 159 9; 160 18; 161 22; 
162 8; 163 77; 164 32; 165 47; 166 44; 
167 26; 168 13; 169 9; 170 17; 171 44; 
172 75; 173 82; 174 67; 175 16; 176 7; 
177 11; 178 27; 179 56; 180 79; 181 93; 
182 39; 183 30; 184 27; 185 29; 186 23; 
187 31; 188 8; 189 6; 190 6; 191 8; 
192 9; 193 12; 194 11; 195 11; 196 10; 
197 18; 198 56; 199 79; 200 81; 201 53; 
202 48; 203 9; 204 3; 205 6; 206 10; 
207 45; 208 27; 209 37; 210 9; 211 13; 
212 10; 213 6; 214 14; 215 48; 216 19; 
217 23; 218 31; 219 11; 220 14; 221 13; 
222 4; 223 4; 224 3; 225 5; 226 35; 
227 49; 228 33; 229 82; 230 13; 231 3; 
232 2; 233 4; 234 13; 235 96; 236 73; 
237 42; 238 33; 239 7; 240 2; 241 17; 
242 39; 243 27; 244 24; 245 23; 246 7; 
247 8; 248 3; 249 8; 250 23; 251 7; 
252 8; 253 12; 254 4; 255 20; 256 25; 
257 44; 258 7; 259 2; 260 8; 261 13; 
262 88; 263 999; 264 924; 265 579; 266 322; 
267 85; 268 12; 269 2; 270 1; 271 8; 
272 26; 273 256; 274 43; 275 91; 276 14; 
277 4; 278 1; 281 10; 282 2; 283 1; 
289 2; 290 522; 291 142; 292 731; 293 141; 
294 182; 295 31; 296 3; 
