Name: Zopiclone-d4
InChIKey: GBBSUAFBMRNDJC-LZMSFWOYSA-N
Formula: C17H13D4ClN6O3
MW: 392
ExactMass: 392.130173
CASNO: 1435933780
ID: 4550
Comment: Provided by www.caymanchem.com/app/template/landing%2CForensic.vm / Item #18931 Batch #0489641
Num Peaks: 218
40 5; 41 21; 42 110; 43 97; 44 148; 
45 33; 46 16; 47 5; 48 3; 49 4; 
50 18; 51 29; 52 59; 53 15; 54 5; 
55 5; 56 28; 57 65; 58 171; 59 78; 
60 142; 61 39; 62 30; 63 13; 64 33; 
65 23; 66 7; 67 1; 68 1; 69 1; 
70 6; 71 17; 72 99; 73 92; 74 31; 
75 32; 76 160; 77 50; 78 69; 79 32; 
80 2; 81 4; 82 2; 83 3; 84 7; 
85 29; 86 14; 87 24; 88 18; 89 4; 
90 2; 91 12; 92 8; 93 2; 94 1; 
95 4; 96 34; 97 6; 98 6; 99 7; 
100 33; 101 54; 102 61; 103 351; 104 106; 
105 19; 106 11; 107 2; 109 4; 110 2; 
111 3; 112 354; 113 85; 114 117; 115 27; 
116 5; 118 2; 119 2; 120 3; 121 2; 
123 1; 124 1; 125 1; 126 6; 127 7; 
128 11; 129 10; 130 6; 131 12; 132 3; 
133 10; 134 2; 135 12; 136 7; 137 2; 
138 11; 139 256; 140 23; 141 83; 142 6; 
143 6; 145 6; 146 55; 147 999; 148 156; 
149 29; 150 5; 151 1; 152 1; 153 1; 
154 20; 155 15; 156 17; 157 6; 158 2; 
159 1; 161 2; 162 2; 163 15; 164 19; 
165 11; 166 2; 167 2; 169 1; 170 2; 
176 5; 177 6; 178 2; 179 5; 180 2; 
181 21; 182 34; 183 4; 184 2; 185 1; 
187 1; 188 1; 189 3; 190 18; 191 84; 
192 20; 193 32; 194 6; 196 2; 197 2; 
198 1; 203 3; 204 5; 205 2; 207 20; 
208 10; 209 7; 210 7; 211 3; 215 1; 
216 2; 217 274; 218 43; 219 99; 220 17; 
221 5; 223 1; 230 1; 234 1; 235 1; 
236 1; 237 1; 238 1; 239 3; 245 522; 
246 154; 247 207; 248 59; 249 11; 250 4; 
253 14; 254 3; 255 1; 257 1; 260 1; 
261 9; 262 2; 263 4; 266 2; 267 1; 
268 6; 269 2; 270 3; 271 1; 276 2; 
278 1; 281 9; 282 5; 283 5; 284 2; 
285 1; 295 1; 311 1; 313 2; 316 1; 
325 3; 326 1; 327 1; 328 1; 329 1; 
331 13; 332 1; 333 1; 339 1; 342 5; 
343 2; 344 2; 345 1; 355 1; 356 1; 
357 1; 377 1; 389 1; 
