Name: Zaleplon-d4
InChIKey: HUNXMJYCHXQEGX-FMJFQTNXSA-N
Formula: C17H11D4N5O
MW: 309
ExactMass: 309.152767
CASNO: 0
ID: 4551
Comment: Provided by www.caymanchem.com/app/template/landing%2CForensic.vm / Item #18620 Batch #0487893
Num Peaks: 192
40 2; 41 7; 42 26; 43 385; 44 14; 
45 2; 50 1; 51 5; 52 16; 53 15; 
54 11; 55 2; 56 1; 59 1; 62 2; 
63 10; 64 23; 65 25; 66 19; 67 9; 
68 7; 69 3; 70 35; 71 1; 72 3; 
73 3; 74 2; 75 5; 76 12; 77 23; 
78 22; 79 15; 80 25; 81 13; 82 4; 
83 1; 85 1; 86 1; 87 2; 88 3; 
89 9; 90 11; 91 21; 92 23; 93 19; 
94 11; 95 7; 96 2; 97 1; 99 1; 
100 2; 101 4; 102 5; 103 8; 104 19; 
105 38; 106 37; 107 19; 108 8; 109 3; 
110 1; 111 1; 112 1; 113 1; 114 2; 
115 5; 116 17; 117 23; 118 24; 119 34; 
120 47; 121 13; 122 7; 123 3; 124 1; 
125 1; 126 3; 127 1; 128 4; 129 8; 
130 17; 131 26; 132 26; 133 34; 134 25; 
135 10; 136 1; 139 1; 140 5; 141 10; 
142 14; 143 21; 144 30; 145 15; 146 16; 
147 14; 148 10; 149 4; 153 1; 154 3; 
155 6; 156 10; 157 14; 158 19; 159 17; 
160 7; 161 3; 162 1; 165 1; 166 4; 
167 11; 168 23; 169 23; 170 13; 171 8; 
172 3; 173 5; 174 2; 180 1; 181 4; 
182 9; 183 14; 184 9; 185 7; 186 5; 
187 4; 192 1; 193 4; 194 6; 195 11; 
196 17; 197 27; 198 14; 199 4; 200 2; 
206 1; 207 6; 208 5; 209 6; 210 6; 
211 6; 212 4; 213 1; 219 2; 220 5; 
221 36; 222 44; 223 63; 224 43; 225 22; 
226 6; 227 1; 233 4; 234 13; 235 16; 
236 11; 237 12; 238 16; 239 18; 240 4; 
247 1; 248 10; 249 33; 250 26; 251 63; 
252 999; 253 170; 254 14; 255 1; 262 2; 
263 12; 264 8; 265 25; 266 280; 267 331; 
268 53; 269 5; 279 1; 280 13; 281 35; 
282 8; 283 1; 289 1; 290 6; 291 3; 
294 3; 305 2; 307 5; 308 1; 309 304; 
310 66; 311 7; 
