Name: Noroxycodone-d3
Synon: 4,5.alpha.-epoxy-14-hydroxy-3-(methoxy-d3)-morphinan-6-one
InChIKey: RIKMCJUNPCRFMW-FIBGUPNXSA-N
Formula: C17H16D3NO4
MW: 304
ExactMass: 304.150238
CASNO: 1007844327
ID: 4554
Comment: Provided by www.caymanchem.com/app/template/landing%2CForensic.vm / Item #15837 Batch #0486230
Num Peaks: 245
40 5; 41 30; 42 54; 43 60; 44 29; 
45 9; 46 1; 47 1; 48 1; 50 10; 
51 34; 52 16; 53 29; 54 16; 55 87; 
56 83; 57 53; 58 14; 59 1; 60 2; 
61 3; 62 12; 63 46; 64 20; 65 46; 
66 15; 67 16; 68 23; 69 15; 70 51; 
71 4; 72 9; 73 22; 74 9; 75 29; 
76 25; 77 93; 78 43; 79 27; 80 27; 
81 13; 82 11; 83 6; 84 46; 85 21; 
86 7; 87 7; 88 12; 89 55; 90 33; 
91 74; 92 24; 93 12; 94 14; 95 10; 
96 6; 97 9; 98 41; 99 10; 100 1; 
101 26; 102 56; 103 70; 104 33; 105 20; 
106 15; 107 13; 108 10; 109 12; 110 12; 
111 5; 112 2; 113 18; 114 26; 115 219; 
116 94; 117 63; 118 45; 119 20; 120 14; 
121 4; 122 11; 123 4; 124 17; 125 1; 
126 188; 127 84; 128 107; 129 105; 130 56; 
131 75; 132 36; 133 24; 134 13; 135 23; 
136 12; 137 6; 138 5; 139 26; 140 23; 
141 39; 142 30; 143 46; 144 78; 145 52; 
146 35; 147 23; 148 22; 149 8; 150 7; 
151 9; 152 25; 153 23; 154 34; 155 49; 
156 50; 157 44; 158 31; 159 36; 160 27; 
161 29; 162 34; 163 18; 164 65; 165 38; 
166 10; 167 12; 168 31; 169 29; 170 44; 
171 49; 172 41; 173 54; 174 46; 175 11; 
176 15; 177 35; 178 168; 179 67; 180 15; 
181 25; 182 19; 183 36; 184 68; 185 95; 
186 52; 187 29; 188 128; 189 33; 190 170; 
191 242; 192 106; 193 23; 194 6; 195 13; 
196 11; 197 34; 198 20; 199 24; 200 94; 
201 91; 202 94; 203 82; 204 186; 205 68; 
206 48; 207 54; 208 17; 209 7; 210 7; 
211 17; 212 22; 213 21; 214 27; 215 32; 
216 23; 217 28; 218 169; 219 556; 220 148; 
221 41; 222 8; 223 6; 224 8; 225 2; 
226 5; 227 7; 228 18; 229 44; 230 50; 
231 44; 232 35; 233 53; 234 19; 235 5; 
238 2; 239 6; 240 13; 241 10; 242 12; 
243 15; 244 8; 245 7; 246 5; 247 50; 
248 55; 249 12; 250 5; 252 1; 253 17; 
254 8; 255 1; 256 6; 257 23; 258 11; 
259 45; 260 18; 261 82; 262 17; 263 2; 
265 1; 266 1; 267 4; 268 6; 269 3; 
270 4; 271 2; 274 4; 275 20; 276 21; 
277 4; 278 1; 281 2; 284 3; 285 8; 
286 17; 287 10; 288 3; 289 4; 295 2; 
302 8; 304 999; 305 200; 306 26; 307 3; 
