Name: AH 7921-d3
Synon: 3,4-dichloro-N-[[1-(dimethylamino)cyclohexyl]methyl]-benzamide-d3
InChIKey: JMZROFPPEXCTST-OFTYRWGKSA-N
Formula: C16H19D3Cl2N2O
MW: 331
ExactMass: 331.12975
CASNO: 0
ID: 4557
Comment: Provided by www.caymanchem.com/app/template/landing%2CForensic.vm / Item #19222 Batch #0484807
Num Peaks: 92
41 15; 42 22; 43 4; 44 22; 45 2; 
46 7; 51 2; 52 3; 53 7; 54 6; 
55 27; 56 15; 57 1; 58 32; 59 1; 
65 3; 66 2; 67 8; 68 18; 69 5; 
70 20; 71 5; 72 2; 73 1; 74 1; 
75 1; 76 8; 77 8; 78 15; 79 13; 
80 3; 81 19; 82 14; 83 5; 84 39; 
85 9; 86 1; 87 3; 91 2; 93 2; 
94 4; 95 5; 96 25; 97 8; 98 2; 
99 4; 106 1; 107 1; 108 3; 109 2; 
110 13; 111 27; 112 13; 113 19; 114 4; 
115 4; 116 1; 120 1; 122 1; 123 1; 
124 16; 125 10; 126 999; 127 100; 128 4; 
138 2; 139 1; 140 1; 141 3; 142 2; 
143 1; 147 5; 148 61; 149 8; 150 39; 
151 4; 152 6; 153 5; 154 1; 174 1; 
175 6; 176 58; 177 8; 178 36; 179 3; 
180 5; 193 1; 195 1; 286 2; 288 2; 
329 1; 331 1; 
