Name: U-47700-d6
Synon: trans-3,4-dichloro-N-[2-(dimethylamino-d6)cyclohexyl]-N-methyl-benzamide
InChIKey: JGPNMZWFVRQNGU-ZLMKGCTQSA-N
Formula: C16H16D6Cl2N2O
MW: 334
ExactMass: 334.148579
CASNO: 0
ID: 4558
Comment: Provided by www.caymanchem.com/app/template/landing%2CForensic.vm / Item #19219 Batch #0483316
Num Peaks: 166
40 1; 41 20; 42 72; 43 12; 44 33; 
45 75; 46 21; 47 9; 48 13; 49 23; 
50 12; 51 13; 52 7; 53 9; 54 7; 
55 9; 56 12; 57 14; 58 16; 59 54; 
60 34; 61 10; 62 9; 63 16; 64 163; 
65 8; 66 3; 67 10; 68 18; 69 15; 
70 22; 71 21; 72 8; 73 21; 74 47; 
75 81; 76 24; 77 216; 78 20; 79 28; 
80 11; 81 19; 82 24; 83 10; 84 83; 
85 33; 86 23; 87 41; 88 16; 89 30; 
90 999; 91 66; 92 2; 93 2; 94 4; 
95 9; 96 5; 97 6; 98 10; 99 10; 
100 7; 101 12; 102 22; 103 42; 104 62; 
105 16; 106 3; 107 1; 108 5; 109 77; 
110 126; 111 55; 112 19; 113 34; 114 12; 
115 13; 116 19; 117 8; 118 33; 119 7; 
120 1; 121 1; 123 1; 124 1; 125 2; 
126 2; 127 6; 128 6; 129 12; 130 175; 
131 453; 132 63; 133 4; 135 1; 136 1; 
137 1; 138 8; 139 4; 140 6; 141 2; 
142 3; 143 1; 144 2; 145 173; 146 17; 
147 115; 148 10; 149 9; 150 1; 151 1; 
154 1; 157 3; 159 2; 160 2; 161 32; 
162 3; 171 1; 172 1; 173 99; 174 13; 
175 98; 176 8; 177 16; 178 1; 180 1; 
186 5; 188 4; 189 1; 190 1; 191 1; 
202 1; 204 2; 205 2; 207 9; 208 2; 
209 1; 210 1; 214 2; 216 4; 217 1; 
218 2; 219 1; 228 1; 230 1; 253 3; 
254 2; 255 1; 256 4; 257 1; 258 2; 
269 1; 284 2; 285 2; 286 1; 287 1; 
316 2; 318 1; 327 1; 331 1; 333 12; 
334 8; 335 9; 336 5; 337 1; 338 1; 
341 1; 
