Name: .alpha.-PVP-d8
Synon: alpha-PVP-d8
Synon: .alpha.-Pyrrolidinopentiophenone-d8
Synon: O-2387-d8
Synon: .alpha.-Pyrrolidinovalerophenone-d8
Synon: 2-(1-pyrrolidinyl)-Valerophenone-d8
Synon: 1-phenyl-2-(1-pyrrolidinyl-d8)-1-pentanone
InChIKey: YDIIDRWHPFMLGR-NNFVSMFZSA-N
Formula: C15H13D8NO
MW: 239
ExactMass: 239.212528
CASNO: 1781744066
ID: 4559
Comment: Provided by www.caymanchem.com/app/template/landing%2CForensic.vm / Item #9002649 Batch #0477987
Num Peaks: 98
40 2; 41 11; 42 15; 43 17; 44 45; 
45 11; 46 25; 47 4; 48 5; 49 2; 
50 15; 51 51; 52 4; 53 4; 54 2; 
55 21; 56 8; 57 17; 58 17; 59 12; 
60 8; 61 4; 62 15; 63 3; 64 2; 
65 3; 66 1; 67 1; 68 1; 69 3; 
70 5; 71 10; 72 10; 73 45; 74 11; 
75 7; 76 15; 77 203; 78 25; 79 4; 
80 3; 81 1; 82 1; 83 3; 84 3; 
85 3; 86 7; 87 2; 88 2; 89 4; 
90 2; 91 12; 92 57; 93 9; 94 1; 
97 1; 98 1; 99 3; 100 1; 101 2; 
102 8; 103 44; 104 15; 105 121; 106 28; 
107 2; 108 1; 114 1; 115 4; 116 3; 
117 6; 118 22; 119 3; 120 2; 121 1; 
127 1; 128 1; 129 3; 130 6; 131 16; 
132 21; 133 175; 134 999; 135 126; 136 6; 
145 1; 148 1; 163 1; 168 3; 177 1; 
193 1; 194 1; 195 2; 196 13; 197 2; 
222 1; 237 1; 238 1; 
