Name: W-15-d4
InChIKey: VJHXSSVOCOBVMI-OGNUUCLGSA-N
Formula: C19H17D4ClN2O2S
MW: 380
ExactMass: 380.126333
CASNO: 0
ID: 4560
Comment: Provided by www.caymanchem.com/app/template/landing%2CForensic.vm / Item #19485 Batch #0489328
Num Peaks: 212
40 5; 41 63; 42 165; 43 37; 44 16; 
45 3; 46 3; 47 1; 48 12; 50 13; 
51 37; 52 49; 53 30; 54 66; 55 103; 
56 36; 57 32; 58 4; 59 1; 60 2; 
61 1; 62 4; 63 26; 64 31; 65 120; 
66 18; 67 13; 68 25; 69 13; 70 23; 
71 3; 72 1; 73 12; 74 9; 75 13; 
76 26; 77 157; 78 230; 79 91; 80 63; 
81 31; 82 78; 83 29; 84 24; 85 5; 
86 3; 87 21; 88 1; 89 36; 90 15; 
91 426; 92 45; 93 14; 94 5; 95 6; 
96 12; 97 23; 98 10; 99 1; 100 2; 
101 3; 102 17; 103 143; 104 938; 105 188; 
106 17; 107 2; 108 2; 109 59; 110 23; 
111 18; 112 36; 113 33; 114 148; 115 681; 
116 118; 117 239; 118 44; 119 60; 120 66; 
121 10; 122 2; 123 22; 124 2; 125 1; 
127 1; 128 9; 129 14; 130 35; 131 21; 
132 26; 133 10; 134 7; 135 18; 136 2; 
137 3; 140 1; 141 5; 142 7; 143 22; 
144 72; 145 17; 146 27; 147 18; 148 29; 
149 10; 150 10; 151 1; 152 1; 153 1; 
154 4; 155 9; 156 10; 157 9; 158 15; 
159 3; 160 2; 161 2; 162 4; 163 20; 
164 3; 165 6; 166 1; 167 3; 168 7; 
169 3; 170 6; 171 5; 172 2; 173 5; 
174 4; 175 5; 176 5; 177 12; 178 73; 
179 335; 180 52; 181 126; 182 13; 183 8; 
184 10; 185 3; 186 5; 187 2; 188 1; 
189 2; 190 3; 191 1; 192 2; 193 2; 
194 2; 195 3; 196 2; 197 6; 198 2; 
199 17; 200 4; 201 490; 202 73; 203 5; 
204 1; 205 1; 206 1; 207 17; 208 25; 
209 196; 210 999; 211 206; 212 332; 213 47; 
214 3; 221 1; 222 1; 224 1; 225 6; 
226 1; 227 1; 249 4; 253 9; 254 2; 
255 1; 265 2; 267 1; 274 3; 275 4; 
276 2; 277 8; 278 2; 279 2; 281 5; 
283 1; 288 6; 289 40; 290 5; 291 13; 
292 1; 315 2; 316 1; 327 4; 329 1; 
331 4; 341 1; 346 1; 355 1; 356 1; 
378 1; 379 22; 380 101; 381 31; 382 38; 
383 8; 384 1; 
