Name: Zolpidem-d6
Synon: SL 80-0750-d6
Synon: N,N,6-trimethyl-2-(4-methylphenyl)-imidazo[1,2-a]pyridine-3-acetamide-d6
InChIKey: ZAFYATHCZYHLPB-LIJFRPJRSA-N
Formula: C19H15D6N3O
MW: 313
ExactMass: 313.206123
CASNO: 959605904
ID: 4564
Comment: Provided by www.caymanchem.com/app/template/landing%2CForensic.vm / Item #10010652 Batch #0488242
Num Peaks: 115
40 1; 41 2; 46 8; 48 2; 49 3; 
50 4; 51 9; 52 5; 53 3; 58 5; 
61 1; 62 2; 63 9; 64 7; 65 81; 
66 11; 67 1; 73 1; 74 1; 75 4; 
76 5; 77 14; 78 88; 79 4; 80 1; 
87 1; 88 2; 89 12; 90 7; 91 19; 
92 116; 93 12; 94 1; 101 3; 102 9; 
103 5; 104 1; 109 1; 110 5; 113 2; 
114 2; 115 25; 116 16; 117 11; 118 3; 
119 2; 126 3; 127 11; 128 14; 129 7; 
130 2; 131 1; 139 1; 140 4; 141 2; 
142 5; 143 3; 144 1; 151 1; 152 2; 
153 2; 154 1; 155 1; 156 1; 164 1; 
165 3; 166 2; 167 3; 168 2; 169 1; 
177 1; 178 2; 179 2; 180 2; 181 3; 
182 2; 190 3; 191 4; 192 5; 193 4; 
194 4; 195 8; 196 1; 203 1; 204 3; 
205 13; 206 5; 207 5; 208 4; 209 2; 
216 2; 217 6; 218 18; 219 131; 220 64; 
221 10; 222 1; 223 1; 229 1; 230 1; 
231 6; 232 12; 233 56; 234 2; 235 999; 
236 184; 237 16; 238 1; 247 1; 253 1; 
262 2; 281 1; 313 87; 314 18; 315 2; 
