Name: Alprazolam-d5
Synon: 8-chloro-1-methyl-6-(phenyl-d5)-4H-[1,2,4]triazolo[4,3-a][1,4]benzodiazepine
InChIKey: VREFGVBLTWBCJP-VIQYUKPQSA-N
Formula: C17H8D5ClN4
MW: 313
ExactMass: 313.114258
CASNO: 125229610
ID: 4566
Comment: Provided by www.caymanchem.com/app/template/landing%2CForensic.vm / Item #18347
Num Peaks: 256
40 27; 41 43; 42 57; 43 21; 44 7; 
47 1; 48 1; 49 2; 50 20; 51 17; 
52 35; 53 22; 54 129; 55 9; 56 9; 
57 3; 58 1; 59 3; 60 1; 61 10; 
62 9; 63 36; 64 16; 65 25; 66 44; 
67 15; 68 14; 69 19; 70 9; 71 3; 
72 3; 73 44; 74 50; 75 136; 76 62; 
77 74; 78 49; 79 19; 80 79; 81 46; 
82 333; 83 38; 84 22; 85 11; 86 12; 
87 25; 88 39; 89 41; 90 51; 91 44; 
92 8; 93 16; 94 23; 95 23; 96 76; 
97 9; 98 17; 99 26; 100 84; 101 54; 
102 101; 103 32; 104 70; 105 49; 106 6; 
107 23; 108 103; 109 67; 110 43; 111 65; 
112 31; 113 30; 114 24; 115 45; 116 20; 
117 9; 118 67; 119 7; 120 15; 121 14; 
122 47; 123 17; 124 58; 125 15; 126 25; 
127 24; 128 14; 129 55; 130 17; 131 21; 
132 14; 133 7; 134 4; 135 14; 136 101; 
137 200; 138 72; 139 75; 140 34; 141 25; 
142 23; 143 19; 144 8; 145 4; 146 1; 
147 9; 148 4; 149 11; 150 14; 151 24; 
152 18; 153 15; 154 53; 155 67; 156 52; 
157 27; 158 4; 159 1; 160 1; 161 1; 
162 19; 163 57; 164 29; 165 22; 166 17; 
167 46; 168 49; 169 27; 170 24; 171 2; 
173 1; 174 2; 175 3; 176 16; 177 74; 
178 30; 179 66; 180 67; 181 118; 182 68; 
183 42; 184 8; 185 3; 186 1; 187 1; 
188 3; 189 7; 190 18; 191 20; 192 15; 
193 29; 194 7; 195 27; 196 11; 197 10; 
198 3; 200 1; 201 2; 202 8; 203 13; 
204 16; 205 42; 206 44; 207 165; 208 136; 
209 723; 210 201; 211 20; 212 1; 213 1; 
214 5; 215 9; 216 16; 217 8; 218 13; 
219 16; 220 10; 221 14; 222 15; 223 16; 
224 68; 225 7; 226 2; 227 4; 228 6; 
229 4; 230 5; 231 5; 232 6; 233 9; 
234 13; 235 25; 236 12; 237 52; 238 11; 
239 1; 240 5; 241 14; 242 105; 243 155; 
244 147; 245 87; 246 49; 247 17; 248 10; 
249 14; 250 154; 251 32; 252 3; 253 18; 
254 8; 255 2; 256 6; 257 33; 258 30; 
259 57; 260 17; 261 14; 262 2; 265 2; 
266 1; 267 4; 268 12; 269 15; 270 49; 
271 43; 272 24; 273 22; 274 4; 275 3; 
276 3; 277 1; 278 283; 279 55; 280 6; 
281 18; 282 13; 283 138; 284 999; 285 286; 
286 336; 287 74; 288 6; 295 1; 297 2; 
298 6; 299 2; 300 1; 310 1; 311 84; 
312 93; 313 623; 314 151; 315 199; 316 37; 
317 3; 
