Name: Oxycodone-d6
Synon: Dihydro-14-hydroxycodeinone-d6
Synon: 4,5.alpha.-epoxy-14-hydroxy-3-(methoxy-d3)-17-(methyl-d3)-morphinan-6-one
InChIKey: BRUQQQPBMZOVGD-WFGJKAKNSA-N
Formula: C18H15D6NO4
MW: 321
ExactMass: 321.18472
CASNO: 152477913
ID: 4569
Comment: Provided by www.caymanchem.com/app/template/landing%2CForensic.vm / Item #18569 Batch #0478893
Num Peaks: 266
40 3; 41 18; 42 33; 43 36; 44 27; 
45 222; 46 28; 47 157; 48 4; 50 7; 
51 23; 52 10; 53 19; 54 6; 55 77; 
56 23; 57 20; 58 20; 59 17; 60 46; 
61 38; 62 22; 63 37; 64 14; 65 30; 
66 11; 67 11; 68 6; 69 10; 70 8; 
71 10; 72 5; 73 267; 74 49; 75 26; 
76 23; 77 67; 78 30; 79 21; 80 10; 
81 10; 82 9; 83 3; 84 12; 85 32; 
86 13; 87 63; 88 17; 89 55; 90 7; 
91 52; 92 23; 93 11; 94 10; 95 12; 
96 4; 97 25; 98 8; 99 17; 100 15; 
101 55; 102 52; 103 63; 104 22; 105 20; 
106 10; 107 9; 108 10; 109 21; 110 5; 
111 8; 112 2; 113 10; 114 23; 115 255; 
116 89; 117 56; 118 38; 119 14; 120 7; 
121 11; 122 7; 123 10; 124 4; 125 2; 
126 13; 127 61; 128 84; 129 65; 130 41; 
131 60; 132 30; 133 22; 134 17; 135 24; 
136 9; 138 25; 139 25; 140 15; 141 30; 
142 21; 143 177; 144 72; 145 43; 146 24; 
147 35; 148 22; 149 18; 150 7; 151 13; 
152 19; 153 31; 154 10; 155 20; 156 28; 
157 37; 158 22; 159 22; 160 28; 161 37; 
162 35; 163 22; 164 38; 165 30; 166 15; 
167 13; 168 20; 169 24; 170 18; 171 50; 
172 29; 173 55; 174 30; 175 20; 176 13; 
177 40; 178 78; 179 38; 180 11; 181 21; 
182 12; 183 24; 184 39; 185 58; 186 34; 
187 41; 188 102; 189 49; 190 125; 191 134; 
192 52; 193 27; 194 6; 195 11; 196 18; 
197 25; 198 15; 199 22; 200 25; 201 68; 
202 66; 203 50; 204 174; 205 96; 206 31; 
207 21; 208 14; 209 8; 210 8; 211 11; 
212 5; 213 13; 214 16; 215 31; 216 24; 
217 81; 218 84; 219 62; 220 39; 221 25; 
222 35; 223 78; 224 15; 225 4; 226 3; 
227 7; 228 10; 229 22; 230 15; 231 16; 
232 22; 233 64; 234 38; 235 79; 236 381; 
237 76; 238 20; 239 5; 240 4; 241 5; 
242 8; 243 10; 244 7; 245 13; 246 19; 
247 25; 248 19; 249 6; 250 8; 251 3; 
252 1; 253 8; 254 3; 255 5; 256 3; 
257 12; 258 7; 259 10; 260 2; 261 138; 
262 50; 263 11; 264 16; 265 34; 266 7; 
267 3; 268 1; 269 3; 270 1; 271 1; 
272 1; 273 4; 274 7; 275 19; 276 12; 
277 2; 278 7; 279 2; 281 1; 282 7; 
283 5; 285 4; 286 2; 287 1; 288 1; 
290 1; 291 1; 292 11; 293 11; 294 1; 
301 2; 302 4; 303 30; 304 14; 305 2; 
306 19; 307 1; 315 1; 316 1; 318 5; 
319 6; 321 999; 322 205; 323 26; 324 1; 
325 1; 
