Name: 6.beta.-Naltrexol-d3
InChIKey: JLVNEHKORQFVQJ-QOKXBYFLSA-N
Synon: 6.alpha.-hydroxy Naltrexone-d3
Synon: (5.alpha.,6.beta.)-17-(cyclopropylmethyl)-4,5-epoxy-d3-morphinan-3,6,14-triol
Formula: C20H22D3NO4
MW: 346
ExactMass: 346.19719
CASNO: 1435727119
ID: 4570
Comment: Provided by www.caymanchem.com/app/template/landing%2CForensic.vm / Item #18350 Batch #0489678
Num Peaks: 286
40 29; 41 85; 42 64; 43 95; 44 96; 
45 25; 46 12; 47 4; 50 5; 51 21; 
52 13; 53 32; 54 30; 55 146; 56 90; 
57 126; 58 951; 59 65; 60 12; 61 3; 
62 5; 63 21; 64 6; 65 49; 66 17; 
67 21; 68 21; 69 45; 70 40; 71 43; 
72 28; 73 33; 74 22; 75 20; 76 14; 
77 105; 78 40; 79 42; 80 26; 81 22; 
82 32; 83 42; 84 61; 85 108; 86 24; 
87 223; 88 20; 89 40; 90 16; 91 111; 
92 26; 93 17; 94 17; 95 19; 96 17; 
97 22; 98 85; 99 78; 100 126; 101 367; 
102 80; 103 84; 104 29; 105 37; 106 18; 
107 26; 108 12; 109 11; 110 27; 111 15; 
112 35; 113 405; 114 74; 115 261; 116 73; 
117 72; 118 38; 119 29; 120 17; 121 23; 
122 13; 123 33; 124 11; 125 8; 126 22; 
127 115; 128 124; 129 91; 130 46; 131 131; 
132 50; 133 29; 134 17; 135 29; 136 14; 
137 30; 138 8; 139 41; 140 19; 141 76; 
142 27; 143 60; 144 71; 145 71; 146 45; 
147 102; 148 44; 149 29; 150 13; 151 22; 
152 62; 153 59; 154 33; 155 46; 156 33; 
157 74; 158 32; 159 48; 160 66; 161 144; 
162 69; 163 37; 164 19; 165 33; 166 17; 
167 28; 168 29; 169 45; 170 34; 171 105; 
172 53; 173 106; 174 87; 175 86; 176 38; 
177 19; 178 11; 179 15; 180 13; 181 63; 
182 28; 183 36; 184 86; 185 107; 186 78; 
187 145; 188 78; 189 70; 190 32; 191 23; 
192 4; 193 16; 194 8; 195 20; 196 20; 
197 45; 198 47; 199 124; 200 111; 201 96; 
202 130; 203 57; 204 33; 205 19; 206 4; 
207 67; 208 22; 209 24; 210 20; 211 36; 
212 22; 213 44; 214 48; 215 49; 216 49; 
217 24; 218 24; 219 25; 220 13; 221 20; 
222 9; 223 15; 224 20; 225 19; 226 45; 
227 38; 228 181; 229 62; 230 22; 231 36; 
232 22; 233 14; 234 7; 235 6; 236 3; 
237 8; 238 8; 239 4; 240 13; 241 8; 
242 38; 243 18; 244 35; 245 30; 246 188; 
247 61; 248 11; 250 3; 251 4; 252 13; 
253 29; 254 27; 255 16; 256 7; 257 21; 
258 27; 259 153; 260 63; 261 40; 262 10; 
263 2; 266 2; 267 4; 268 8; 269 14; 
270 45; 271 23; 272 55; 273 21; 274 17; 
275 9; 276 6; 277 1; 281 7; 282 2; 
283 7; 284 12; 285 15; 286 66; 287 47; 
288 244; 289 55; 290 10; 291 1; 293 1; 
295 5; 297 2; 298 4; 299 13; 300 8; 
301 12; 302 27; 303 6; 304 439; 305 84; 
306 12; 307 1; 309 5; 310 13; 311 12; 
312 4; 313 5; 314 2; 315 7; 316 5; 
317 17; 318 15; 319 4; 323 1; 325 2; 
326 3; 327 46; 328 28; 329 26; 330 26; 
331 25; 332 5; 341 4; 342 2; 343 10; 
344 28; 345 53; 346 999; 347 225; 348 32; 
349 1; 
