Name: MAB-CHMINACA-d4
Synon: ADB-CHMINACA-d4
Synon: N-[1-(aminocarbonyl)-2,2-dimethylpropyl]-1-(cyclohexylmethyl)-1H-indazole-d4-3-carboxamide
InChIKey: ZWCCSIUBHCZKOY-CXRURWBMSA-N
Formula: C21H26D4N4O2
MW: 374
ExactMass: 374.261984
CASNO: 0
ID: 4571
Comment: Provided by www.caymanchem.com/app/template/landing%2CForensic.vm / Item #18878 Batch #0485552
Num Peaks: 209
40 5; 41 134; 42 16; 43 22; 44 49; 
45 5; 50 2; 51 4; 52 5; 53 18; 
54 15; 55 177; 56 24; 57 90; 58 6; 
59 2; 61 1; 63 1; 64 3; 65 8; 
66 6; 67 35; 68 10; 69 26; 70 19; 
71 7; 72 1; 73 13; 74 2; 75 2; 
76 1; 77 8; 78 9; 79 14; 80 20; 
81 29; 82 10; 83 22; 84 11; 85 4; 
86 38; 87 4; 88 1; 89 1; 90 1; 
91 9; 92 23; 93 30; 94 40; 95 21; 
96 19; 97 20; 98 4; 99 1; 100 1; 
101 1; 103 1; 104 2; 105 6; 106 37; 
107 111; 108 34; 109 5; 110 1; 112 4; 
115 2; 117 1; 118 2; 119 4; 120 6; 
121 25; 122 15; 123 4; 124 1; 129 1; 
130 2; 131 3; 132 9; 133 40; 134 70; 
135 221; 136 32; 137 1; 143 1; 145 1; 
146 3; 147 16; 148 88; 149 529; 150 56; 
151 5; 154 1; 156 2; 158 3; 159 3; 
160 8; 161 14; 162 16; 163 11; 164 1; 
165 3; 172 3; 173 8; 174 2; 175 7; 
176 4; 177 8; 178 9; 179 5; 186 2; 
187 2; 188 2; 189 7; 190 10; 191 3; 
192 2; 193 1; 194 1; 195 1; 197 2; 
199 1; 200 1; 201 1; 202 1; 203 8; 
204 50; 205 77; 206 9; 207 5; 208 6; 
209 3; 210 2; 211 1; 214 1; 215 2; 
216 4; 217 20; 218 26; 219 5; 221 3; 
228 1; 229 1; 230 2; 232 1; 234 4; 
235 1; 241 1; 242 2; 243 28; 244 138; 
245 999; 246 180; 247 23; 248 2; 249 1; 
253 10; 254 3; 255 3; 256 2; 257 9; 
258 5; 259 2; 260 6; 261 1; 262 4; 
265 1; 267 1; 268 1; 269 1; 270 1; 
271 1; 272 2; 273 1; 274 2; 275 3; 
281 2; 282 2; 283 3; 284 4; 287 1; 
291 1; 298 1; 299 3; 300 38; 301 119; 
302 23; 303 3; 314 1; 315 1; 316 1; 
317 3; 318 12; 319 1; 327 2; 328 5; 
329 62; 330 498; 331 117; 332 13; 333 1; 
341 4; 342 4; 343 1; 346 1; 356 2; 
357 5; 358 1; 359 2; 374 1; 
