Name: Despropionyl-2-fluorofentanyl
InChIKey: WUNLGTOLOUTCPE-UHFFFAOYSA-N
Synon: N-(2-Fluorophenyl)-1-(2-phenylethyl)piperidin-4-amine
Synon: Despropionyl-o-fluorofentanyl
Synon: Despropionyl-ortho-fluorofentanyl
Synon: Despropionyl 2-FF
Synon: Despropionyl o-FF
Formula: C19H23FN2
MW: 298
ExactMass: 298.184526
CASNO: 864422913
ID: 4575
Comment: ENFSI / EDND webpage, French NFP, confirmed by NMR / SWGDRUG Monograph available
Num Peaks: 138
26 1; 27 13; 28 30; 29 16; 30 7; 
31 1; 36 1; 38 1; 39 23; 40 3; 
41 42; 42 215; 43 22; 44 335; 45 10; 
50 7; 51 20; 52 10; 53 11; 54 18; 
55 27; 56 32; 57 22; 58 3; 59 1; 
62 2; 63 12; 64 7; 65 69; 66 4; 
67 9; 68 22; 69 17; 70 76; 71 4; 
72 1; 73 2; 74 2; 75 18; 76 4; 
77 75; 78 23; 79 50; 80 9; 81 4; 
82 16; 83 31; 84 15; 85 2; 88 1; 
89 17; 90 7; 91 150; 92 16; 93 3; 
94 10; 95 38; 96 103; 97 14; 98 2; 
101 3; 102 14; 103 55; 104 59; 105 136; 
106 12; 107 2; 108 3; 109 46; 110 24; 
111 16; 112 9; 115 6; 116 9; 117 19; 
118 14; 119 3; 121 3; 122 55; 123 10; 
124 37; 125 3; 126 1; 127 1; 128 4; 
129 4; 130 25; 131 7; 132 9; 133 4; 
134 9; 135 26; 136 164; 137 36; 138 12; 
139 1; 143 4; 144 16; 145 3; 146 3; 
147 2; 148 28; 149 27; 150 109; 151 16; 
152 2; 155 1; 156 1; 158 2; 159 1; 
160 30; 161 4; 162 8; 164 999; 165 115; 
166 20; 167 2; 171 1; 176 2; 177 3; 
178 6; 179 2; 184 1; 185 1; 186 5; 
187 1; 188 3; 189 1; 191 1; 204 1; 
205 4; 207 672; 208 99; 209 7; 221 1; 
281 1; 298 13; 299 3; 
