Name: N-Phenylacetyl-L-prolylglycine ethyl ester
InChIKey: PJNSMUBMSNAEEN-AWEZNQCLSA-N
Synon: GVS-111
Synon: Noopept
Synon: SGS 111
Synon: 1-(2-phenylacetyl)-L-prolyl-glycine, ethyl ester
Formula: C17H22N2O4
MW: 318
ExactMass: 318.157957
CASNO: 157115850
ID: 4576
Comment: Provided by www.caymanchem.com/app/template/landing%2CForensic.vm / Item #14496
Num Peaks: 132
40 3; 41 44; 42 24; 43 23; 44 11; 
45 5; 46 1; 50 3; 51 9; 52 3; 
53 3; 54 3; 55 14; 56 30; 57 3; 
58 2; 59 2; 60 1; 61 1; 62 3; 
63 16; 64 6; 65 74; 66 5; 67 4; 
68 53; 69 47; 70 999; 71 57; 72 2; 
73 4; 74 36; 75 3; 76 1; 77 5; 
78 4; 79 1; 80 2; 81 2; 82 3; 
83 2; 84 4; 85 1; 86 1; 87 1; 
88 1; 89 39; 90 39; 91 459; 92 44; 
93 2; 94 5; 96 6; 97 8; 98 13; 
99 1; 102 16; 103 3; 104 6; 105 2; 
106 1; 107 1; 109 1; 112 2; 115 1; 
116 4; 117 4; 118 44; 119 8; 120 1; 
125 43; 126 3; 127 1; 128 1; 129 1; 
130 7; 131 4; 132 2; 133 2; 135 1; 
146 3; 147 2; 153 14; 154 2; 155 3; 
156 1; 158 4; 159 1; 160 3; 161 3; 
170 1; 171 1; 172 1; 174 1; 175 1; 
181 2; 182 2; 183 3; 184 1; 186 5; 
187 9; 188 445; 189 81; 190 7; 191 2; 
193 1; 197 1; 199 11; 200 1; 201 1; 
203 2; 207 16; 208 3; 209 2; 215 42; 
216 53; 217 7; 227 3; 253 2; 271 1; 
273 18; 274 3; 275 1; 281 4; 282 1; 
299 2; 300 6; 301 1; 317 4; 318 35; 
319 6; 320 1; 
