Name: 11-Hydroxy-delta-9-THC
Synon: 11-Hydroxy-.delta.9-Tetrahydrocannabinol
Synon: rel-6aR,7,8,10aR-tetrahydro-1-hydroxy-6,6-dimethyl-3-pentyl-6H-dibenzo[b,d]pyran-9-methanol
InChIKey: YCBKSSAWEUDACY-IAGOWNOFSA-N
Formula: C21H30O3
MW: 330
ExactMass: 330.219496
CASNO: 34675495
ID: 4584
Comment: Provided by www.caymanchem.com/Forensic.vm / Item# 19780 Batch# 0500954
Num Peaks: 252
41 121; 42 10; 43 95; 44 4; 45 2; 
50 1; 51 6; 52 3; 53 21; 54 3; 
55 45; 56 9; 57 21; 58 1; 59 6; 
63 4; 64 1; 65 21; 66 8; 67 81; 
68 10; 69 71; 70 13; 71 12; 73 15; 
74 2; 75 4; 76 4; 77 54; 78 18; 
79 48; 80 7; 81 54; 82 10; 83 13; 
84 2; 85 1; 87 1; 89 9; 90 4; 
91 86; 92 13; 93 25; 94 7; 95 45; 
96 8; 97 6; 98 1; 99 1; 100 1; 
101 3; 102 6; 103 18; 104 7; 105 39; 
106 11; 107 35; 108 9; 109 13; 110 3; 
111 3; 112 1; 113 1; 114 3; 115 62; 
116 18; 117 24; 118 7; 119 34; 120 11; 
121 19; 122 6; 123 31; 124 12; 125 2; 
126 3; 127 23; 128 52; 129 35; 130 8; 
131 30; 132 9; 133 21; 134 7; 135 19; 
136 16; 137 12; 138 4; 139 8; 140 2; 
141 31; 142 11; 143 13; 144 11; 145 28; 
146 6; 147 48; 148 10; 149 19; 150 9; 
151 7; 152 28; 153 27; 154 12; 155 15; 
156 9; 157 18; 158 11; 159 16; 160 24; 
161 34; 162 7; 163 16; 164 4; 165 45; 
166 13; 167 11; 168 9; 169 19; 170 8; 
171 17; 172 7; 173 40; 174 38; 175 32; 
176 9; 177 10; 178 12; 179 10; 180 4; 
181 21; 182 9; 183 16; 184 8; 185 18; 
186 14; 187 61; 188 29; 189 15; 190 4; 
191 13; 192 3; 193 104; 194 17; 195 16; 
196 7; 197 19; 198 10; 199 36; 200 18; 
201 21; 202 8; 203 7; 204 5; 205 7; 
206 2; 207 48; 208 12; 209 12; 210 6; 
211 20; 212 14; 213 26; 214 18; 215 16; 
216 3; 217 101; 218 17; 219 8; 220 1; 
221 6; 222 1; 223 7; 224 6; 225 11; 
226 6; 227 15; 228 8; 229 13; 230 7; 
231 123; 232 23; 233 29; 234 4; 235 1; 
237 2; 238 4; 239 8; 240 10; 241 15; 
242 12; 243 58; 244 62; 245 41; 246 8; 
247 8; 248 1; 249 2; 251 2; 252 1; 
253 16; 254 5; 255 23; 256 29; 257 40; 
258 15; 259 17; 260 5; 261 1; 265 1; 
266 2; 267 6; 268 2; 269 72; 270 16; 
271 20; 272 5; 273 7; 274 8; 279 1; 
281 17; 282 4; 283 11; 284 17; 285 10; 
286 4; 287 6; 288 1; 293 1; 295 13; 
296 1; 297 89; 298 3; 299 999; 300 219; 
301 27; 302 3; 310 1; 311 3; 312 83; 
313 25; 314 17; 315 25; 316 5; 325 1; 
327 3; 328 15; 329 2; 330 134; 331 33; 
332 6; 333 1; 
