Name: U-47931E
Synon: Bromadoline
Synon: rel-4-bromo-N-[(1R,2R)-2-(dimethylamino)cyclohexyl]-benzamide
InChIKey: UFDJFJYMMIZKLG-ZIAGYGMSSA-N
Formula: C15H21BrN2O
MW: 324
ExactMass: 324.083725
CASNO: 67579242
ID: 4593
Comment: Provided by www.caymanchem.com/Forensic.vm / Item #20530 Batch #0492764
Num Peaks: 142
40 1; 41 22; 42 75; 43 20; 44 39; 
45 7; 46 7; 50 23; 51 9; 52 2; 
53 8; 54 9; 55 20; 56 67; 57 11; 
58 128; 59 5; 60 2; 63 2; 65 2; 
66 2; 67 12; 68 25; 69 18; 70 77; 
71 201; 72 19; 73 8; 74 14; 75 38; 
76 86; 77 25; 78 4; 79 28; 80 12; 
81 25; 82 42; 83 15; 84 999; 85 87; 
86 4; 89 1; 90 1; 91 1; 92 1; 
93 1; 94 12; 95 5; 96 59; 97 41; 
98 45; 99 7; 100 2; 102 4; 103 6; 
104 27; 105 15; 106 2; 107 1; 108 5; 
109 5; 110 41; 111 6; 112 19; 113 2; 
116 1; 117 1; 118 1; 119 1; 121 1; 
122 4; 123 4; 124 95; 125 775; 126 74; 
127 3; 128 1; 129 2; 130 1; 131 2; 
132 1; 133 2; 135 1; 139 3; 140 1; 
141 7; 142 1; 145 1; 147 2; 154 2; 
155 115; 156 7; 157 111; 158 8; 159 1; 
169 1; 171 1; 181 3; 182 2; 183 123; 
184 12; 185 117; 186 9; 191 2; 193 1; 
197 1; 199 1; 200 7; 201 1; 202 7; 
207 16; 208 4; 209 2; 212 1; 213 1; 
214 1; 239 1; 241 1; 249 1; 251 1; 
252 3; 253 4; 254 2; 255 1; 265 1; 
266 1; 267 1; 268 1; 278 1; 279 1; 
280 4; 281 9; 282 4; 283 3; 309 4; 
311 4; 322 1; 323 1; 324 4; 325 1; 
326 3; 327 1; 
