Name: Cyclopentyl fentanyl
Synon: N-(1-phenethylpiperidin-4-yl)-N-phenylcyclopentanecarboxamide
InChIKey: PEASFKSPITUZGT-UHFFFAOYSA-N
Formula: C25H32N2O
MW: 376
ExactMass: 376.251463
CASNO: 0
ID: 4594
Comment: Provided by www.caymanchem.com/Forensic.vm / Item #20439 Batch #0491897
Num Peaks: 180
40 10; 41 233; 42 161; 43 31; 44 70; 
45 2; 49 1; 50 13; 51 35; 52 15; 
53 22; 54 18; 55 65; 56 33; 57 23; 
58 5; 61 1; 62 3; 63 10; 64 3; 
65 64; 66 20; 67 77; 68 52; 69 787; 
70 112; 71 8; 72 2; 73 16; 74 5; 
75 5; 76 8; 77 176; 78 47; 79 78; 
80 18; 81 6; 82 33; 83 6; 84 25; 
85 3; 87 2; 88 1; 89 11; 90 8; 
91 188; 92 33; 93 131; 94 50; 95 31; 
96 199; 97 106; 98 20; 99 2; 101 3; 
102 9; 103 66; 104 115; 105 312; 106 33; 
107 5; 108 3; 109 1; 111 2; 112 1; 
113 2; 114 1; 115 13; 116 7; 117 41; 
118 55; 119 31; 120 7; 121 2; 122 3; 
124 1; 127 1; 128 5; 129 7; 130 94; 
131 69; 132 108; 133 23; 134 16; 135 9; 
136 1; 137 1; 139 13; 140 1; 141 2; 
142 1; 143 7; 144 15; 145 14; 146 476; 
147 61; 148 13; 149 2; 152 1; 154 2; 
155 1; 156 3; 157 4; 158 21; 159 14; 
160 33; 161 6; 165 2; 167 3; 168 1; 
169 1; 170 4; 171 2; 172 5; 173 8; 
174 1; 175 1; 177 4; 179 1; 180 1; 
181 1; 182 2; 184 17; 185 13; 186 30; 
187 28; 188 65; 189 587; 190 82; 191 7; 
193 3; 194 2; 195 2; 197 3; 198 1; 
200 2; 207 18; 208 5; 209 3; 210 1; 
211 1; 221 2; 231 3; 239 1; 240 1; 
242 13; 243 1; 249 2; 251 1; 253 13; 
254 3; 255 1; 256 2; 257 2; 259 1; 
265 1; 267 3; 269 1; 279 2; 281 7; 
282 1; 283 5; 285 999; 286 201; 287 21; 
288 1; 307 1; 315 1; 325 1; 327 4; 
329 1; 331 3; 335 1; 341 1; 342 1; 
343 2; 346 1; 355 5; 374 4; 375 1; 
