Name: MDMB-FUBICA metabolite 3
Synon: (S)-2-(1-(4-fluorobenzyl)-1H-indole-3-carboxamido)-3,3-dimethylbutanoic acid
InChIKey: PZPKPULZRMBYJZ-LJQANCHMSA-N
Formula: C22H23FN2O3
MW: 382
ExactMass: 382.169271
CASNO: 0
ID: 4596
Comment: Provided by www.caymanchem.com/Forensic.vm / Item #20271 Batch #0490397
Num Peaks: 221
41 67; 42 3; 43 1; 44 9; 45 8; 
47 1; 49 1; 50 1; 51 12; 52 2; 
53 7; 54 1; 55 15; 56 8; 57 127; 
58 5; 59 7; 62 2; 63 18; 64 1; 
65 4; 66 1; 67 1; 68 1; 69 3; 
70 2; 71 2; 74 6; 75 9; 76 2; 
77 5; 78 2; 79 1; 80 1; 81 1; 
82 1; 83 96; 84 8; 85 3; 87 2; 
88 18; 89 21; 90 5; 91 4; 93 1; 
94 2; 95 1; 97 3; 98 1; 99 1; 
100 1; 101 9; 102 5; 103 6; 104 1; 
105 2; 106 1; 107 8; 108 3; 109 999; 
110 81; 111 3; 112 1; 113 1; 114 19; 
115 36; 116 15; 117 4; 118 2; 120 2; 
121 1; 122 1; 123 1; 124 1; 125 2; 
126 2; 127 4; 128 8; 129 4; 130 2; 
131 4; 132 2; 133 3; 135 17; 136 6; 
137 1; 140 1; 141 6; 142 11; 143 29; 
144 17; 145 1; 146 1; 147 3; 149 4; 
150 1; 151 1; 152 2; 153 2; 154 6; 
155 9; 156 8; 157 3; 158 3; 161 4; 
162 1; 163 5; 165 2; 166 4; 167 3; 
168 2; 170 7; 171 22; 172 2; 175 1; 
176 4; 177 20; 178 3; 179 11; 180 1; 
181 13; 183 2; 184 1; 185 1; 187 1; 
189 5; 191 46; 192 23; 193 6; 194 4; 
195 7; 197 11; 198 3; 199 4; 200 2; 
201 1; 202 2; 203 2; 204 5; 205 4; 
206 2; 207 19; 208 5; 209 6; 210 2; 
211 1; 218 1; 219 1; 220 1; 221 9; 
222 15; 223 27; 224 19; 225 8; 233 1; 
235 1; 237 1; 238 1; 239 2; 240 1; 
247 1; 249 2; 250 24; 251 7; 252 300; 
253 80; 254 10; 255 4; 256 1; 257 1; 
264 1; 265 1; 266 3; 268 11; 269 3; 
270 1; 272 1; 279 24; 280 17; 281 9; 
283 1; 285 1; 293 1; 295 2; 297 2; 
305 1; 307 86; 308 530; 309 110; 310 12; 
311 3; 312 1; 313 1; 314 2; 315 11; 
316 2; 320 1; 326 1; 327 4; 328 4; 
329 6; 330 1; 331 1; 332 1; 333 1; 
336 1; 339 1; 343 1; 344 1; 347 3; 
348 1; 349 1; 355 17; 356 6; 357 3; 
364 70; 365 19; 366 1; 373 1; 377 2; 
383 1; 
