Name: AH 7959
Synon: 3,4-dichloro-N-[[1-(1-piperidinyl)cyclohexyl]methyl]-benzamide
InChIKey: WTOAYCRIVUCNNR-UHFFFAOYSA-N
Formula: C19H26Cl2N2O
MW: 368
ExactMass: 368.14222
CASNO: 763023149
ID: 4601
Comment: Provided by www.caymanchem.com/Forensic.vm / Item #19366 Batch #0491221
Num Peaks: 119
40 1; 41 34; 42 14; 43 3; 44 4; 
50 3; 51 2; 52 2; 53 10; 54 13; 
55 26; 56 20; 57 3; 58 1; 65 3; 
66 2; 67 17; 68 9; 69 14; 70 4; 
71 1; 73 3; 74 7; 75 12; 76 1; 
77 7; 78 2; 79 16; 80 8; 81 26; 
82 13; 83 8; 84 34; 85 5; 86 5; 
87 1; 91 4; 92 1; 93 4; 94 9; 
95 11; 96 8; 97 3; 98 14; 99 2; 
100 1; 103 1; 104 1; 105 1; 106 2; 
107 1; 108 9; 109 22; 110 20; 111 12; 
112 4; 113 1; 120 2; 121 1; 122 10; 
123 3; 124 16; 125 3; 133 1; 134 3; 
135 3; 136 15; 137 6; 138 5; 139 4; 
140 1; 141 1; 144 1; 145 51; 146 5; 
147 34; 148 4; 149 7; 150 19; 151 3; 
152 1; 160 1; 161 1; 162 1; 163 2; 
164 23; 165 15; 166 999; 167 123; 168 7; 
171 2; 172 1; 173 63; 174 5; 175 40; 
176 3; 177 7; 178 2; 179 2; 190 1; 
191 1; 192 1; 193 7; 194 1; 195 1; 
202 1; 207 2; 253 3; 269 2; 271 1; 
281 1; 323 2; 325 2; 327 1; 331 1; 
365 1; 366 3; 367 1; 368 2; 
