Name: Amphetamine Methyl Carbamate
Synon: (1-methyl-2-phenylethyl)-carbamic acid, methyl ester
InChIKey: UZVIZRITTUHWAA-UHFFFAOYSA-N
Formula: C11H15NO2
MW: 193
ExactMass: 193.110279
CASNO: 27822588
ID: 4602
Comment: Provided by www.caymanchem.com/Forensic.vm / Item #9002843 Batch #0489659
Num Peaks: 72
40 7; 41 26; 42 52; 43 27; 44 15; 
45 3; 50 15; 51 39; 52 12; 53 4; 
54 2; 55 1; 56 41; 57 7; 58 179; 
59 116; 60 3; 61 2; 62 11; 63 42; 
64 13; 65 152; 66 10; 70 57; 71 2; 
73 1; 74 5; 75 6; 76 9; 77 35; 
78 18; 79 7; 86 2; 87 3; 88 2; 
89 49; 90 22; 91 600; 92 99; 93 7; 
101 5; 102 999; 103 68; 104 13; 105 5; 
106 1; 115 39; 116 12; 117 70; 118 60; 
119 42; 120 4; 128 5; 129 1; 130 3; 
131 1; 132 4; 133 4; 134 4; 142 1; 
145 1; 146 8; 160 1; 161 38; 162 10; 
163 1; 176 1; 177 1; 178 3; 191 1; 
193 6; 194 1; 
