Name: 4-Cyano-CUMYL-BUTINACA
Synon: 4-CN CUMYL-BINACA
Synon: CUMYL-4CN-BINACA
Synon: CUMYL-CB-PINACA
Synon: CUMYL-CYBINACA
Synon: SGT-78
Synon: 1-(4-cyanobutyl)-N-(1-methyl-1-phenylethyl)-1H-indazole-3-carboxamide
InChIKey: JGTSOWOPISVAHG-UHFFFAOYSA-N
Formula: C22H24N4O
MW: 360
ExactMass: 360.195011
CASNO: 1631074548
ID: 4605
Comment: Provided by www.caymanchem.com/Forensic.vm / Item #20194 Batch #0490444
Num Peaks: 152
40 3; 41 50; 42 20; 43 4; 44 7; 
50 13; 51 36; 52 10; 53 4; 54 9; 
55 30; 56 4; 58 4; 59 1; 61 1; 
62 9; 63 19; 64 6; 65 18; 66 3; 
67 1; 68 2; 73 4; 74 7; 75 14; 
76 28; 77 124; 78 50; 79 27; 80 2; 
82 12; 84 1; 86 2; 87 4; 88 32; 
89 40; 90 80; 91 168; 92 18; 93 1; 
94 1; 95 5; 101 3; 102 48; 103 158; 
104 101; 105 23; 106 2; 107 7; 114 1; 
115 35; 116 14; 117 103; 118 110; 119 74; 
120 15; 121 1; 125 11; 127 1; 128 6; 
129 32; 130 18; 131 73; 132 15; 133 5; 
134 31; 135 10; 136 1; 139 6; 142 3; 
143 8; 144 22; 145 291; 146 35; 147 3; 
154 1; 155 5; 156 16; 157 11; 158 9; 
159 2; 160 2; 161 10; 162 1; 169 10; 
170 1; 171 5; 172 2; 173 2; 174 88; 
175 26; 176 2; 180 1; 182 1; 183 1; 
184 2; 185 7; 186 1; 189 1; 195 1; 
196 5; 197 5; 198 7; 199 3; 200 1; 
201 1; 202 1; 207 6; 208 1; 212 1; 
213 1; 214 1; 216 1; 221 1; 224 8; 
226 999; 227 149; 228 12; 234 1; 235 2; 
242 73; 243 12; 244 1; 248 1; 253 2; 
255 66; 256 11; 261 1; 262 2; 265 1; 
266 1; 267 1; 269 1; 276 1; 278 2; 
281 2; 282 1; 283 15; 284 3; 292 2; 
303 1; 327 1; 341 1; 342 1; 343 1; 
345 311; 346 75; 347 9; 348 1; 355 1; 
360 27; 361 6; 
