Name: N-Desmethyl U-47700
Synon: trans-3,4-dichloro-N-methyl-N-[2-(methylamino)cyclohexyl]-benzamide
InChIKey: UOLMIGVJKXDEGR-KWCCSABGSA-N
Formula: C15H20Cl2N2O
MW: 314
ExactMass: 314.095268
CASNO: 67579731
ID: 4608
Comment: Provided by www.caymanchem.com/Forensic.vm / Item #20279 Batch #0490344
Num Peaks: 174
40 1; 41 31; 42 125; 43 12; 44 92; 
45 2; 50 5; 51 3; 52 2; 53 10; 
54 13; 55 24; 56 51; 57 156; 58 17; 
59 5; 61 1; 62 1; 63 2; 65 3; 
66 3; 67 15; 68 56; 69 22; 70 703; 
71 47; 72 3; 73 6; 74 28; 75 45; 
76 4; 77 10; 78 2; 79 35; 80 16; 
81 30; 82 48; 83 87; 84 126; 85 24; 
86 5; 87 3; 89 1; 91 2; 93 3; 
94 10; 95 16; 96 57; 97 11; 98 79; 
99 9; 100 3; 101 1; 102 1; 103 3; 
104 1; 106 1; 107 1; 108 10; 109 85; 
110 340; 111 999; 112 103; 113 9; 114 1; 
115 1; 116 1; 119 2; 121 1; 123 5; 
124 2; 125 5; 126 1; 127 1; 128 1; 
133 1; 135 1; 136 1; 137 1; 138 10; 
139 14; 140 5; 141 21; 142 2; 144 3; 
145 181; 146 16; 147 119; 148 10; 149 20; 
150 2; 151 4; 152 1; 153 6; 154 1; 
155 3; 159 2; 161 1; 168 1; 169 1; 
171 1; 172 1; 173 184; 174 16; 175 128; 
176 10; 177 22; 178 2; 179 1; 180 1; 
182 2; 184 1; 186 6; 187 1; 188 5; 
190 1; 191 1; 193 1; 202 4; 203 2; 
204 9; 205 2; 206 5; 207 6; 208 2; 
214 2; 215 1; 216 15; 217 3; 218 9; 
219 2; 220 2; 228 5; 229 1; 230 5; 
231 1; 232 2; 238 1; 239 1; 240 1; 
241 2; 242 2; 243 2; 244 4; 245 1; 
246 2; 253 3; 254 3; 255 2; 256 3; 
257 1; 258 1; 267 1; 268 1; 269 1; 
270 3; 271 1; 272 2; 281 3; 282 2; 
283 1; 284 3; 285 1; 286 1; 295 1; 
296 2; 297 4; 298 1; 299 3; 313 7; 
314 1; 315 5; 316 1; 317 1; 
