Name: N-Ethyl Hexedrone
InChIKey: CWNKMHIETKEBCA-UHFFFAOYSA-N
Synon: N-Ethylamino-Hexanophenone
Synon: 2-(ethylamino)-1-phenyl-1-hexanone
Synon: .alpha.-Ethylaminohexanophenone
Formula: C14H21NO
MW: 219
ExactMass: 219.162314
CASNO: 802857665
ID: 4610
Comment: Provided by www.caymanchem.com/Forensic.vm / Item #20661 Batch #0491964
Num Peaks: 72
41 38; 42 15; 43 20; 44 37; 45 1; 
46 2; 50 10; 51 43; 52 4; 53 3; 
54 5; 55 9; 56 51; 57 9; 58 134; 
59 5; 63 2; 65 3; 67 4; 68 5; 
69 21; 70 24; 71 16; 72 18; 73 1; 
74 3; 75 3; 76 8; 77 166; 78 17; 
79 8; 80 1; 82 3; 84 22; 85 2; 
86 3; 89 2; 90 1; 91 12; 92 1; 
98 2; 102 1; 103 3; 104 2; 105 74; 
106 10; 107 1; 112 17; 113 2; 114 999; 
115 88; 116 5; 117 3; 118 3; 120 1; 
128 1; 129 1; 130 1; 131 1; 132 1; 
133 4; 134 10; 135 1; 144 1; 146 3; 
148 1; 160 1; 162 12; 163 2; 174 1; 
176 1; 220 1; 
