Name: Benzodioxole fentanyl
Synon: N-(1-phenethylpiperidin-4-yl)-N-phenylbenzo[d][1,3]dioxole-5-carboxamide
InChIKey: ZFAAZMIOHJNKGD-UHFFFAOYSA-N
Formula: C27H28N2O3
MW: 428
ExactMass: 428.209993
CASNO: 0
ID: 4611
Comment: Provided by www.caymanchem.com/Forensic.vm / Item #20858 Batch #0494808
Num Peaks: 120
41 17; 42 59; 43 11; 44 4; 45 1; 
50 4; 51 13; 52 4; 53 6; 54 5; 
55 11; 56 9; 57 8; 58 1; 61 1; 
62 6; 63 31; 64 6; 65 93; 66 8; 
67 9; 68 14; 69 12; 70 19; 71 2; 
73 3; 74 2; 75 1; 76 3; 77 60; 
78 15; 79 27; 80 5; 81 2; 82 11; 
83 2; 84 2; 89 3; 90 3; 91 91; 
92 13; 93 9; 94 11; 95 6; 96 74; 
97 4; 98 8; 102 2; 103 22; 104 33; 
105 77; 106 10; 107 1; 115 4; 116 1; 
117 10; 118 17; 119 24; 120 5; 121 103; 
122 8; 123 1; 128 2; 129 1; 130 29; 
131 23; 132 27; 133 7; 134 3; 135 4; 
139 2; 143 1; 144 3; 145 4; 146 27; 
147 5; 148 2; 149 999; 150 87; 151 9; 
152 1; 153 1; 154 2; 156 1; 158 8; 
159 4; 160 8; 161 1; 166 1; 167 1; 
172 1; 177 1; 184 3; 185 5; 186 11; 
187 13; 188 12; 189 5; 191 1; 192 1; 
193 1; 195 1; 207 7; 208 2; 209 1; 
224 6; 225 4; 241 7; 242 1; 253 3; 
255 1; 265 1; 279 5; 281 2; 283 1; 
294 5; 295 1; 337 245; 338 54; 339 7; 
