Name: 4-Bromoethcathinone
InChIKey: QHHVZFYRRDYLJB-UHFFFAOYSA-N
Synon: 4-BEC
Synon: 1-(4-bromophenyl)-2-(ethylamino)-1-propanone
Formula: C11H14BrNO
MW: 255
ExactMass: 255.025876
CASNO: 743393104
ID: 4612
Comment: Provided by www.caymanchem.com/Forensic.vm / Item# 17395  Batch# 0496417
Num Peaks: 64
41 7; 42 36; 43 8; 44 156; 45 5; 
49 1; 50 26; 51 7; 52 2; 53 1; 
54 2; 55 3; 56 28; 57 7; 62 1; 
63 3; 65 1; 68 2; 70 38; 71 8; 
72 999; 73 59; 74 26; 75 55; 76 62; 
77 18; 78 4; 79 2; 80 2; 81 2; 
82 2; 87 1; 89 3; 90 1; 91 1; 
101 1; 102 2; 103 4; 104 9; 105 3; 
115 3; 116 1; 117 1; 129 2; 130 2; 
131 8; 132 4; 133 2; 146 2; 154 1; 
155 59; 156 7; 157 58; 158 6; 161 2; 
169 3; 171 3; 183 28; 184 3; 185 27; 
186 3; 212 3; 214 2; 240 1; 
