Name: 4-MA-NBOMe
Synon: 4-Methylamphetamine NBOMe
Synon: N-(2-methoxybenzyl)-1-(p-tolyl)propan-2-amine
InChIKey: CBRKBJHWROLUDO-UHFFFAOYSA-N
Formula: C18H23NO
MW: 269
ExactMass: 269.177965
CASNO: 0
ID: 4615
Comment: Provided by www.caymanchem.com/Forensic.vm / Item# 20867 Batch# 0496692
Num Peaks: 74
41 12; 42 13; 43 3; 44 3; 50 6; 
51 26; 52 15; 53 10; 54 2; 55 3; 
56 9; 57 2; 62 2; 63 18; 64 7; 
65 100; 66 11; 67 1; 74 2; 75 3; 
76 8; 77 140; 78 99; 79 80; 80 6; 
82 1; 89 27; 90 13; 91 590; 92 51; 
93 65; 94 7; 95 1; 101 1; 102 8; 
103 61; 104 43; 105 216; 106 27; 107 20; 
108 2; 109 1; 115 16; 116 6; 117 19; 
118 9; 119 7; 120 10; 121 999; 122 88; 
123 5; 127 1; 128 2; 129 1; 130 5; 
131 8; 132 14; 133 6; 134 3; 135 4; 
136 3; 144 1; 146 3; 147 2; 148 5; 
149 1; 162 25; 163 4; 164 577; 165 66; 
166 4; 178 1; 254 1; 268 1; 
