Name: 4-PPC
Synon: 1-(1-Phenyl-4-hydroxycyclohexyl)piperidine
Synon: PCHP
Synon: 4-phenyl-4-Piperidinocyclohexanol
Synon: 4-phenyl-4-(1-piperidinyl)-cyclohexanol
InChIKey: KPRUAZBLIREHPD-UHFFFAOYSA-N
Formula: C17H25NO
MW: 259
ExactMass: 259.193615
CASNO: 78165067
ID: 4616
Comment: Provided by www.caymanchem.com/Forensic.vm / Item# 20564 Batch# 0496278
Num Peaks: 131
41 59; 42 37; 43 23; 44 18; 45 1; 
50 4; 51 17; 52 5; 53 13; 54 14; 
55 38; 56 33; 57 38; 58 3; 62 1; 
63 6; 64 2; 65 15; 66 2; 67 11; 
68 7; 69 14; 70 8; 71 2; 74 2; 
75 3; 76 6; 77 68; 78 27; 79 31; 
80 7; 81 4; 82 8; 83 10; 84 142; 
85 25; 86 22; 87 2; 89 8; 90 4; 
91 180; 92 14; 93 2; 94 2; 95 2; 
96 5; 97 4; 98 2; 101 1; 102 15; 
103 52; 104 59; 105 30; 106 4; 107 1; 
108 3; 110 2; 111 1; 114 1; 115 99; 
116 25; 117 71; 118 14; 119 2; 120 4; 
122 1; 124 4; 126 1; 127 15; 128 40; 
129 72; 130 51; 131 17; 132 13; 133 2; 
134 1; 136 1; 138 2; 139 1; 141 13; 
142 15; 143 9; 144 16; 145 8; 146 5; 
147 1; 152 3; 153 5; 154 4; 155 6; 
156 15; 157 30; 158 15; 159 4; 160 7; 
161 3; 162 1; 164 17; 165 2; 168 1; 
170 4; 171 6; 172 13; 173 3; 174 10; 
175 2; 180 2; 181 1; 182 67; 183 8; 
184 5; 185 1; 186 210; 187 36; 188 3; 
198 5; 199 2; 200 999; 201 156; 202 20; 
203 1; 212 3; 228 1; 230 7; 231 1; 
240 2; 242 2; 258 21; 259 59; 260 11; 
261 1; 
