Name: N,N-Diethylpentylone
InChIKey: CUPSLSIMIHCVIA-UHFFFAOYSA-N
Synon: 1-(1,3-benzodioxol-5-yl)-2-(diethylamino)-1-pentanone
Formula: C16H23NO3
MW: 277
ExactMass: 277.167793
CASNO: 801171277
ID: 4621
Comment: Provided by www.caymanchem.com/Forensic.vm / Item# 20801 Batch# 0496147
Num Peaks: 124
41 26; 42 34; 43 16; 44 22; 46 1; 
50 4; 51 8; 52 2; 53 11; 54 11; 
55 29; 56 81; 57 5; 58 56; 59 2; 
61 3; 62 19; 63 66; 64 11; 65 125; 
66 9; 67 3; 68 9; 69 6; 70 38; 
71 39; 72 30; 73 3; 74 4; 75 2; 
76 3; 77 10; 78 3; 79 6; 80 2; 
81 2; 82 6; 83 3; 84 47; 85 4; 
86 50; 87 3; 89 4; 90 3; 91 40; 
92 8; 93 3; 94 1; 95 1; 96 3; 
97 1; 98 28; 99 23; 100 46; 101 4; 
102 2; 103 4; 104 2; 105 3; 106 1; 
110 1; 112 25; 113 3; 114 1; 115 3; 
116 1; 117 3; 118 2; 119 12; 120 9; 
121 116; 122 15; 123 1; 126 16; 127 4; 
128 999; 129 216; 130 10; 131 3; 132 2; 
133 2; 134 1; 135 22; 136 2; 145 2; 
146 2; 147 6; 148 3; 149 152; 150 15; 
151 1; 159 1; 160 2; 161 3; 162 1; 
164 3; 170 1; 173 1; 174 2; 175 3; 
176 5; 177 6; 178 1; 188 1; 189 3; 
190 9; 191 1; 198 1; 202 2; 203 1; 
204 3; 205 2; 206 17; 207 4; 218 3; 
228 2; 232 3; 233 1; 234 6; 235 1; 
257 1; 260 1; 275 1; 276 1; 
