Name: AB-CHMICA
Synon: N-(1-amino-3-methyl-1-oxobutan-2-yl)-1-(cyclohexylmethyl)-1H-indole-3-carboxamide
InChIKey: BLLKAWANSRRHLA-UHFFFAOYSA-N
Formula: C21H29N3O2
MW: 355
ExactMass: 355.225977
CASNO: 0
ID: 4623
Comment: DEA SFL1 / Lot # 0471007-15 / SWGDRUG Monograph available
Num Peaks: 111
39 7; 40 2; 41 26; 42 2; 43 13; 
44 14; 45 2; 53 4; 54 2; 55 83; 
56 6; 57 2; 59 2; 63 2; 65 2; 
67 8; 69 7; 70 2; 72 3; 73 4; 
75 3; 76 3; 77 8; 78 4; 79 2; 
81 2; 83 6; 87 2; 88 5; 89 9; 
91 4; 95 4; 97 7; 98 2; 101 6; 
102 20; 103 9; 104 3; 114 5; 115 22; 
116 35; 117 7; 118 3; 119 2; 128 21; 
129 60; 130 34; 131 7; 133 1; 135 3; 
136 1; 142 2; 143 37; 144 229; 145 22; 
146 2; 147 2; 154 6; 155 6; 156 10; 
157 29; 158 11; 159 2; 160 2; 167 4; 
168 6; 170 4; 173 16; 174 6; 177 2; 
180 2; 182 3; 184 5; 196 3; 197 2; 
198 3; 210 1; 211 2; 212 5; 213 4; 
214 2; 215 3; 227 7; 228 9; 229 2; 
238 13; 239 9; 240 999; 241 184; 242 17; 
253 1; 254 2; 255 4; 256 99; 257 16; 
267 1; 268 2; 272 4; 283 1; 294 2; 
295 4; 296 4; 311 20; 312 5; 313 3; 
323 3; 325 1; 338 2; 355 41; 356 10; 
357 2; 
