Name: 4-Chloroethcathinone
InChIKey: RNBCGEIZCHBTGL-UHFFFAOYSA-N
Synon: 4-CEC
Synon: 1-(4-Chlorophenyl)-2-(ethylamino)-1-propanone
Synon: 4-Chloro-N-ethylcathinone
Formula: C11H14ClNO
MW: 211
ExactMass: 211.076392
CASNO: 14919858
ID: 4626
Comment: Provided by www.caymanchem.com/app/template/landing%2CForensic.vm / Item #18912 Batch #0478461 / SWGDRUG Monograph available
Num Peaks: 74
40 2; 41 10; 42 58; 43 6; 44 241; 
45 4; 49 1; 50 29; 51 15; 52 2; 
53 2; 54 3; 55 5; 56 33; 57 8; 
61 3; 62 2; 63 4; 68 3; 69 1; 
70 47; 71 7; 72 999; 73 53; 74 27; 
75 111; 76 26; 77 19; 78 2; 84 3; 
85 12; 86 2; 87 5; 89 3; 90 1; 
91 1; 99 1; 101 2; 102 3; 103 8; 
104 3; 105 1; 110 3; 111 128; 112 13; 
113 41; 114 4; 115 3; 116 1; 117 1; 
125 7; 127 2; 130 1; 131 4; 132 1; 
133 3; 138 1; 139 59; 140 4; 141 19; 
142 2; 146 1; 161 2; 166 3; 167 2; 
168 5; 169 1; 170 1; 180 1; 194 1; 
195 1; 196 2; 207 1; 210 1; 
