Name: 4-Chloropentedrone
Synon: 4-CPD
Synon: 4-Chloro-.alpha.-methylamino-Pentiophenone
Synon: 4-Chloro-.alpha.-methylamino-Valerophenone
Synon: 1-(4-chlorophenyl)-2-(methylamino)pentan-1-one
InChIKey: OPCMVVKRCLOEDQ-UHFFFAOYSA-N
Formula: C12H16ClNO
MW: 225
ExactMass: 225.092042
CASNO: 0
ID: 4627
Comment: Provided by www.caymanchem.com/app/template/landing%2CForensic.vm / Item #19383 Batch #0482915 / SWGDRUG Monograph available
Num Peaks: 81
41 28; 42 67; 43 22; 44 264; 45 7; 
49 1; 50 26; 51 15; 52 2; 53 4; 
54 6; 55 25; 56 46; 57 49; 58 34; 
59 1; 61 2; 62 1; 63 4; 65 1; 
68 6; 69 2; 70 27; 71 6; 72 1; 
73 4; 74 20; 75 103; 76 25; 77 15; 
78 2; 82 1; 84 23; 85 13; 86 999; 
87 63; 88 2; 89 5; 90 1; 91 2; 
99 1; 101 2; 102 2; 103 2; 104 2; 
105 1; 110 3; 111 136; 112 13; 113 44; 
114 4; 115 3; 116 1; 117 1; 118 1; 
125 5; 127 2; 128 2; 130 1; 131 1; 
132 1; 137 1; 138 1; 139 63; 140 6; 
141 21; 142 2; 146 2; 147 14; 148 1; 
152 1; 154 4; 156 1; 164 1; 166 1; 
167 2; 168 1; 180 1; 182 11; 183 2; 
184 3; 
