Name: N-Ethyl-N-methyl-1,2-diphenylethanamine
InChIKey: MJDUDHAPJCKZPF-UHFFFAOYSA-N
Synon: N-ethyl-N-methyl-1,2-diphenylethan-1-amine
Formula: C17H21N
MW: 239
ExactMass: 239.167399
CASNO: 85222544
ID: 4628
Comment: DEA SFL1 / Lot # RM-160623-01 / SWGDRUG Monograph available
Num Peaks: 81
30 1; 39 6; 41 3; 42 84; 43 3; 
44 2; 50 3; 51 13; 52 3; 53 1; 
54 1; 56 3; 58 2; 62 1; 63 8; 
64 2; 65 34; 66 2; 74 1; 75 2; 
76 6; 77 53; 78 14; 79 5; 87 1; 
88 1; 89 15; 90 6; 91 116; 92 9; 
93 1; 101 1; 102 9; 103 36; 104 17; 
105 9; 106 1; 115 10; 116 4; 117 11; 
118 31; 119 7; 120 45; 121 3; 126 2; 
127 2; 128 4; 129 1; 130 3; 131 4; 
132 34; 133 7; 134 2; 139 3; 141 3; 
144 2; 145 1; 146 15; 147 7; 148 999; 
149 152; 150 10; 151 6; 152 14; 153 5; 
154 1; 162 7; 163 2; 164 2; 165 40; 
166 20; 167 3; 176 8; 177 6; 178 38; 
179 23; 180 7; 181 19; 182 3; 236 1; 
238 2; 
