Name: N-Methyl-1-(6-methylpyridin-2-yl)propan-2-amine
InChIKey: BGVTYFOSDFJEHA-UHFFFAOYSA-N
Formula: C10H16N2
MW: 164
ExactMass: 164.131349
CASNO: 91010343
ID: 4631
Comment: DEA SFL1 / Lot # RM-140210-02 / SWGDRUG Monograph available
Num Peaks: 79
30 29; 37 1; 38 5; 39 44; 40 8; 
41 19; 42 45; 43 12; 44 3; 50 5; 
51 14; 52 11; 53 13; 54 7; 55 2; 
56 81; 57 16; 58 639; 59 23; 61 1; 
62 5; 63 21; 64 16; 65 57; 66 38; 
67 11; 68 2; 70 3; 71 38; 72 3; 
74 2; 75 2; 76 3; 77 72; 78 19; 
79 53; 80 15; 81 2; 82 1; 89 5; 
90 4; 91 17; 92 41; 93 37; 94 31; 
95 2; 102 1; 103 3; 104 10; 105 4; 
106 98; 107 999; 108 199; 109 12; 115 1; 
116 2; 117 23; 118 12; 119 4; 120 91; 
121 11; 122 2; 130 11; 131 9; 132 40; 
133 19; 134 57; 135 13; 136 1; 145 1; 
146 1; 147 7; 148 1; 149 136; 150 13; 
161 1; 163 9; 164 3; 165 2; 
