Name: Tetrahydrofuran fentanyl
InChIKey: OHJNHKUFSKAANI-UHFFFAOYSA-N
Synon: N-(1-phenethylpiperidin-4-yl)-N-phenyltetrahydrofuran-2-carboxamide
Synon: THF-Fentanyl
Formula: C24H30N2O2
MW: 378
ExactMass: 378.230728
CASNO: 0
ID: 4633
Comment: Provided by www.caymanchem.com/Forensic.vm / Item# 20859 Batch# 0497941 / SWGDRUG Monograph available
Num Peaks: 175
41 113; 42 136; 43 197; 44 57; 45 2; 
50 8; 51 22; 52 9; 53 11; 54 11; 
55 42; 56 21; 57 15; 58 4; 61 1; 
62 3; 63 11; 64 8; 65 43; 66 9; 
67 22; 68 35; 69 51; 70 54; 71 655; 
72 31; 73 17; 74 3; 75 5; 76 7; 
77 141; 78 39; 79 63; 80 14; 81 5; 
82 29; 83 6; 84 14; 85 2; 86 1; 
89 10; 90 8; 91 156; 92 27; 93 34; 
94 30; 95 27; 96 173; 97 36; 98 17; 
99 1; 102 6; 103 58; 104 84; 105 294; 
106 39; 107 4; 108 1; 111 1; 115 9; 
116 5; 117 30; 118 53; 119 34; 120 11; 
121 1; 122 1; 127 1; 128 2; 129 3; 
130 72; 131 53; 132 81; 133 17; 134 11; 
135 9; 136 1; 137 1; 139 14; 140 1; 
141 1; 143 5; 144 16; 145 11; 146 419; 
147 51; 148 10; 149 3; 154 2; 156 4; 
157 4; 158 28; 159 12; 160 24; 161 5; 
162 1; 163 3; 165 1; 170 1; 171 1; 
172 4; 173 4; 174 7; 175 2; 176 1; 
177 2; 178 1; 179 1; 180 1; 182 2; 
183 1; 184 13; 185 7; 186 40; 187 28; 
188 89; 189 343; 190 48; 191 15; 192 3; 
193 4; 194 1; 195 2; 197 2; 200 1; 
202 3; 205 1; 207 38; 208 9; 209 4; 
210 1; 214 1; 215 1; 216 2; 217 1; 
221 1; 226 1; 229 1; 231 4; 232 1; 
239 1; 244 16; 245 5; 249 1; 251 1; 
253 12; 254 2; 255 1; 257 1; 258 1; 
259 3; 265 1; 267 2; 268 2; 269 3; 
279 3; 281 13; 282 3; 283 3; 285 2; 
287 999; 288 191; 289 21; 327 3; 328 1; 
329 1; 331 3; 332 1; 341 2; 342 1; 
343 1; 346 2; 355 1; 376 3; 377 1; 
