Name: o-Fluorofentanyl
InChIKey: BKUWDIVZCJNXRA-UHFFFAOYSA-N
Synon: N-(2-fluorophenyl)-N-[1-(2-phenylethyl)-4-piperidinyl]propanamide
Synon: ortho-Fluorofentanyl
Synon: 2-Fluorofentanyl
Synon: Ortho-F-fentanyl
Formula: C22H27FN2O
MW: 354
ExactMass: 354.210741
CASNO: 910616294
ID: 4635
Comment: DEA SFL1 / Lot # RM-160713-01 / SWGDRUG Monograph available
Num Peaks: 153
38 1; 39 12; 40 1; 41 33; 42 150; 
43 23; 44 88; 45 3; 50 3; 51 10; 
52 4; 53 8; 54 12; 55 32; 56 31; 
57 211; 58 8; 59 1; 62 1; 63 7; 
64 3; 65 38; 66 3; 67 25; 68 35; 
69 34; 70 57; 71 5; 72 1; 73 1; 
74 2; 75 20; 76 5; 77 68; 78 22; 
79 60; 80 14; 81 6; 82 33; 83 16; 
84 14; 85 1; 86 1; 89 10; 90 11; 
91 168; 92 17; 93 3; 94 21; 95 84; 
96 139; 97 22; 98 4; 101 2; 102 14; 
103 59; 104 34; 105 225; 106 19; 107 3; 
108 4; 109 36; 110 15; 111 32; 112 16; 
113 2; 115 7; 116 4; 117 15; 118 10; 
119 2; 120 1; 121 6; 122 89; 123 27; 
124 28; 125 2; 127 1; 128 4; 129 5; 
130 33; 131 10; 132 16; 133 4; 134 10; 
135 21; 136 88; 137 26; 138 12; 139 14; 
140 2; 142 1; 143 4; 144 12; 145 2; 
146 5; 147 2; 148 62; 149 70; 150 122; 
151 18; 152 4; 153 1; 155 1; 156 3; 
157 1; 158 4; 159 2; 160 22; 161 4; 
162 9; 163 12; 164 716; 165 82; 166 10; 
167 3; 168 4; 170 1; 171 3; 172 1; 
174 1; 175 1; 176 24; 177 9; 178 7; 
179 2; 184 6; 185 5; 186 27; 187 5; 
188 21; 189 3; 190 1; 191 4; 192 1; 
204 1; 205 16; 206 14; 207 373; 208 53; 
209 3; 220 71; 221 11; 222 1; 234 4; 
235 1; 262 2; 263 999; 264 176; 265 18; 
266 1; 297 2; 352 1; 
