Name: 25P-NBOMe
InChIKey: QHEBYIJRKGDFGH-UHFFFAOYSA-N
Synon: 2,5-Dimethoxy-N-[(2-methoxyphenyl)methyl]-4-propyl-benzeneethanamine
Synon: 2C-P-NBOMe
Synon: 25P-NB2OMe
Synon: 2C-P-NB2OMe
Formula: C21H29NO3
MW: 343
ExactMass: 343.214745
CASNO: 1391489078
ID: 4636
Comment: Provided by www.caymanchem.com/app/template/landing%2CForensic.vm / Item #9001991 Batch #0459579 / SWGDRUG Monograph available
Num Peaks: 103
41 6; 42 4; 43 5; 45 1; 50 2; 
51 8; 52 4; 53 5; 55 3; 57 1; 
59 1; 62 1; 63 5; 64 3; 65 41; 
66 5; 67 6; 68 1; 69 1; 75 2; 
76 3; 77 44; 78 35; 79 19; 80 3; 
81 1; 89 11; 90 8; 91 340; 92 31; 
93 35; 94 5; 95 1; 102 2; 103 16; 
104 16; 105 36; 106 8; 107 23; 108 6; 
109 3; 115 14; 116 8; 117 14; 118 14; 
119 17; 120 16; 121 999; 122 97; 123 10; 
127 2; 128 4; 129 4; 130 2; 131 9; 
132 6; 133 15; 134 27; 135 37; 136 12; 
137 3; 142 2; 144 1; 145 2; 146 2; 
147 8; 148 32; 149 12; 150 375; 151 42; 
152 3; 157 2; 159 1; 160 1; 161 2; 
162 2; 163 20; 164 7; 165 21; 166 2; 
171 1; 175 1; 176 1; 177 7; 178 5; 
179 5; 180 1; 190 3; 191 3; 192 7; 
193 44; 194 229; 195 30; 196 2; 204 1; 
206 2; 207 6; 208 1; 310 18; 311 8; 
312 23; 313 5; 341 1; 
