Name: 3-Methoxy PCE
InChIKey: OFGOOZLOGUNDFS-UHFFFAOYSA-N
Synon: 3-Methoxy Eticyclidine
Synon: N-ethyl-1-(3-methoxyphenyl)-cyclohexanamine
Synon: 2-(3-methoxyphenyl)-2-(ethylamino)cyclohexane
Synon: 3-MeO-PCE
Formula: C15H23NO
MW: 233
ExactMass: 233.177964
CASNO: 1364933801
ID: 4637
Comment: Provided by www.caymanchem.com/Forensic.vm / Item# 9001355 Batch# 0459557
Num Peaks: 135
40 1; 41 35; 42 19; 43 8; 44 30; 
45 2; 46 3; 50 4; 51 9; 52 4; 
53 12; 54 11; 55 23; 56 11; 57 1; 
58 6; 62 2; 63 17; 64 15; 65 24; 
66 6; 67 10; 68 6; 69 5; 70 4; 
71 1; 72 1; 74 2; 75 5; 76 11; 
77 66; 78 30; 79 33; 80 10; 81 37; 
82 9; 83 1; 84 7; 88 16; 89 18; 
90 18; 91 90; 92 30; 93 8; 94 6; 
95 6; 96 3; 97 1; 98 2; 101 2; 
102 17; 103 34; 104 18; 105 15; 106 7; 
107 15; 108 12; 109 7; 110 2; 114 1; 
115 53; 116 16; 117 28; 118 33; 119 34; 
120 12; 121 125; 122 19; 123 1; 124 3; 
125 1; 126 103; 127 21; 128 24; 129 24; 
130 20; 131 16; 132 22; 133 32; 134 136; 
135 24; 136 6; 139 1; 141 6; 142 4; 
143 6; 144 17; 145 26; 146 41; 147 96; 
148 44; 149 9; 150 3; 151 1; 152 4; 
153 2; 154 1; 155 2; 156 1; 157 7; 
158 13; 159 31; 160 42; 161 27; 162 41; 
163 5; 164 7; 171 1; 172 4; 173 14; 
174 17; 175 7; 176 154; 177 34; 178 4; 
184 1; 186 1; 187 4; 188 31; 189 28; 
190 999; 191 137; 192 10; 202 14; 203 3; 
204 58; 205 8; 207 1; 216 1; 218 3; 
230 1; 232 64; 233 223; 234 37; 235 3; 
