Name: Clipredrone
InChIKey: AZTFYJYLDIQSAG-UHFFFAOYSA-N
Synon: 4-Chloroiprcathinone
Synon: 4-CIC
Synon: 1-(4-chlorophenyl)-2-(isopropylamino)propan-1-one
Synon: 4-Chloro-N-isopropylcathinone
Synon: 4-Chloro-.alpha.-Isopropylaminopropiophenone
Formula: C12H16ClNO
MW: 225
ExactMass: 225.092042
CASNO: 1225621577
ID: 4638
Comment: ENFSI / NFL SI, EU project RESPONSE, confirmed by NMR
Num Peaks: 91
30 3; 38 2; 39 14; 40 3; 41 50; 
42 63; 43 62; 44 683; 45 17; 49 1; 
50 27; 51 16; 52 2; 53 2; 54 2; 
55 7; 56 17; 57 4; 58 5; 61 2; 
62 2; 63 4; 65 1; 68 4; 69 1; 
70 45; 71 7; 73 3; 74 18; 75 102; 
76 24; 77 24; 78 3; 84 21; 85 15; 
86 999; 87 64; 88 2; 89 4; 90 1; 
91 1; 99 1; 101 2; 102 3; 103 18; 
104 5; 105 2; 110 3; 111 145; 112 14; 
113 47; 114 5; 115 5; 116 2; 117 1; 
125 3; 127 1; 128 1; 130 4; 131 25; 
132 4; 133 8; 137 1; 138 2; 139 114; 
140 17; 141 38; 142 5; 146 1; 147 3; 
149 1; 151 2; 153 1; 157 2; 164 1; 
166 17; 167 7; 168 12; 169 3; 170 2; 
180 1; 182 5; 184 1; 192 2; 194 2; 
208 1; 210 11; 211 1; 212 3; 224 2; 
226 1; 
