Name: 5-Fluoro-APINAC
Synon: 5-Fluoro-AKB57
Synon: (3s,5s,7s)-adamantan-1-yl 1-(5-fluoropentyl)-1H-indazole-3-carboxylate
Synon: 5F-APINAC
Synon: 5F-AKB57
InChIKey: FOBFXVSQNAVUMG-XHICYHHKSA-N
Formula: C23H29FN2O2
MW: 384
ExactMass: 384.221306
CASNO: 0
ID: 4640
Comment: Provided by www.caymanchem.com/Forensic.vm / Item #18592 Batch #0491711
Num Peaks: 209
40 8; 41 149; 42 12; 43 32; 44 8; 
45 2; 46 1; 47 16; 50 6; 51 19; 
52 9; 53 46; 54 14; 55 105; 56 60; 
57 11; 58 1; 59 11; 60 1; 61 4; 
62 7; 63 12; 64 6; 65 39; 66 26; 
67 156; 68 24; 69 72; 70 4; 71 1; 
73 4; 74 3; 75 13; 76 28; 77 181; 
78 94; 79 406; 80 63; 81 109; 82 9; 
83 2; 85 1; 87 4; 88 48; 89 34; 
90 79; 91 223; 92 512; 93 444; 94 46; 
95 34; 96 5; 97 8; 98 2; 101 3; 
102 64; 103 160; 104 54; 105 79; 106 41; 
107 122; 108 13; 109 6; 111 1; 114 1; 
115 8; 116 11; 117 46; 118 16; 119 82; 
120 9; 121 6; 122 1; 127 2; 128 6; 
129 66; 130 49; 131 114; 132 20; 133 17; 
134 206; 135 999; 136 133; 137 8; 142 3; 
143 11; 144 24; 145 329; 146 31; 147 5; 
148 1; 149 1; 150 4; 151 1; 152 3; 
154 5; 155 5; 156 5; 157 17; 158 14; 
159 5; 160 1; 161 1; 162 29; 163 3; 
164 2; 165 1; 167 1; 168 3; 169 5; 
170 2; 171 18; 172 3; 173 4; 174 2; 
175 278; 176 147; 177 50; 178 5; 179 1; 
181 1; 182 1; 183 4; 184 3; 185 54; 
186 10; 187 1; 188 3; 189 3; 190 1; 
191 1; 192 4; 193 1; 194 1; 195 6; 
196 1; 197 1; 199 8; 201 1; 202 3; 
203 8; 204 1; 205 24; 206 6; 207 5; 
208 1; 209 2; 213 43; 214 6; 215 3; 
217 3; 219 1; 220 3; 221 2; 223 1; 
229 31; 230 5; 231 9; 232 1; 233 215; 
234 35; 235 4; 236 1; 238 3; 247 1; 
249 149; 250 56; 251 45; 252 13; 253 5; 
254 1; 263 1; 265 81; 266 49; 267 8; 
268 1; 277 2; 279 3; 281 1; 283 4; 
285 1; 295 106; 296 23; 297 4; 299 1; 
305 1; 307 1; 309 36; 310 12; 311 2; 
319 3; 320 2; 327 1; 328 12; 329 2; 
331 1; 338 2; 339 2; 340 230; 341 57; 
342 7; 343 1; 356 3; 363 3; 364 2; 
365 1; 384 80; 385 21; 386 3; 
