Name: 5-Bromo-THJ-018
Synon: THJ-018 bromo analogue
Synon: (1-(5-Bromopentyl)-1H-indazol-3-yl)(naphthalen-1-yl)methanone
Synon: 5-Br-THJ-018
InChIKey: CHDPCRSBPAVUIZ-UHFFFAOYSA-N
Formula: C23H21BrN2O
MW: 420
ExactMass: 420.083725
CASNO: 0
ID: 4642
Comment: Provided by www.caymanchem.com/app/template/landing%2CForensic.vm / Item#18578 Batch #0476406
Num Peaks: 295
40 3; 41 115; 42 4; 43 10; 44 3; 
45 2; 46 1; 47 1; 49 1; 50 7; 
51 19; 52 4; 53 12; 54 2; 55 16; 
56 3; 57 1; 58 1; 60 1; 61 1; 
62 6; 63 16; 64 5; 65 8; 66 2; 
67 19; 68 2; 69 33; 70 4; 71 1; 
73 46; 74 15; 75 29; 76 47; 77 101; 
78 18; 79 12; 80 27; 81 10; 82 28; 
83 1; 84 1; 85 1; 86 2; 87 8; 
88 8; 89 7; 90 29; 91 12; 92 1; 
93 2; 94 1; 95 4; 96 22; 97 3; 
98 1; 99 6; 100 5; 101 59; 102 71; 
103 180; 104 28; 105 8; 106 2; 107 6; 
108 2; 109 9; 112 1; 113 2; 114 5; 
115 14; 116 3; 117 25; 118 7; 119 17; 
120 2; 121 3; 122 3; 123 1; 124 1; 
125 13; 126 143; 127 999; 128 185; 129 86; 
130 30; 131 128; 132 11; 133 10; 134 4; 
135 30; 136 3; 137 2; 138 1; 139 4; 
140 2; 141 2; 142 27; 143 3; 144 4; 
145 75; 146 9; 147 7; 148 10; 149 11; 
150 5; 151 4; 152 12; 153 7; 154 14; 
155 409; 156 99; 157 22; 158 8; 159 2; 
160 1; 161 5; 162 1; 163 14; 164 1; 
165 10; 166 2; 167 2; 168 4; 169 2; 
170 4; 171 11; 172 1; 175 1; 176 10; 
177 9; 178 7; 179 12; 180 5; 181 5; 
182 3; 183 4; 184 1; 185 8; 186 3; 
187 12; 188 4; 189 12; 190 2; 192 2; 
193 9; 194 4; 195 1; 196 2; 197 7; 
198 3; 199 11; 200 3; 201 2; 202 4; 
203 1; 204 1; 205 5; 206 2; 207 4; 
210 4; 211 8; 212 3; 213 119; 214 22; 
215 34; 216 6; 217 2; 218 1; 219 1; 
221 1; 222 1; 223 2; 224 2; 225 3; 
226 3; 227 3; 228 7; 229 3; 230 5; 
231 1; 233 1; 235 4; 237 1; 238 1; 
239 7; 240 2; 241 11; 242 36; 243 45; 
244 9; 245 3; 249 9; 250 2; 251 13; 
252 4; 253 48; 254 31; 255 24; 256 22; 
257 99; 258 35; 259 4; 263 1; 265 6; 
266 5; 267 12; 268 11; 269 27; 270 6; 
271 632; 272 149; 273 33; 274 4; 279 1; 
281 25; 283 22; 284 10; 285 73; 286 31; 
287 2; 291 1; 293 3; 294 1; 295 2; 
296 4; 297 9; 298 1; 299 9; 300 1; 
311 14; 312 6; 313 16; 314 3; 315 4; 
316 3; 317 1; 323 1; 324 1; 325 3; 
326 4; 327 2; 328 1; 329 11; 330 3; 
331 12; 332 3; 333 2; 334 1; 335 1; 
337 2; 339 10; 340 16; 341 65; 342 27; 
343 11; 344 5; 345 1; 346 7; 347 1; 
348 1; 349 1; 355 5; 356 1; 357 5; 
358 1; 373 1; 375 1; 377 2; 378 1; 
383 1; 385 1; 387 2; 389 2; 391 2; 
392 1; 393 1; 399 1; 401 1; 402 1; 
403 3; 404 2; 405 5; 406 2; 407 3; 
408 1; 415 6; 416 1; 417 1; 419 179; 
420 205; 421 223; 422 197; 423 44; 424 2; 
