Name: 5-Chloro-THJ-018
Synon: (1-(5-Chloropentyl)-1H-indazol-3-yl)(naphthalen-1-yl)methanone
Synon: 5-Chloropentyl JWH-018 indazole analog
Synon: THJ-018 chloro analog
Synon: 5-Cl-THJ-018
InChIKey: KLRDJQQYGMTILS-UHFFFAOYSA-N
Formula: C23H21ClN2O
MW: 376
ExactMass: 376.134241
CASNO: 0
ID: 4643
Comment: Provided by www.caymanchem.com/app/template/landing%2CForensic.vm / Item #18581 Batch #0487612
Num Peaks: 239
40 1; 41 110; 42 5; 43 19; 44 3; 
45 2; 49 10; 50 4; 51 23; 52 3; 
53 14; 54 3; 55 30; 56 1; 61 2; 
62 7; 63 26; 64 6; 65 8; 66 1; 
67 17; 68 3; 69 36; 70 1; 73 37; 
74 8; 75 43; 76 42; 77 103; 78 10; 
82 1; 86 1; 87 3; 88 13; 89 13; 
90 30; 91 10; 92 1; 93 1; 94 1; 
95 1; 96 2; 97 2; 98 4; 99 5; 
100 6; 101 55; 102 64; 103 137; 104 27; 
105 3; 106 1; 107 2; 108 2; 109 1; 
111 1; 113 3; 114 5; 115 10; 116 10; 
117 8; 118 8; 119 7; 120 3; 121 3; 
122 2; 125 9; 126 152; 127 999; 128 173; 
129 76; 130 27; 131 123; 132 11; 133 5; 
134 7; 135 22; 136 2; 137 1; 139 5; 
140 1; 141 3; 142 20; 143 10; 144 4; 
145 83; 146 7; 147 8; 148 5; 149 7; 
150 3; 151 2; 152 5; 153 6; 154 6; 
155 433; 156 116; 157 21; 158 4; 159 2; 
161 4; 162 2; 163 9; 164 2; 165 8; 
166 1; 167 2; 168 2; 169 3; 170 6; 
171 6; 172 1; 175 2; 176 2; 177 3; 
178 1; 179 1; 180 3; 181 1; 182 4; 
183 1; 185 16; 186 3; 187 10; 188 8; 
189 21; 190 3; 191 6; 193 11; 194 1; 
195 10; 197 3; 198 2; 199 16; 200 2; 
201 3; 202 2; 203 1; 204 1; 205 1; 
206 2; 207 51; 208 4; 209 5; 211 9; 
212 4; 213 99; 214 33; 215 44; 216 8; 
217 2; 218 1; 219 2; 221 4; 222 1; 
223 1; 224 1; 225 2; 226 4; 227 6; 
228 6; 229 3; 230 8; 231 1; 235 1; 
239 2; 240 3; 241 9; 242 25; 243 43; 
244 15; 245 3; 247 3; 249 6; 250 2; 
251 1; 253 21; 254 1; 255 41; 256 39; 
257 100; 258 31; 259 3; 266 2; 267 4; 
268 6; 269 11; 270 9; 271 609; 272 144; 
273 30; 274 4; 281 21; 282 13; 283 3; 
284 7; 285 111; 286 27; 287 2; 291 1; 
293 1; 295 3; 296 2; 297 5; 298 1; 
299 10; 300 3; 311 16; 312 3; 313 11; 
314 3; 316 1; 325 9; 326 2; 327 5; 
328 3; 329 5; 331 5; 332 3; 339 4; 
340 7; 341 23; 342 9; 343 3; 344 1; 
345 1; 347 3; 348 3; 349 1; 355 6; 
356 4; 360 4; 362 1; 375 304; 376 309; 
377 167; 378 105; 379 22; 380 3; 
