Name: 5-Fluoro-PB-22 3-carboxyindole metabolite-d5
Synon: 5F-PB-22 3-carboxyindole metabolite-d5
InChIKey: DYLIZXRQZRUDLA-ZYNMDDLASA-N
Formula: C14H11D5FNO2
MW: 254
ExactMass: 254.147891
CASNO: 0
ID: 4644
Comment: Provided by www.caymanchem.com/app/template/landing%2CForensic.vm / Item #18144
Num Peaks: 218
40 9; 41 60; 42 13; 43 4; 44 48; 
45 14; 46 15; 47 17; 48 3; 49 3; 
50 7; 51 10; 52 14; 53 12; 54 19; 
55 15; 56 3; 57 10; 58 2; 59 16; 
60 6; 61 10; 62 4; 63 8; 64 20; 
65 14; 66 14; 67 11; 68 15; 69 13; 
70 7; 71 7; 72 4; 73 55; 74 7; 
75 6; 76 15; 77 9; 78 53; 79 25; 
80 57; 81 73; 82 15; 83 4; 84 2; 
85 6; 86 2; 87 5; 88 2; 89 12; 
90 7; 91 19; 92 25; 93 49; 94 27; 
95 23; 96 87; 97 5; 98 4; 99 3; 
100 2; 101 4; 102 4; 103 18; 104 12; 
105 33; 106 60; 107 97; 108 56; 109 8; 
110 5; 111 3; 112 1; 113 3; 114 2; 
115 7; 116 6; 117 8; 118 16; 119 51; 
120 57; 121 53; 122 36; 123 17; 124 2; 
125 7; 126 3; 127 3; 128 2; 129 4; 
130 8; 131 41; 132 101; 133 34; 134 148; 
135 394; 136 101; 137 36; 138 12; 139 5; 
140 2; 141 2; 142 4; 143 3; 144 2; 
145 13; 146 11; 147 28; 148 59; 149 112; 
150 22; 151 32; 152 6; 153 5; 154 4; 
155 5; 156 10; 157 4; 158 11; 159 13; 
160 14; 161 32; 162 7; 163 27; 164 7; 
165 16; 166 19; 167 5; 168 2; 169 2; 
170 2; 171 4; 172 13; 173 7; 174 7; 
175 24; 176 6; 177 50; 178 250; 179 999; 
180 206; 181 31; 182 5; 183 3; 184 2; 
185 4; 186 4; 187 5; 188 8; 189 7; 
190 9; 191 60; 192 8; 193 33; 194 6; 
195 5; 196 6; 197 7; 198 3; 199 4; 
200 1; 201 2; 202 2; 203 2; 204 2; 
205 5; 206 5; 207 190; 208 31; 209 81; 
210 80; 211 10; 212 4; 213 1; 214 1; 
215 2; 216 3; 217 2; 218 1; 219 2; 
220 3; 221 8; 222 4; 223 4; 224 1; 
225 4; 226 2; 227 1; 228 2; 229 2; 
231 1; 232 3; 233 3; 234 4; 235 5; 
236 6; 237 25; 238 2; 239 4; 240 2; 
241 2; 242 2; 243 2; 244 1; 245 2; 
246 2; 247 1; 248 2; 249 4; 250 3; 
251 16; 252 9; 253 90; 254 530; 255 55; 
256 9; 257 5; 258 1; 
