Name: 5-Fluoro-PB-22 3-carboxyindole metabolite
Synon: 1-(5-fluoropentyl)-1H-indole-3-carboxylic acid
Synon: 5F-PB-22 3-carboxyindole metabolite
InChIKey: DYLIZXRQZRUDLA-UHFFFAOYSA-N
Formula: C14H16FNO2
MW: 249
ExactMass: 249.116507
CASNO: 1432794983
ID: 4645
Comment: Provided by www.caymanchem.com/app/template/landing%2CForensic.vm / Item #14381 Batch #0479732
Num Peaks: 185
40 2; 41 80; 42 10; 43 14; 44 26; 
45 6; 46 8; 47 28; 48 1; 49 1; 
50 6; 51 36; 52 5; 53 6; 54 3; 
55 19; 56 3; 57 4; 59 23; 60 1; 
61 2; 62 13; 63 33; 64 11; 65 18; 
66 3; 67 9; 68 1; 69 7; 70 1; 
71 2; 72 1; 73 48; 74 16; 75 29; 
76 23; 77 119; 78 24; 79 3; 80 1; 
81 2; 82 2; 83 2; 84 1; 85 1; 
86 2; 87 13; 88 11; 89 64; 90 24; 
91 36; 92 4; 93 3; 94 2; 95 2; 
96 23; 97 5; 99 1; 100 2; 101 43; 
102 59; 103 81; 104 26; 105 4; 106 1; 
107 1; 109 2; 110 1; 112 1; 113 3; 
114 19; 115 60; 116 53; 117 44; 118 21; 
119 2; 125 2; 126 1; 127 6; 128 139; 
129 59; 130 452; 131 58; 132 53; 133 24; 
134 3; 135 17; 136 1; 137 2; 139 1; 
140 3; 141 2; 142 11; 143 33; 144 97; 
145 13; 146 27; 147 10; 148 4; 149 4; 
150 3; 151 1; 152 3; 153 3; 154 22; 
155 8; 156 39; 157 12; 158 11; 159 1; 
160 3; 161 21; 162 6; 163 8; 164 1; 
165 3; 166 2; 167 2; 168 5; 169 3; 
170 18; 171 4; 172 4; 173 2; 174 999; 
175 194; 176 21; 177 6; 178 3; 179 5; 
180 1; 181 3; 182 2; 183 1; 184 10; 
185 8; 186 1; 187 7; 188 3; 189 2; 
191 15; 192 7; 193 6; 194 4; 195 6; 
196 3; 197 5; 198 1; 200 2; 201 2; 
202 14; 203 6; 204 57; 205 56; 206 3; 
207 86; 208 21; 209 12; 210 2; 211 1; 
212 1; 215 1; 216 7; 217 1; 219 1; 
220 1; 221 3; 222 1; 223 3; 225 1; 
229 1; 230 2; 231 1; 232 15; 233 4; 
234 1; 237 1; 238 1; 239 1; 247 2; 
248 2; 249 447; 250 75; 251 6; 252 1; 
