Name: 5-Fluoro-MDMB-PICA
Synon: N-[[1-(5-fluoropentyl)-1H-indol-3-yl]carbonyl]-3-methyl-L-valine, methyl ester
Synon: 5F-MDMB-PICA
InChIKey: CHSUEEBESACQDV-GOSISDBHSA-N
Formula: C21H29FN2O3
MW: 376
ExactMass: 376.21622
CASNO: 1971007881
ID: 4646
Comment: Provided by www.caymanchem.com/Forensic.vm / Item #20803 Batch #0494659
Num Peaks: 157
41 82; 42 9; 43 20; 44 3; 45 1; 
47 9; 50 1; 51 3; 52 1; 53 4; 
54 1; 55 10; 56 4; 57 69; 58 3; 
59 17; 60 1; 61 3; 62 2; 63 4; 
64 1; 65 2; 67 4; 68 3; 69 29; 
70 5; 71 1; 73 6; 74 2; 75 4; 
76 5; 77 9; 78 3; 79 1; 82 1; 
83 2; 84 1; 86 1; 87 2; 88 7; 
89 27; 90 4; 91 2; 97 1; 101 11; 
102 31; 103 14; 104 1; 112 1; 113 1; 
114 10; 115 39; 116 77; 117 12; 118 3; 
119 1; 127 3; 128 30; 129 63; 130 52; 
131 8; 132 2; 140 1; 141 2; 142 5; 
143 52; 144 238; 145 26; 146 2; 148 1; 
153 1; 154 5; 155 9; 156 11; 157 19; 
158 10; 159 2; 167 3; 168 4; 169 2; 
170 17; 171 6; 172 2; 173 12; 174 3; 
176 2; 177 1; 181 1; 182 2; 183 2; 
184 9; 185 7; 186 2; 196 1; 197 1; 
198 4; 199 2; 200 1; 203 1; 204 5; 
205 14; 206 3; 207 2; 210 2; 211 4; 
212 49; 213 10; 214 2; 228 1; 230 12; 
232 999; 233 173; 234 18; 235 1; 239 1; 
240 1; 241 1; 245 44; 246 7; 247 1; 
248 3; 253 1; 259 11; 260 100; 261 17; 
262 1; 267 1; 268 4; 269 1; 281 1; 
285 1; 287 8; 288 69; 289 12; 290 1; 
300 3; 301 8; 302 10; 303 2; 315 1; 
317 4; 318 1; 320 98; 321 18; 322 2; 
329 7; 330 1; 344 3; 345 4; 356 4; 
357 1; 358 1; 359 3; 361 1; 376 69; 
377 16; 378 2; 
