Name: 5-Fluoro-CUMYL-PICA
InChIKey: ZJCYQNSYQBCKOD-UHFFFAOYSA-N
Synon: 1-(5-fluoropentyl)-N-(1-methyl-1-phenylethyl)-1H-indole-3-carboxamide
Synon: 5F-CUMYL-PICA
Synon: CUMYL-5FPICA
Formula: C23H27FN2O
MW: 366
ExactMass: 366.210741
CASNO: 1400742188
ID: 4647
Comment: Provided by www.caymanchem.com/app/template/landing%2CForensic.vm / Item #17212 Batch #0466221
Num Peaks: 200
41 78; 42 21; 43 25; 44 3; 45 1; 
46 1; 47 14; 50 14; 51 33; 52 9; 
53 6; 54 1; 55 4; 56 2; 57 1; 
58 7; 59 7; 61 7; 62 8; 63 19; 
64 4; 65 18; 66 1; 67 2; 69 13; 
70 1; 73 7; 74 10; 75 15; 76 17; 
77 117; 78 57; 79 23; 80 2; 81 1; 
84 1; 85 1; 86 1; 87 6; 88 11; 
89 42; 90 9; 91 134; 92 14; 93 1; 
94 1; 95 9; 96 2; 99 1; 100 1; 
101 19; 102 48; 103 108; 104 89; 105 43; 
106 4; 107 2; 113 1; 114 18; 115 90; 
116 99; 117 107; 118 120; 119 73; 120 19; 
121 2; 126 1; 127 6; 128 56; 129 55; 
130 77; 131 20; 132 5; 133 5; 134 9; 
135 8; 137 1; 138 2; 140 2; 141 6; 
142 16; 143 65; 144 275; 145 48; 146 9; 
147 9; 148 1; 149 1; 151 1; 152 1; 
153 2; 154 8; 155 101; 156 44; 157 18; 
158 7; 160 5; 161 2; 162 1; 163 1; 
165 3; 166 2; 167 5; 168 3; 169 5; 
170 19; 171 4; 172 3; 173 170; 174 51; 
175 5; 176 2; 177 8; 178 1; 179 2; 
180 2; 181 2; 182 3; 183 4; 184 9; 
185 3; 186 1; 187 2; 188 1; 189 1; 
193 4; 194 3; 195 6; 196 1; 197 3; 
198 3; 199 1; 200 2; 201 1; 202 1; 
203 2; 204 12; 205 4; 206 2; 207 13; 
208 4; 209 4; 210 7; 211 3; 212 16; 
213 4; 214 2; 215 1; 218 1; 219 1; 
220 1; 221 2; 226 1; 227 6; 228 6; 
229 2; 230 41; 231 1; 232 999; 233 157; 
234 15; 235 1; 245 1; 246 1; 248 476; 
249 75; 250 7; 251 1; 253 13; 254 3; 
255 3; 266 1; 267 2; 269 3; 270 1; 
271 4; 272 1; 275 1; 281 6; 282 3; 
283 2; 284 1; 291 5; 292 2; 307 1; 
308 1; 315 1; 327 1; 328 1; 331 4; 
332 1; 342 1; 343 1; 346 6; 349 4; 
350 1; 351 2; 366 151; 367 38; 368 5; 
