Name: 5-Fluoro-BEPIRAPIM
Synon: NNL-2
Synon: (4-benzylpiperazin-1-yl)(1-(5-fluoropentyl)-1H-indol-3-yl)methanone
Synon: 5F-BEPIRAPIM
InChIKey: WHHDMGMJHFYVEK-UHFFFAOYSA-N
Formula: C25H30FN3O
MW: 407
ExactMass: 407.237291
CASNO: 0
ID: 4649
Comment: Provided by www.caymanchem.com/app/template/landing%2CForensic.vm / Item #19730 Batch #0487472
Num Peaks: 233
40 1; 41 76; 42 56; 43 33; 44 12; 
45 1; 46 1; 47 8; 50 3; 51 17; 
52 5; 53 6; 54 7; 55 21; 56 43; 
57 3; 58 5; 59 8; 60 1; 61 6; 
62 2; 63 14; 64 4; 65 68; 66 3; 
67 4; 68 13; 69 16; 70 5; 71 3; 
72 31; 73 28; 74 6; 75 15; 76 8; 
77 22; 78 10; 79 3; 80 4; 81 1; 
82 2; 83 14; 84 3; 85 3; 87 3; 
88 4; 89 49; 90 19; 91 999; 92 92; 
93 5; 96 5; 97 3; 98 1; 99 1; 
101 13; 102 40; 103 22; 104 16; 105 19; 
106 4; 107 1; 111 4; 113 1; 114 8; 
115 42; 116 116; 117 47; 118 22; 119 7; 
120 7; 121 3; 127 4; 128 37; 129 82; 
130 96; 131 50; 132 211; 133 26; 134 38; 
135 13; 136 1; 137 1; 140 1; 141 2; 
142 7; 143 54; 144 380; 145 43; 146 362; 
147 88; 148 4; 149 3; 150 1; 152 1; 
153 2; 154 10; 155 10; 156 16; 157 22; 
158 75; 159 364; 160 53; 161 10; 162 1; 
163 2; 164 1; 165 2; 166 1; 167 2; 
168 5; 169 5; 170 22; 171 4; 172 3; 
173 10; 174 9; 175 144; 176 16; 177 4; 
178 1; 179 3; 180 1; 181 1; 182 1; 
183 2; 184 11; 185 3; 186 1; 187 4; 
188 1; 189 1; 190 1; 191 3; 192 7; 
193 4; 194 1; 195 2; 196 1; 197 9; 
198 2; 199 2; 201 3; 202 1; 203 4; 
204 2; 205 3; 206 2; 207 46; 208 11; 
209 2; 210 1; 211 3; 212 29; 213 7; 
214 3; 218 15; 219 2; 221 3; 222 1; 
223 2; 224 1; 227 1; 228 2; 230 11; 
231 5; 232 841; 233 132; 234 13; 235 1; 
237 1; 239 1; 240 1; 241 2; 245 1; 
247 2; 248 38; 249 38; 250 2; 251 1; 
252 1; 253 20; 254 8; 255 9; 256 1; 
259 1; 261 26; 262 5; 265 1; 266 1; 
268 2; 271 1; 273 1; 274 50; 275 119; 
276 35; 277 6; 281 12; 282 4; 284 2; 
285 1; 287 1; 289 1; 295 1; 301 3; 
311 1; 313 1; 315 1; 316 9; 317 1; 
325 4; 326 1; 327 12; 329 2; 331 10; 
332 7; 333 2; 341 2; 342 1; 343 1; 
346 2; 347 1; 355 1; 356 1; 377 1; 
387 2; 389 1; 390 1; 403 1; 405 3; 
407 61; 408 9; 409 1; 
