Name: 5-Fluoro-PY-PICA
Synon: (1-(5-Fluoropentyl)-1H-indol-3-yl)(pyrrolidin-1-yl)methanone
Synon: 5F-PY-PICA
InChIKey: AJOAHRJLOXOZKX-UHFFFAOYSA-N
Formula: C18H23FN2O
MW: 302
ExactMass: 302.179441
CASNO: 0
ID: 4650
Comment: Provided by www.caymanchem.com/app/template/landing%2CForensic.vm / Item # 18363
Num Peaks: 131
40 2; 41 74; 42 26; 43 25; 44 2; 
45 1; 46 1; 47 12; 50 1; 51 4; 
52 2; 53 5; 54 2; 55 20; 56 11; 
57 1; 59 6; 61 3; 62 3; 63 6; 
64 1; 65 3; 66 1; 67 4; 68 8; 
69 20; 70 30; 71 1; 73 2; 74 2; 
75 7; 76 6; 77 11; 78 4; 85 2; 
87 3; 88 10; 89 36; 90 5; 91 2; 
96 2; 98 10; 99 2; 100 6; 101 14; 
102 32; 103 15; 104 2; 113 16; 114 15; 
115 48; 116 95; 117 14; 118 2; 120 1; 
127 3; 128 33; 129 51; 130 59; 131 8; 
132 1; 133 1; 140 2; 141 5; 142 6; 
143 50; 144 258; 145 26; 146 2; 148 1; 
153 1; 154 7; 155 7; 156 12; 157 12; 
158 11; 159 2; 167 5; 168 5; 169 3; 
170 18; 171 5; 172 2; 173 1; 176 2; 
177 1; 180 1; 182 2; 183 2; 184 8; 
185 15; 186 2; 191 1; 196 1; 197 1; 
198 3; 199 4; 200 1; 204 2; 205 23; 
206 3; 207 6; 209 1; 210 1; 211 1; 
212 38; 213 9; 214 3; 218 5; 219 1; 
227 26; 228 6; 229 1; 230 8; 232 999; 
233 179; 234 16; 235 1; 247 4; 253 1; 
259 1; 260 1; 273 1; 281 2; 282 8; 
283 1; 284 1; 300 1; 302 198; 303 39; 
304 4; 
