Name: threo-Propylphenidate
Synon: (R,R)-rel-.alpha.-phenyl-2-piperidineacetic acid, propyl ester
InChIKey: PRMWWEANNQSWAR-LOACHALJSA-N
Formula: C16H23NO2
MW: 261
ExactMass: 261.172878
CASNO: 0
ID: 4653
Comment: Provided by www.caymanchem.com/app/template/landing%2CForensic.vm / Item #19268 Batch #0481844
Num Peaks: 86
40 9; 41 78; 42 21; 43 78; 44 5; 
45 1; 50 6; 51 14; 52 6; 53 5; 
54 20; 55 63; 56 62; 57 6; 58 1; 
59 1; 61 1; 62 5; 63 18; 64 6; 
65 50; 66 4; 67 8; 68 11; 69 2; 
70 1; 74 1; 75 2; 76 2; 77 23; 
78 7; 79 14; 80 5; 81 1; 82 30; 
83 30; 84 999; 85 58; 86 2; 87 1; 
89 33; 90 35; 91 282; 92 50; 93 3; 
94 1; 96 1; 102 6; 103 10; 104 5; 
105 7; 106 1; 107 6; 115 32; 116 14; 
117 35; 118 32; 119 15; 120 2; 127 3; 
128 9; 129 14; 130 21; 131 6; 132 7; 
133 1; 135 3; 136 34; 137 3; 141 1; 
142 1; 143 2; 144 8; 145 3; 146 2; 
149 1; 158 1; 170 1; 172 12; 173 4; 
174 7; 175 1; 178 20; 179 2; 259 1; 
260 1; 
