Name: MTMP
InChIKey: LWRBVKNFOYUCNP-UHFFFAOYSA-N
Synon: 2-Methyl-4'-(methylthio)-2-Morpholinopropiophenone
Synon: MMMP
Synon: Caccure 907
Synon: 2-methyl-1-(4-(methylthio)phenyl)-2-morpholinopropan-1-one
Formula: C15H21NO2S
MW: 279
ExactMass: 279.1293
CASNO: 71868105
ID: 4660
Comment: Provided by www.caymanchem.com/Forensic.vm / Item#21651 Batch#0500950 / SWGDRUG Monograph available
Num Peaks: 88
41 32; 42 45; 43 15; 44 12; 45 32; 
46 2; 47 3; 50 6; 51 4; 53 1; 
54 8; 55 19; 56 21; 57 5; 58 7; 
62 1; 63 6; 64 1; 65 3; 67 2; 
68 12; 69 36; 70 26; 71 4; 72 2; 
73 1; 74 3; 75 4; 76 8; 77 25; 
78 6; 79 24; 80 2; 81 1; 82 16; 
83 2; 84 70; 85 6; 86 6; 87 1; 
89 3; 90 1; 91 8; 92 1; 93 1; 
95 1; 96 3; 97 7; 98 1; 102 1; 
103 2; 104 2; 105 1; 107 1; 108 37; 
109 6; 110 3; 112 4; 115 5; 116 2; 
117 5; 118 2; 121 8; 122 5; 123 21; 
124 4; 125 2; 126 10; 127 4; 128 999; 
129 95; 130 6; 131 3; 134 1; 135 3; 
136 4; 137 4; 145 2; 146 1; 147 1; 
149 1; 150 1; 151 43; 152 4; 153 2; 
165 3; 207 2; 264 1; 
