Name: U-69,593
Synon: N-Methyl-2-phenyl-N-[(5R,7S,8S)-7-(pyrrolidin-1-yl)-1-oxaspiro[4.5]dec-8-yl]acetamide
InChIKey: PGZRDDYTKFZSFR-BXBRYHBFSA-N
Formula: C22H32N2O2
MW: 356
ExactMass: 356.246378
CASNO: 96744751
ID: 4665
Comment: Provided by www.caymanchem.com/Forensic.vm / Item#13255 Batch#0508870
Num Peaks: 161
40 3; 41 40; 42 58; 43 16; 44 9; 
45 1; 50 1; 51 4; 52 2; 53 9; 
54 14; 55 38; 56 26; 57 45; 58 12; 
62 1; 63 7; 64 3; 65 51; 66 6; 
67 25; 68 30; 69 64; 70 70; 71 15; 
72 7; 73 3; 74 1; 75 1; 76 1; 
77 11; 78 5; 79 24; 80 15; 81 46; 
82 25; 83 19; 84 164; 85 13; 89 19; 
90 21; 91 439; 92 47; 93 12; 94 35; 
95 23; 96 80; 97 124; 98 35; 99 4; 
103 2; 104 2; 105 6; 106 8; 107 10; 
108 18; 109 32; 110 46; 111 14; 112 2; 
113 1; 115 1; 116 2; 117 4; 118 27; 
119 8; 120 10; 121 5; 122 32; 123 38; 
124 39; 125 22; 126 7; 127 1; 129 1; 
130 1; 131 1; 132 8; 133 5; 134 7; 
135 6; 136 32; 137 16; 138 10; 139 12; 
140 36; 141 4; 142 1; 144 4; 146 5; 
147 4; 148 63; 149 19; 150 19; 151 5; 
152 5; 153 2; 154 2; 156 1; 159 1; 
160 4; 162 15; 163 8; 164 27; 165 10; 
166 999; 167 113; 168 18; 169 2; 170 1; 
173 2; 174 3; 175 4; 176 4; 177 13; 
178 7; 179 4; 180 4; 181 1; 186 1; 
188 4; 189 1; 190 1; 191 1; 192 16; 
193 3; 194 9; 195 2; 196 1; 202 1; 
203 8; 204 1; 205 9; 206 6; 207 645; 
208 98; 209 9; 235 1; 237 4; 238 1; 
244 6; 245 2; 249 1; 253 2; 256 1; 
257 5; 258 1; 260 1; 263 1; 265 3; 
271 1; 281 2; 284 1; 285 1; 286 4; 
287 1; 313 1; 325 1; 327 1; 355 1; 
356 1; 
