Name: 2-NMC
Synon: N,2-Dimethyl-N-(4-methylphenyl)-propanamide
InChIKey: GYXHTKZVPMDHQT-UHFFFAOYSA-N
Formula: C12H17NO
MW: 191
ExactMass: 191.131014
CASNO: 849642097
ID: 4667
Comment: Provided by www.caymanchem.com/Forensic.vm / Item#22488 Batch#0509536
Num Peaks: 83
40 9; 41 109; 42 24; 43 229; 44 8; 
50 9; 51 26; 52 16; 53 11; 54 3; 
55 8; 56 3; 58 1; 61 1; 62 6; 
63 24; 64 9; 65 106; 66 14; 67 3; 
68 2; 69 3; 70 3; 71 54; 72 2; 
73 1; 74 3; 75 4; 76 9; 77 92; 
78 36; 79 23; 80 10; 81 1; 84 24; 
85 1; 86 1; 87 2; 88 1; 89 27; 
90 20; 91 241; 92 51; 93 18; 94 3; 
102 2; 103 6; 104 25; 105 20; 106 27; 
107 8; 108 1; 115 2; 116 3; 117 11; 
118 66; 119 31; 120 425; 121 999; 122 92; 
123 3; 130 2; 131 2; 132 18; 133 14; 
134 3; 144 1; 145 1; 146 3; 147 1; 
148 36; 149 4; 160 3; 161 1; 162 3; 
174 1; 175 1; 176 6; 189 1; 190 1; 
191 228; 192 32; 193 1; 
