Name: Cannabicitran
Synon: CBT
Synon: (6a.alpha.,9.beta.,10a.alpha.)-6a,7,8,9,10,10a-Hexahydro-6,6,9-trimethyl-3-pentyl-1,9-epoxy-6H-dibenzo[b,d]pyran
InChIKey: IXJXRDCCQRZSDV-UHFFFAOYSA-N
Formula: C21H30O2
MW: 314
ExactMass: 314.22458
CASNO: 31508711
ID: 4668
Comment: Provided by www.caymanchem.com/Forensic.vm / Item# 9002481 Batch# 0496503
Num Peaks: 194
40 4; 41 94; 42 6; 43 53; 44 1; 
50 1; 51 4; 52 3; 53 17; 54 3; 
55 33; 56 9; 57 6; 59 2; 63 3; 
64 1; 65 13; 66 5; 67 32; 68 10; 
69 46; 70 3; 71 3; 75 1; 76 1; 
77 33; 78 10; 79 28; 80 6; 81 20; 
82 4; 83 3; 87 1; 89 5; 90 2; 
91 48; 92 7; 93 18; 94 4; 95 10; 
96 1; 102 4; 103 11; 104 3; 105 20; 
106 4; 107 26; 108 7; 109 8; 110 1; 
115 31; 116 9; 117 12; 118 3; 119 19; 
120 5; 121 16; 122 7; 123 11; 124 5; 
126 1; 127 9; 128 24; 129 16; 130 4; 
131 17; 132 5; 133 11; 134 10; 135 10; 
136 8; 137 6; 138 1; 139 2; 140 1; 
141 12; 142 5; 143 7; 144 7; 145 18; 
146 5; 147 25; 148 6; 149 11; 150 6; 
151 2; 152 6; 153 6; 154 3; 155 5; 
156 2; 157 10; 158 6; 159 12; 160 22; 
161 26; 162 7; 163 10; 164 2; 165 10; 
166 3; 167 2; 168 2; 169 5; 170 2; 
171 9; 172 5; 173 22; 174 98; 175 38; 
176 12; 177 6; 178 4; 179 2; 180 1; 
181 5; 182 2; 183 6; 184 3; 185 7; 
186 8; 187 40; 188 15; 189 13; 190 7; 
191 5; 192 1; 193 40; 194 6; 195 3; 
196 1; 197 5; 198 3; 199 11; 200 7; 
201 25; 202 9; 203 6; 204 1; 205 1; 
206 2; 207 6; 208 2; 209 1; 210 1; 
211 3; 212 2; 213 7; 214 7; 215 15; 
216 4; 217 17; 218 8; 219 3; 221 5; 
222 1; 225 2; 226 1; 227 4; 228 2; 
229 13; 231 999; 232 199; 233 98; 234 14; 
235 2; 241 3; 242 3; 243 53; 244 12; 
245 9; 246 27; 247 4; 253 1; 255 2; 
256 1; 257 20; 258 59; 259 24; 260 3; 
269 1; 271 76; 272 21; 273 3; 281 1; 
285 4; 286 3; 297 3; 299 65; 300 14; 
301 1; 314 166; 315 37; 316 5; 
