Name: 4-Anilino-N-phenethylpiperidine-d5
Synon: 4-ANPP-d5
Synon: N-(1-Phenethyl-piperidin-4-yl)-aniline-d5
Synon: ANPP-d5
Synon: N-phenyl-d5-1-(2-phenylethyl)-4-piperidinamine
InChIKey: ZCMDXDQUYIWEKB-OUHXUHDZSA-N
Formula: C19H19D5N2
MW: 285
ExactMass: 285.225332
CASNO: 1189466156
ID: 4669
Comment: Provided by www.caymanchem.com/Forensic.vm / Item# 19232 Batch# 0505084
Num Peaks: 127
40 2; 41 32; 42 162; 43 16; 44 170; 
45 5; 50 4; 51 14; 52 8; 53 10; 
54 28; 55 18; 56 22; 57 18; 58 2; 
62 2; 63 11; 64 4; 65 69; 66 9; 
67 10; 68 26; 69 20; 70 82; 71 15; 
72 1; 73 1; 74 1; 75 2; 76 3; 
77 61; 78 23; 79 49; 80 15; 81 17; 
82 99; 83 20; 84 9; 85 1; 89 15; 
90 8; 91 222; 92 21; 93 4; 94 13; 
95 25; 96 160; 97 88; 98 30; 99 9; 
102 5; 103 42; 104 25; 105 136; 106 14; 
107 4; 108 7; 109 43; 110 16; 111 33; 
112 3; 115 4; 116 2; 117 8; 118 4; 
119 6; 120 11; 121 22; 122 70; 123 135; 
124 44; 125 12; 126 1; 128 1; 129 1; 
130 11; 131 5; 132 10; 133 7; 134 38; 
135 30; 136 33; 137 124; 138 16; 139 2; 
143 1; 144 2; 145 1; 146 2; 147 3; 
148 10; 149 8; 150 33; 151 999; 152 118; 
153 16; 154 1; 156 1; 158 2; 160 32; 
161 5; 162 2; 163 4; 164 3; 165 6; 
166 1; 178 1; 184 3; 185 2; 186 6; 
187 2; 188 3; 191 1; 192 10; 193 28; 
194 802; 195 116; 196 8; 207 5; 253 1; 
256 1; 281 2; 283 2; 284 2; 285 47; 
286 11; 287 1; 
