Name: N-Methyl Benzedrone
Synon: 2-(Benzyl(methyl)amino)-1-(p-tolyl)propan-1-one
Synon: N-Methyl-4-MBC
InChIKey: UIOKRZKDMRJWFG-UHFFFAOYSA-N
Formula: C18H21NO
MW: 267
ExactMass: 267.162313
CASNO: 0
ID: 4671
Comment: Provided by www.caymanchem.com/Forensic.vm / Item# 21214 Batch# 0503933
Num Peaks: 61
41 9; 42 33; 43 1; 44 1; 50 5; 
51 12; 52 4; 53 1; 54 3; 55 4; 
56 29; 57 6; 58 1; 62 5; 63 25; 
64 8; 65 146; 66 8; 70 1; 71 1; 
74 2; 75 3; 76 3; 77 16; 78 5; 
79 3; 87 1; 89 43; 90 23; 91 999; 
92 79; 93 3; 102 1; 103 5; 104 4; 
105 12; 106 1; 115 4; 116 1; 117 5; 
118 8; 119 64; 120 10; 121 1; 128 1; 
130 2; 131 3; 132 8; 133 2; 144 1; 
145 2; 146 11; 147 5; 148 770; 149 87; 
150 4; 160 1; 165 1; 166 1; 250 1; 
265 1; 
