Name: 2-Chloroethcathinone
Synon: 1-(2-Chlorophenyl)-2-(ethylamino)-1-propanone
Synon: 2-CEC
InChIKey: SSLLMDUMCHGPJN-UHFFFAOYSA-N
Formula: C11H14ClNO
MW: 211
ExactMass: 211.076392
CASNO: 879660238
ID: 4674
Comment: Provided by www.caymanchem.com/Forensic.vm / Item# 21260 Batch# 0497511
Num Peaks: 79
41 9; 42 53; 43 9; 44 207; 45 5; 
49 1; 50 24; 51 15; 52 2; 53 1; 
54 3; 55 4; 56 32; 57 8; 61 2; 
62 2; 63 5; 64 1; 65 1; 68 3; 
69 1; 70 47; 71 8; 72 999; 73 52; 
74 22; 75 88; 76 22; 77 28; 78 3; 
79 1; 84 3; 85 10; 86 2; 87 4; 
88 1; 89 4; 90 1; 91 3; 101 2; 
102 3; 103 7; 104 6; 105 5; 110 2; 
111 89; 112 11; 113 30; 114 4; 115 5; 
116 2; 117 2; 118 2; 119 3; 125 6; 
127 2; 128 1; 130 2; 131 4; 132 2; 
133 2; 138 1; 139 50; 140 5; 141 16; 
142 2; 144 2; 146 3; 158 1; 160 4; 
161 1; 166 2; 167 1; 168 4; 169 1; 
170 1; 174 1; 175 5; 196 1; 
