Name: Etomidate
Synon: 1-[(1R)-1-Phenylethyl]-1H-imidazole-5-carboxylic acid ethyl ester
Synon: R 16659
InChIKey: NPUKDXXFDDZOKR-LLVKDONJSA-N
Formula: C14H16N2O2
MW: 244
ExactMass: 244.121178
CASNO: 33125972
ID: 4676
Comment: Provided by www.caymanchem.com/Forensic.vm / Item#21993 Batch#0504684
Num Peaks: 78
41 3; 42 3; 43 8; 44 2; 45 3; 
50 8; 51 27; 52 11; 53 8; 54 1; 
62 2; 63 11; 64 3; 65 9; 66 15; 
67 22; 68 6; 69 2; 74 4; 75 6; 
76 9; 77 158; 78 51; 79 111; 80 7; 
87 1; 89 9; 90 3; 91 13; 92 3; 
93 1; 94 11; 95 39; 96 3; 99 1; 
101 4; 102 16; 103 107; 104 202; 105 999; 
106 86; 107 5; 112 5; 115 13; 116 8; 
117 5; 118 1; 121 9; 122 1; 127 1; 
128 10; 129 5; 130 3; 131 1; 135 1; 
140 2; 141 2; 142 3; 143 10; 144 3; 
155 6; 156 2; 168 1; 169 7; 170 7; 
171 8; 172 8; 173 1; 183 1; 184 1; 
197 6; 198 17; 199 23; 200 5; 215 1; 
244 107; 245 17; 246 1; 
