Name: 2-Fluoro Deschloroketamine
InChIKey: PHFAGYYTDLITTB-UHFFFAOYSA-N
Synon: 2-FDCK
Synon: 2-(2-Fluorophenyl)-2-(methylamino)-cyclohexanone
Formula: C13H16FNO
MW: 221
ExactMass: 221.1215925
CASNO: 111982491
ID: 4677
Comment: Provided by www.caymanchem.com/Forensic.vm / Item#19786 Batch#0504940 / SWGDRUG Monograph available
Num Peaks: 131
40 3; 41 30; 42 44; 43 3; 44 9; 
50 6; 51 11; 52 3; 53 4; 54 8; 
55 13; 56 11; 57 8; 58 3; 59 1; 
61 1; 62 3; 63 9; 64 2; 65 6; 
66 2; 67 4; 68 15; 69 7; 70 17; 
71 2; 73 2; 74 9; 75 48; 76 10; 
77 12; 78 3; 79 1; 80 2; 81 6; 
82 10; 83 18; 84 2; 86 1; 87 3; 
89 9; 90 2; 91 5; 92 1; 93 2; 
94 17; 95 35; 96 23; 97 3; 98 14; 
99 3; 100 4; 101 49; 102 89; 103 16; 
104 4; 105 2; 106 1; 107 19; 108 7; 
109 104; 110 10; 113 1; 114 1; 115 43; 
116 8; 117 10; 118 4; 119 1; 120 14; 
121 53; 122 154; 123 18; 124 2; 125 1; 
126 2; 127 4; 128 5; 129 2; 130 8; 
131 5; 132 27; 133 58; 134 19; 135 141; 
136 163; 137 17; 138 16; 139 2; 141 1; 
142 1; 143 2; 144 18; 145 11; 146 54; 
147 14; 148 18; 149 12; 150 122; 151 50; 
152 5; 157 1; 158 1; 159 2; 160 1; 
161 5; 162 20; 163 16; 164 999; 165 113; 
166 6; 172 4; 173 11; 174 9; 175 2; 
176 4; 177 1; 178 45; 179 6; 190 3; 
191 2; 192 54; 193 208; 194 28; 195 1; 
202 1; 203 1; 204 1; 205 1; 218 1; 
221 6; 
