Name: Homarylamine
Synon: N-Methyl-1,3-benzodioxole-5-ethanamine
Synon: MDMPEA
Synon: MK-71
Synon: N-Methylhomopiperonylamine
Synon: N-Methyl-3,4-Methylenedioxyphenethylamine
InChIKey: OPJOMVMFYOUDPK-UHFFFAOYSA-N
Formula: C10H13NO2
MW: 179
ExactMass: 179.094628
CASNO: 533108
ID: 4679
Comment: Provided by www.caymanchem.com/Forensic.vm / Item#21351 Batch#0498648
Num Peaks: 72
41 10; 42 59; 43 26; 44 999; 45 26; 
49 1; 50 22; 51 77; 52 14; 53 14; 
54 2; 55 2; 56 6; 57 4; 58 10; 
61 4; 62 18; 63 40; 64 11; 65 35; 
66 6; 67 5; 68 2; 73 1; 74 10; 
75 9; 76 15; 77 142; 78 49; 79 26; 
80 6; 81 2; 86 1; 87 2; 89 31; 
90 7; 91 34; 92 6; 93 2; 94 2; 
102 1; 103 2; 104 7; 105 33; 106 20; 
107 7; 108 1; 116 1; 117 3; 118 5; 
119 8; 120 9; 121 9; 122 2; 132 1; 
133 1; 134 6; 135 193; 136 550; 137 49; 
138 4; 146 1; 147 22; 148 20; 149 9; 
150 1; 163 2; 176 4; 177 13; 178 4; 
179 18; 180 2; 
