Name: 6.alpha.-Oxycodol
Synon: 4,5.alpha.-Epoxy-3-methoxy-17-methyl-morphinan-6.alpha.,14-diol
Synon: Dihydrooxycodone
InChIKey: LHTAJTFGGUDLRH-QMVVXIJUSA-N
Formula: C18H23NO4
MW: 317
ExactMass: 317.162708
CASNO: 7183699
ID: 4681
Comment: Provided by www.caymanchem.com/Forensic.vm / Item# 21538 Batch# 0500972
Num Peaks: 257
41 48; 42 234; 43 87; 44 221; 45 15; 
46 1; 47 1; 50 5; 51 18; 52 8; 
53 20; 54 10; 55 68; 56 27; 57 109; 
58 190; 59 24; 60 5; 61 1; 62 4; 
63 21; 64 10; 65 31; 66 11; 67 13; 
68 14; 69 22; 70 459; 71 68; 72 36; 
73 16; 74 11; 75 14; 76 16; 77 84; 
78 31; 79 27; 80 10; 81 18; 82 29; 
83 14; 84 27; 85 38; 86 24; 87 11; 
88 8; 89 37; 90 16; 91 77; 92 16; 
93 12; 94 36; 95 12; 96 18; 97 12; 
98 51; 99 22; 100 16; 101 15; 102 41; 
103 63; 104 19; 105 29; 106 15; 107 22; 
108 16; 109 11; 110 13; 111 7; 112 13; 
113 19; 114 28; 115 223; 116 63; 117 43; 
118 27; 119 18; 120 19; 121 41; 123 12; 
124 11; 125 6; 126 14; 127 78; 128 126; 
129 70; 130 33; 131 77; 132 36; 133 23; 
134 16; 135 15; 136 6; 137 26; 138 11; 
139 37; 140 19; 141 50; 142 51; 143 47; 
144 74; 145 55; 146 53; 147 39; 148 17; 
149 5; 150 16; 151 19; 152 48; 153 38; 
154 21; 155 49; 156 33; 157 57; 158 46; 
159 56; 160 50; 161 69; 162 80; 163 19; 
164 13; 165 28; 166 14; 167 16; 168 36; 
169 36; 170 37; 171 54; 172 35; 173 60; 
174 58; 175 133; 176 45; 177 28; 178 30; 
179 72; 180 105; 181 51; 182 26; 183 38; 
184 47; 185 91; 186 63; 187 82; 188 97; 
189 93; 190 57; 191 22; 192 23; 193 11; 
194 8; 195 16; 196 19; 197 30; 198 79; 
199 107; 200 67; 201 192; 202 79; 203 73; 
204 50; 205 13; 206 12; 207 42; 208 12; 
209 16; 210 17; 211 28; 212 31; 213 65; 
214 116; 215 73; 216 208; 217 92; 218 41; 
219 11; 220 4; 221 3; 222 4; 223 8; 
224 12; 225 21; 226 23; 227 38; 228 59; 
229 55; 230 279; 231 66; 232 66; 233 19; 
234 7; 235 1; 236 2; 237 4; 238 9; 
239 10; 240 33; 241 26; 242 76; 243 47; 
244 30; 245 41; 246 58; 247 13; 248 5; 
249 2; 250 2; 251 2; 252 5; 253 9; 
254 16; 255 11; 256 31; 257 13; 258 64; 
259 20; 260 101; 261 48; 262 8; 264 1; 
265 1; 266 7; 267 4; 268 9; 269 5; 
270 13; 271 8; 272 16; 273 16; 274 37; 
275 7; 276 1; 280 7; 281 18; 282 12; 
283 4; 284 16; 285 4; 286 7; 287 3; 
288 11; 289 16; 290 3; 298 55; 299 26; 
300 257; 301 52; 302 57; 303 9; 304 1; 
314 2; 315 21; 316 103; 317 999; 318 193; 
319 27; 320 3; 
