Name: 6.alpha.-Oxymorphol
Synon: Hydromorphinol
Synon: (5.alpha.,6.alpha.)-4,5-Epoxy-17-methyl-morphinan-3,6,14-triol
InChIKey: AABLHGPVOULICI-BRJGLHKUSA-N
Formula: C17H21NO4
MW: 303
ExactMass: 303.147058
CASNO: 2183564
ID: 4684
Comment: Provided by www.caymanchem.com/Forensic.vm / Item#21542 Batch#0500978
Num Peaks: 246
41 64; 42 320; 43 121; 44 324; 45 21; 
46 4; 47 1; 50 7; 51 29; 52 13; 
53 32; 54 14; 55 94; 56 38; 57 200; 
58 276; 59 30; 60 8; 61 1; 62 5; 
63 29; 64 13; 65 51; 66 18; 67 18; 
68 19; 69 25; 70 587; 71 92; 72 46; 
73 27; 74 12; 75 17; 76 18; 77 115; 
78 43; 79 39; 80 15; 81 26; 82 41; 
83 21; 84 36; 85 44; 86 33; 87 14; 
88 10; 89 45; 90 17; 91 111; 92 20; 
93 16; 94 49; 95 12; 96 26; 97 13; 
98 54; 99 30; 100 13; 101 20; 102 41; 
103 72; 104 24; 105 33; 106 16; 107 31; 
108 29; 109 11; 110 17; 111 9; 112 16; 
113 20; 115 242; 116 58; 117 54; 118 31; 
119 23; 120 21; 121 48; 122 16; 123 26; 
124 17; 125 6; 126 16; 127 98; 128 114; 
129 65; 130 36; 131 126; 132 51; 133 28; 
134 19; 135 15; 136 17; 137 14; 138 8; 
139 88; 140 22; 141 47; 142 41; 143 47; 
144 75; 145 61; 146 50; 147 105; 148 42; 
149 16; 150 14; 151 15; 152 53; 153 42; 
154 22; 155 34; 156 22; 157 65; 158 29; 
159 37; 160 73; 161 130; 162 97; 163 41; 
164 35; 165 72; 166 21; 167 16; 168 29; 
169 31; 170 24; 171 91; 172 47; 173 100; 
174 103; 175 98; 176 71; 177 29; 178 32; 
179 11; 180 85; 181 50; 182 20; 183 24; 
184 53; 185 70; 186 66; 187 130; 188 62; 
189 67; 190 51; 191 20; 192 11; 193 11; 
194 7; 195 12; 196 14; 197 37; 198 35; 
199 72; 200 100; 201 67; 202 123; 203 91; 
204 40; 205 11; 207 48; 208 13; 209 14; 
210 16; 211 24; 212 20; 213 31; 214 78; 
215 73; 216 302; 217 68; 218 57; 219 19; 
220 2; 221 2; 222 3; 223 6; 224 10; 
225 12; 226 50; 227 30; 228 94; 229 50; 
230 34; 231 37; 232 46; 233 11; 234 4; 
235 2; 236 3; 237 1; 238 6; 239 4; 
240 17; 241 11; 242 36; 243 12; 244 54; 
245 17; 246 62; 247 31; 248 7; 249 2; 
250 2; 251 1; 252 4; 253 13; 254 15; 
255 5; 256 21; 257 17; 258 19; 259 19; 
260 25; 261 4; 262 1; 265 1; 266 14; 
267 9; 268 16; 269 4; 270 10; 271 3; 
272 5; 273 2; 274 11; 275 10; 276 1; 
281 22; 282 6; 283 5; 284 58; 285 34; 
286 240; 287 49; 288 22; 289 4; 297 1; 
301 11; 302 105; 303 999; 304 189; 305 24; 
306 3; 
