Name: 6.beta.-Naloxol
Synon: NLL
Synon: 4,5.alpha.-Epoxy-17-(2-propen-1-yl)-morphinan-3,6.beta.,14-triol
InChIKey: HMWHERQFMBEHNG-CSJNCLCHSA-N
Formula: C19H23NO4
MW: 329
ExactMass: 329.162708
CASNO: 53154124
ID: 4687
Comment: Provided by www.caymanchem.com/Forensic.vm / Item#22148 Batch#0505566
Num Peaks: 281
40 17; 41 447; 42 115; 43 82; 44 54; 
45 18; 46 1; 47 6; 50 5; 51 31; 
52 9; 53 29; 54 31; 55 101; 56 60; 
57 84; 58 20; 59 6; 60 4; 61 2; 
62 3; 63 18; 64 11; 65 39; 66 20; 
67 34; 68 191; 69 57; 70 200; 71 26; 
72 6; 73 76; 74 8; 75 15; 76 7; 
77 107; 78 46; 79 22; 80 41; 81 26; 
82 999; 83 228; 84 187; 85 69; 86 17; 
87 11; 88 2; 89 38; 90 13; 91 111; 
92 23; 93 12; 94 14; 95 19; 96 231; 
97 36; 98 14; 99 16; 100 4; 101 16; 
102 31; 103 68; 104 22; 105 33; 106 23; 
107 21; 108 21; 109 9; 110 19; 111 7; 
112 15; 113 10; 114 20; 115 225; 116 57; 
117 59; 118 35; 119 33; 120 13; 121 16; 
122 12; 123 24; 124 13; 125 4; 126 18; 
127 98; 128 112; 129 60; 130 32; 131 112; 
132 23; 133 30; 134 20; 135 45; 136 24; 
137 10; 138 9; 139 15; 140 16; 141 54; 
142 20; 143 28; 144 62; 145 68; 146 41; 
147 91; 148 20; 149 15; 150 18; 151 19; 
152 45; 153 20; 154 41; 155 41; 156 31; 
157 64; 158 31; 159 38; 160 38; 161 133; 
162 52; 163 22; 164 4; 165 29; 166 14; 
167 21; 168 34; 169 20; 170 33; 171 87; 
172 65; 173 110; 174 84; 175 84; 176 21; 
177 44; 178 10; 179 14; 180 13; 181 51; 
182 29; 183 38; 184 86; 185 112; 186 71; 
187 134; 188 68; 189 58; 190 20; 191 34; 
192 11; 193 21; 194 9; 195 33; 196 14; 
197 52; 198 44; 199 83; 200 120; 201 139; 
202 121; 203 50; 204 27; 205 9; 206 7; 
207 139; 208 40; 209 35; 210 39; 211 23; 
212 57; 213 43; 214 46; 215 51; 216 29; 
217 15; 218 9; 219 4; 220 2; 221 10; 
222 8; 223 11; 224 25; 225 15; 226 33; 
227 30; 228 149; 229 100; 230 280; 231 64; 
232 17; 233 7; 234 5; 235 5; 236 6; 
237 8; 238 10; 239 10; 240 21; 241 27; 
242 150; 243 27; 244 44; 245 11; 246 70; 
247 15; 248 5; 249 11; 250 8; 251 8; 
252 17; 253 71; 254 37; 255 24; 256 17; 
257 9; 258 8; 259 6; 260 6; 261 3; 
262 1; 263 1; 264 4; 265 21; 266 8; 
267 24; 268 16; 269 7; 270 44; 271 12; 
272 20; 273 10; 274 4; 276 1; 278 4; 
279 1; 280 2; 281 64; 282 32; 283 16; 
284 24; 285 9; 286 10; 287 10; 288 168; 
289 18; 290 4; 291 1; 292 11; 293 7; 
294 16; 295 6; 296 8; 297 1; 299 1; 
300 20; 301 8; 302 49; 303 10; 304 1; 
305 1; 306 1; 310 22; 311 21; 312 31; 
313 9; 314 6; 315 4; 316 2; 317 2; 
318 1; 321 1; 322 1; 325 5; 326 4; 
327 14; 328 50; 329 412; 330 85; 331 28; 
332 2; 
