Name: 1-(m-Fluorophenyl)piperazine
Synon: mFPP
Synon: 1-(3-Fluorophenyl)-piperazine
Synon: 1-(meta-Fluorophenyl) piperazine
Synon: meta-FPP
Synon: 3-FPP
InChIKey: KIFCSMQTGWVMOD-UHFFFAOYSA-N
Formula: C10H13FN2
MW: 180
ExactMass: 180.1062765
CASNO: 76835104
ID: 4690
Comment: Provided by www.caymanchem.com/Forensic.vm / Item#21953 Batch#0505049
Num Peaks: 88
41 11; 42 27; 43 10; 44 3; 45 1; 
50 9; 51 8; 52 3; 53 1; 54 9; 
55 7; 56 86; 57 47; 58 4; 61 2; 
62 2; 63 7; 64 2; 65 1; 68 9; 
69 15; 70 8; 71 1; 73 1; 74 11; 
75 81; 76 10; 77 9; 78 2; 81 7; 
82 4; 83 19; 84 3; 85 2; 88 1; 
89 3; 90 12; 91 4; 92 1; 93 2; 
94 10; 95 168; 96 43; 97 12; 98 1; 
101 2; 102 2; 103 1; 104 1; 107 4; 
108 4; 109 61; 110 8; 111 3; 112 1; 
116 1; 117 3; 118 2; 119 1; 120 1; 
121 4; 122 182; 123 137; 124 46; 125 14; 
126 1; 130 1; 133 1; 134 1; 135 8; 
136 16; 137 11; 138 999; 139 94; 140 4; 
148 4; 149 4; 150 14; 151 3; 152 1; 
163 2; 165 3; 177 2; 178 7; 179 5; 
180 288; 181 35; 182 2; 
