Name: 5-Fluoro-ADB metabolite 7
Synon: 5-Fluoro-MDMB-PINACA metabolite 7
Synon: 5F-MDMB-PINACA metabolite 7
Synon: 5F-ADB metabolite 7
Synon: (S)-2-(1-(5-Fluoropentyl)-1H-indazole-3-carboxamido)-3,3-dimethylbutanoic acid
InChIKey: MVDXLPCBCLGFHC-MRXNPFEDSA-N
Formula: C19H26FN3O3
MW: 363
ExactMass: 363.19582
CASNO: 0
ID: 4702
Comment: Provided by www.caymanchem.com/Forensic.vm / Item#20178 Batch#0504648
Num Peaks: 285
41 295; 42 78; 43 64; 44 75; 45 43; 
46 7; 47 26; 48 1; 49 1; 50 16; 
51 32; 52 11; 53 36; 54 19; 55 94; 
56 44; 57 480; 58 17; 59 72; 60 9; 
61 18; 62 13; 63 21; 64 10; 65 16; 
66 9; 67 24; 68 21; 69 89; 70 41; 
71 7; 72 9; 73 497; 74 57; 75 68; 
76 46; 77 112; 78 39; 79 13; 80 12; 
81 28; 82 28; 83 11; 84 21; 85 11; 
86 2; 87 28; 88 80; 89 71; 90 112; 
91 40; 92 12; 93 26; 94 23; 95 4; 
96 109; 97 19; 98 6; 99 3; 100 4; 
101 19; 102 94; 103 235; 104 65; 105 30; 
106 15; 107 12; 108 5; 109 6; 110 7; 
111 1; 112 13; 113 22; 114 16; 115 36; 
116 43; 117 76; 118 53; 119 58; 120 15; 
121 11; 122 4; 123 4; 124 1; 125 9; 
126 9; 127 4; 128 29; 129 98; 130 109; 
131 729; 132 82; 133 133; 134 12; 135 101; 
136 13; 137 12; 138 4; 139 1; 140 52; 
141 20; 142 32; 143 79; 144 71; 145 389; 
146 55; 147 113; 148 9; 149 41; 150 13; 
151 7; 152 12; 153 7; 154 46; 155 18; 
156 159; 157 91; 158 86; 159 26; 160 6; 
161 13; 162 5; 163 36; 164 7; 165 19; 
166 13; 167 12; 168 182; 169 37; 170 22; 
171 91; 172 23; 173 14; 174 1; 175 6; 
176 7; 177 93; 178 20; 179 19; 180 9; 
181 8; 182 3; 183 2; 184 7; 185 20; 
186 38; 187 26; 188 4; 189 11; 190 5; 
191 135; 192 31; 193 97; 194 23; 195 43; 
196 21; 197 39; 198 18; 199 7; 200 4; 
201 92; 202 18; 203 9; 204 3; 205 15; 
206 10; 207 999; 208 208; 209 137; 210 28; 
211 11; 212 77; 213 57; 214 220; 215 76; 
216 15; 218 3; 219 3; 220 1; 221 17; 
222 2; 223 16; 224 10; 225 10; 226 14; 
227 95; 228 25; 229 2; 230 1; 231 34; 
232 5; 233 235; 234 43; 235 5; 237 4; 
238 1; 239 13; 240 9; 241 3; 242 13; 
243 12; 244 4; 245 1; 247 4; 249 36; 
250 15; 251 32; 252 8; 253 159; 254 29; 
255 32; 256 7; 257 7; 259 3; 260 1; 
261 11; 262 2; 263 1; 264 1; 265 33; 
266 14; 267 66; 268 26; 269 33; 270 13; 
271 10; 272 5; 273 1; 274 1; 275 1; 
277 1; 279 2; 281 377; 282 111; 283 73; 
284 20; 285 6; 286 30; 287 10; 288 2; 
289 966; 290 170; 291 20; 293 2; 295 4; 
297 3; 298 3; 301 11; 302 1; 303 46; 
304 9; 309 2; 310 1; 311 6; 312 1; 
313 8; 314 1; 315 14; 316 5; 317 8; 
319 9; 323 3; 325 33; 326 9; 327 59; 
328 12; 329 19; 330 5; 331 47; 332 16; 
333 8; 334 2; 339 2; 341 91; 342 29; 
343 31; 344 8; 345 29; 346 33; 347 7; 
348 3; 355 54; 356 19; 357 11; 358 7; 
