Name: CHM-122
Synon: [1-(Cyclohexylmethyl)-1H-indol-3-yl](4-methyl-1-naphthalenyl)-methanone
InChIKey: LRHHYHXSAWSXNA-UHFFFAOYSA-N
Formula: C27H27NO
MW: 381
ExactMass: 381.209265
CASNO: 1373876299
ID: 4707
Comment: Provided by www.caymanchem.com/Forensic.vm / Item#22043 Batch#0504582
Num Peaks: 278
40 12; 41 347; 42 20; 43 62; 44 3; 
45 10; 46 1; 47 2; 49 3; 50 16; 
51 29; 52 14; 53 62; 54 50; 55 762; 
56 39; 57 5; 58 2; 59 5; 61 6; 
62 6; 63 23; 64 6; 65 26; 66 10; 
67 96; 68 12; 69 37; 70 2; 71 2; 
72 1; 73 90; 74 34; 75 23; 76 7; 
77 51; 78 26; 79 37; 80 5; 81 36; 
82 11; 83 24; 84 3; 85 6; 86 2; 
87 10; 88 12; 89 50; 90 9; 91 33; 
92 6; 93 8; 94 3; 95 15; 96 45; 
97 56; 98 3; 99 2; 100 1; 101 29; 
102 77; 103 34; 104 8; 105 6; 106 4; 
107 5; 108 1; 110 2; 111 2; 112 4; 
113 17; 114 21; 115 382; 116 115; 117 28; 
118 12; 119 13; 120 4; 121 9; 122 1; 
125 4; 126 11; 127 24; 128 144; 129 122; 
130 108; 131 21; 132 13; 133 42; 134 19; 
135 48; 136 9; 137 7; 138 4; 139 134; 
140 57; 141 547; 142 122; 143 33; 144 339; 
145 36; 146 5; 147 14; 148 6; 149 20; 
150 13; 151 6; 152 23; 153 35; 154 37; 
155 43; 156 47; 157 13; 158 26; 159 4; 
161 5; 162 2; 163 6; 164 7; 165 20; 
166 8; 167 18; 168 27; 169 646; 170 94; 
171 5; 174 1; 175 5; 176 8; 177 19; 
178 6; 179 12; 180 10; 181 300; 182 56; 
183 8; 184 4; 185 2; 187 5; 188 1; 
189 9; 190 1; 191 47; 192 14; 193 18; 
194 10; 195 12; 196 2; 197 13; 198 3; 
199 3; 200 7; 201 5; 202 10; 203 9; 
204 1; 205 3; 206 3; 207 278; 208 60; 
209 37; 210 10; 211 15; 212 58; 213 24; 
214 30; 215 16; 216 2; 217 3; 218 1; 
219 3; 221 10; 222 2; 223 5; 224 14; 
225 10; 226 56; 227 22; 228 24; 229 20; 
230 2; 231 1; 235 3; 236 2; 237 10; 
238 16; 239 35; 240 416; 241 215; 242 32; 
243 6; 244 1; 249 14; 250 6; 251 15; 
252 18; 253 102; 254 237; 255 133; 256 69; 
257 18; 258 4; 263 1; 264 4; 265 21; 
266 26; 267 63; 268 206; 269 125; 270 190; 
271 22; 272 6; 273 1; 278 7; 279 5; 
280 31; 281 112; 282 96; 283 91; 284 341; 
285 88; 286 28; 287 2; 293 3; 294 3; 
295 2; 296 28; 297 6; 298 999; 299 255; 
300 37; 301 2; 307 1; 308 1; 310 1; 
311 4; 313 4; 315 4; 316 1; 320 1; 
323 1; 325 3; 326 2; 327 16; 328 3; 
329 4; 331 7; 332 6; 333 2; 339 1; 
341 8; 342 4; 343 6; 344 1; 346 5; 
347 2; 348 8; 349 2; 352 7; 353 8; 
355 9; 356 9; 357 7; 358 1; 362 7; 
363 1; 364 138; 365 44; 366 53; 367 12; 
368 2; 378 1; 379 8; 380 140; 381 583; 
382 175; 383 25; 384 1; 
