Name: Methoxyacetyl norfentanyl
Synon: 2-Methoxy-N-phenyl-N-4-piperidinyl-acetamide
InChIKey: TVUFMTIYEHVXRU-UHFFFAOYSA-N
Formula: C14H20N2O2
MW: 248
ExactMass: 248.152478
CASNO: 101365597
ID: 4711
Comment: Provided by www.caymanchem.com/Forensic.vm / Item#22422 Batch#0509659
Num Peaks: 158
40 11; 41 39; 42 189; 43 57; 44 31; 
45 635; 46 15; 47 1; 49 2; 50 19; 
51 71; 52 22; 53 43; 54 56; 55 272; 
56 305; 57 123; 58 11; 59 1; 61 2; 
62 5; 63 26; 64 35; 65 65; 66 22; 
67 44; 68 399; 69 34; 70 14; 71 5; 
72 5; 73 3; 74 6; 75 8; 76 18; 
77 327; 78 51; 79 29; 80 65; 81 34; 
82 803; 83 999; 84 458; 85 28; 86 3; 
87 1; 88 1; 89 13; 90 22; 91 145; 
92 100; 93 87; 94 17; 95 3; 96 4; 
97 3; 98 2; 99 2; 100 1; 101 1; 
102 4; 103 15; 104 113; 105 53; 106 256; 
107 25; 108 5; 109 1; 110 1; 111 1; 
112 1; 114 1; 115 9; 116 11; 117 64; 
118 170; 119 138; 120 243; 121 25; 122 29; 
123 2; 125 7; 126 1; 127 11; 128 5; 
129 4; 130 60; 131 31; 132 158; 133 40; 
134 89; 135 119; 136 18; 137 2; 138 1; 
142 17; 143 42; 144 31; 145 8; 146 96; 
147 49; 148 17; 149 3; 150 4; 154 1; 
155 1; 156 4; 157 14; 158 33; 159 284; 
160 72; 161 8; 162 4; 164 19; 165 33; 
166 208; 167 24; 168 3; 169 1; 170 2; 
171 2; 172 3; 173 6; 174 15; 175 890; 
176 116; 177 7; 178 1; 185 1; 186 2; 
187 4; 188 3; 189 1; 190 4; 191 1; 
192 10; 193 1; 199 3; 200 1; 201 1; 
203 43; 204 7; 205 5; 207 5; 208 1; 
215 10; 216 3; 217 4; 218 1; 219 28; 
220 9; 221 1; 230 17; 231 4; 232 1; 
233 4; 248 24; 249 3; 
