Name: Phenyl fentanyl
Synon: Benzoyl fentanil
Synon: Benzoyl fentanyl
Synon: Phenyl fentanil
Synon: N-(1-phenethylpiperidin-4-yl)-N-phenylbenzamide
InChIKey: BJPDWVPQDSVQKD-UHFFFAOYSA-N
Formula: C26H28N2O
MW: 384
ExactMass: 384.220163
CASNO: 0
ID: 4713
Comment: Provided by www.caymanchem.com/Forensic.vm / Item# 22551 Batch# 0508384
Num Peaks: 136
40 1; 41 20; 42 64; 43 11; 44 6; 
45 1; 49 1; 50 9; 51 34; 52 7; 
53 3; 54 5; 55 12; 56 9; 57 7; 
58 1; 59 1; 62 2; 63 8; 64 4; 
65 28; 66 4; 67 13; 68 16; 69 15; 
70 22; 71 1; 73 6; 74 5; 75 6; 
76 13; 77 325; 78 42; 79 32; 80 8; 
81 3; 82 11; 83 3; 84 2; 89 8; 
90 5; 91 112; 92 15; 93 10; 94 14; 
95 7; 96 89; 97 9; 98 16; 99 1; 
102 4; 103 32; 104 51; 105 999; 106 80; 
107 6; 108 1; 115 5; 116 3; 117 13; 
118 20; 119 7; 120 1; 127 1; 128 1; 
129 1; 130 36; 131 25; 132 33; 133 7; 
134 3; 135 2; 136 1; 143 2; 144 7; 
145 5; 146 13; 147 2; 148 2; 151 1; 
152 3; 153 1; 154 2; 156 1; 157 1; 
158 51; 159 11; 160 12; 161 1; 163 1; 
165 1; 166 1; 167 2; 172 1; 173 2; 
177 1; 178 1; 179 1; 180 22; 181 13; 
182 1; 184 10; 185 10; 186 14; 187 20; 
188 15; 189 5; 191 2; 193 2; 195 1; 
197 15; 198 4; 207 13; 208 3; 209 2; 
249 1; 250 87; 251 17; 252 1; 253 5; 
254 1; 255 1; 267 1; 279 2; 281 5; 
282 1; 283 1; 291 1; 293 474; 294 98; 
295 12; 327 1; 331 1; 341 1; 346 1; 
382 2; 
