Name: Despropionyl meta-Fluorofentanyl
Synon: Despropionyl 3-FF
Synon: Despropionyl m-FF
Synon: Despropionyl 3-Fluorofentanyl
Synon: Despropionyl m-Fluorofentanyl
Synon: N-(3-fluorophenyl)-1-(2-phenylethyl)-4-piperidinamine
InChIKey: NDGQTNDWAZPEQV-UHFFFAOYSA-N
Formula: C19H23FN2
MW: 298
ExactMass: 298.184526
CASNO: 416881384
ID: 4717
Comment: Provided by www.caymanchem.com/Forensic.vm / Item#20125 Batch#0504585
Num Peaks: 142
41 52; 42 255; 43 28; 44 426; 45 12; 
49 1; 50 10; 51 27; 52 12; 53 13; 
54 20; 55 28; 56 36; 57 40; 58 5; 
59 1; 61 2; 62 6; 63 27; 64 14; 
65 125; 66 10; 67 14; 68 37; 69 25; 
70 104; 71 8; 72 3; 73 4; 74 7; 
75 41; 76 10; 77 111; 78 41; 79 80; 
80 15; 81 10; 82 29; 83 54; 84 40; 
85 4; 86 1; 87 1; 88 1; 89 30; 
90 19; 91 420; 92 39; 93 5; 94 18; 
95 107; 96 160; 97 29; 98 5; 101 5; 
102 9; 103 87; 104 64; 105 189; 106 17; 
107 4; 108 8; 109 69; 110 22; 111 54; 
112 10; 113 1; 115 7; 116 6; 117 15; 
118 6; 119 1; 120 1; 121 4; 122 60; 
123 16; 124 48; 125 5; 127 1; 128 3; 
129 3; 130 26; 131 8; 132 11; 133 6; 
134 12; 135 52; 136 240; 137 54; 138 12; 
139 1; 142 1; 143 1; 144 9; 145 2; 
146 5; 147 3; 148 60; 149 33; 150 143; 
151 18; 152 2; 156 1; 158 2; 159 1; 
160 36; 161 8; 162 19; 163 14; 164 933; 
165 109; 166 18; 167 2; 174 1; 176 4; 
177 5; 178 7; 179 1; 184 5; 185 3; 
186 7; 187 3; 188 5; 191 3; 192 1; 
193 1; 203 1; 205 11; 206 1; 207 999; 
208 138; 209 10; 253 1; 254 1; 269 1; 
281 3; 282 1; 296 3; 297 1; 298 33; 
299 7; 300 1; 
