Name: Phenobarbital-d5 (ethyl-d5) (Not Certified by NIST)
InChIKey: DDBREPKUVSBGFI-ZBJDZAJPSA-N
Formula: C12H7D5N2O3
MW: 237
ExactMass: 237.116176
CASNO: 73738053
ID: 4720
Comment: Note: Spectrum not certified by NIST / Provided by www.caymanchem.com/Forensic.vm / Item#21353 Batch#0503684
Num Peaks: 143
40 5; 41 10; 42 18; 43 31; 44 21; 
45 18; 46 6; 49 1; 50 21; 51 47; 
52 36; 53 10; 54 8; 55 3; 56 3; 
57 2; 58 3; 60 24; 62 20; 63 48; 
64 22; 65 22; 66 20; 67 21; 68 9; 
69 8; 70 48; 71 2; 72 1; 73 3; 
74 14; 75 19; 76 34; 77 119; 78 68; 
79 73; 80 22; 81 10; 82 5; 83 2; 
85 2; 86 6; 87 9; 88 11; 89 63; 
90 42; 91 39; 92 16; 93 68; 94 65; 
95 46; 96 12; 97 2; 98 1; 99 1; 
100 1; 101 1; 102 6; 103 33; 104 110; 
105 213; 106 41; 107 14; 108 5; 109 10; 
110 6; 114 1; 115 10; 116 14; 117 27; 
118 86; 119 115; 120 43; 121 156; 122 254; 
123 94; 124 8; 129 4; 130 8; 131 5; 
132 42; 133 42; 134 34; 135 4; 136 2; 
137 4; 138 2; 140 1; 141 1; 142 1; 
143 15; 144 44; 145 21; 146 6; 147 12; 
148 19; 149 5; 150 5; 151 168; 152 18; 
153 1; 156 1; 157 3; 158 7; 159 5; 
160 23; 161 33; 162 115; 163 15; 164 3; 
165 12; 166 4; 167 3; 174 1; 175 10; 
176 74; 177 34; 178 4; 185 5; 186 7; 
187 5; 188 9; 189 1; 191 16; 192 2; 
193 3; 194 16; 195 2; 202 1; 203 20; 
204 15; 205 999; 206 125; 207 14; 208 1; 
209 1; 219 33; 220 15; 221 2; 236 4; 
237 174; 238 25; 239 3; 
