Name: Pentobarbital-d5
InChIKey: WEXRUCMBJFQVBZ-ZTIZGVCASA-N
Formula: C11H13D5N2O3
MW: 231
ExactMass: 231.163126
CASNO: 52944668
ID: 4723
Comment: Provided by www.caymanchem.com/Forensic.vm / Item#20968 Batch#0506313
Num Peaks: 116
40 5; 41 100; 42 59; 43 153; 44 53; 
45 25; 46 18; 47 2; 48 2; 50 1; 
51 4; 52 4; 53 17; 54 14; 55 56; 
56 26; 57 20; 58 11; 59 11; 60 9; 
61 7; 62 4; 63 2; 64 1; 65 4; 
66 6; 67 14; 68 12; 69 36; 70 66; 
71 67; 72 30; 73 19; 74 46; 75 5; 
76 1; 77 2; 78 3; 79 5; 80 5; 
81 7; 82 20; 83 13; 84 7; 85 6; 
86 9; 87 7; 88 6; 89 4; 90 16; 
91 3; 92 1; 93 1; 94 5; 95 6; 
96 5; 97 8; 98 14; 99 6; 100 68; 
101 16; 102 39; 103 4; 108 1; 109 3; 
110 4; 111 2; 112 13; 113 10; 114 3; 
115 12; 116 9; 117 9; 118 2; 119 7; 
124 2; 125 1; 126 3; 127 3; 128 3; 
129 4; 130 2; 131 4; 132 1; 133 3; 
134 2; 137 1; 138 1; 141 34; 142 12; 
143 569; 144 287; 145 28; 146 3; 153 3; 
154 2; 155 42; 156 17; 157 3; 158 2; 
159 15; 160 34; 161 999; 162 223; 163 20; 
164 1; 167 2; 169 1; 170 1; 181 1; 
188 3; 195 1; 197 54; 198 6; 199 2; 
202 7; 
