Name: Amitriptyline-d3
InChIKey: KRMDCWKBEZIMAB-FIBGUPNXSA-N
Formula: C20H20D3N
MW: 280
ExactMass: 280.20188
CASNO: 342611001
ID: 4725
Comment: Provided by www.caymanchem.com/Forensic.vm / Item# 15796 Batch# 0492662
Num Peaks: 128
41 3; 42 29; 43 12; 44 13; 45 27; 
46 10; 47 3; 50 2; 51 6; 52 1; 
53 1; 56 3; 57 2; 58 5; 59 9; 
60 71; 61 999; 62 68; 63 10; 64 1; 
65 7; 72 1; 73 2; 74 7; 75 5; 
76 5; 77 11; 78 4; 79 1; 83 1; 
84 1; 85 2; 86 3; 87 13; 88 4; 
89 11; 90 1; 91 33; 92 3; 95 6; 
98 1; 99 1; 100 3; 101 12; 102 8; 
103 5; 104 1; 105 2; 107 3; 108 5; 
111 1; 113 4; 114 2; 115 35; 116 5; 
117 4; 125 1; 126 6; 127 9; 128 20; 
129 5; 130 1; 137 1; 138 1; 139 14; 
140 2; 141 13; 142 2; 149 1; 150 8; 
151 12; 152 23; 153 7; 154 1; 155 1; 
161 1; 162 2; 163 14; 164 9; 165 35; 
166 6; 167 1; 174 2; 175 3; 176 19; 
177 9; 178 43; 179 11; 180 1; 186 1; 
187 11; 188 9; 189 66; 190 23; 191 37; 
192 12; 193 4; 194 1; 199 1; 200 15; 
201 19; 202 162; 203 127; 204 51; 205 10; 
206 1; 207 2; 211 1; 212 1; 213 20; 
214 7; 215 80; 216 28; 217 63; 218 47; 
219 27; 220 4; 226 4; 227 3; 228 4; 
229 3; 230 1; 231 3; 232 3; 233 1; 
278 4; 279 1; 281 1; 
