Name: Butabarbital-d5
InChIKey: ZRIHAIZYIMGOAB-ZTIZGVCASA-N
Formula: C10H11D5N2O3
MW: 217
ExactMass: 217.147476
CASNO: 121555940
ID: 4726
Comment: Provided by www.caymanchem.com/Forensic.vm / Item#20089 Batch#0498603
Num Peaks: 118
40 3; 41 121; 42 54; 43 57; 44 70; 
45 36; 46 22; 47 3; 48 2; 49 1; 
50 3; 51 6; 52 7; 53 21; 54 20; 
55 43; 56 48; 57 103; 58 18; 59 13; 
60 9; 61 10; 62 5; 63 2; 64 1; 
65 4; 66 7; 67 15; 68 14; 69 24; 
70 62; 71 24; 72 36; 73 21; 74 57; 
75 6; 76 1; 77 1; 78 3; 79 4; 
80 6; 81 7; 82 26; 83 18; 84 9; 
85 8; 86 11; 87 8; 88 6; 89 5; 
90 22; 91 2; 92 1; 93 1; 94 5; 
95 8; 96 7; 97 10; 98 14; 99 7; 
100 91; 101 18; 102 42; 103 3; 108 1; 
109 1; 110 4; 111 2; 112 10; 113 14; 
114 3; 115 15; 116 11; 117 12; 118 2; 
119 4; 122 1; 123 19; 124 3; 125 1; 
126 3; 127 4; 128 4; 129 6; 130 5; 
131 5; 132 1; 133 3; 134 1; 138 1; 
140 1; 141 22; 142 11; 143 648; 144 314; 
145 30; 146 4; 153 3; 154 2; 155 7; 
156 16; 157 2; 158 2; 159 10; 160 34; 
161 999; 162 129; 163 13; 164 1; 167 1; 
168 1; 170 1; 181 1; 183 79; 184 8; 
185 3; 188 3; 202 1; 
