Name: 1-[(2-Chlorophenyl)(methylimino)methyl]cyclopentanol
Synon: Ketamine Related Compound A
Synon: Ketamine Impurity A
InChIKey: FJGPXUPMNZOTLX-QINSGFPZSA-N
Formula: C13H16ClNO
MW: 237
ExactMass: 237.092042
CASNO: 6740870
ID: 4729
Comment: John Gerlits / impurity found in Ketamine samples / from unauthenticated sample
Num Peaks: 141
37 8; 38 49; 39 22; 40 3; 41 40; 
42 33; 43 14; 44 2; 45 1; 49 1; 
50 16; 51 25; 52 5; 53 5; 54 3; 
55 30; 56 5; 57 11; 58 1; 61 2; 
62 5; 63 11; 64 5; 65 11; 66 4; 
67 34; 68 2; 70 1; 73 4; 74 8; 
75 57; 76 26; 77 30; 78 2; 79 2; 
82 1; 83 5; 84 6; 85 20; 86 5; 
87 6; 88 4; 89 37; 90 14; 91 13; 
92 1; 96 3; 97 1; 98 2; 99 4; 
100 3; 101 9; 102 109; 103 17; 104 7; 
105 2; 106 1; 108 6; 110 4; 111 76; 
112 10; 113 27; 114 7; 115 15; 116 21; 
117 43; 118 15; 119 1; 123 3; 124 1; 
125 39; 126 6; 127 15; 128 6; 129 3; 
130 3; 131 3; 132 2; 135 1; 136 1; 
137 45; 138 197; 139 34; 140 64; 141 8; 
142 3; 143 2; 144 4; 145 4; 146 7; 
147 1; 149 3; 150 3; 151 12; 152 999; 
153 150; 154 333; 155 50; 156 9; 157 1; 
158 2; 160 5; 161 1; 162 1; 163 1; 
166 8; 167 4; 168 4; 169 2; 170 1; 
172 1; 174 8; 175 1; 178 1; 179 1; 
180 75; 181 9; 182 24; 183 2; 184 13; 
185 2; 190 2; 191 1; 192 2; 194 5; 
196 13; 197 1; 198 3; 202 4; 204 1; 
208 7; 209 5; 210 2; 211 1; 218 1; 
219 2; 220 2; 222 3; 236 5; 237 3; 
238 2; 
