Name: Cannabichromeorcin
InChIKey: VZJBWZFFBJMJSD-UHFFFAOYSA-N
Formula: C17H22O2
MW: 258
ExactMass: 258.16198
CASNO: 55824094
ID: 4732
Comment: Provided by www.caymanchem.com/Forensic.vm / Item# 21324 Batch#0501911
Num Peaks: 153
40 15; 41 378; 42 30; 43 87; 44 3; 
50 20; 51 53; 52 31; 53 103; 54 15; 
55 93; 56 7; 57 2; 58 1; 61 1; 
62 8; 63 27; 64 11; 65 49; 66 18; 
67 63; 68 16; 69 117; 70 7; 72 1; 
74 5; 75 4; 76 7; 77 88; 78 31; 
79 41; 80 8; 81 11; 82 7; 83 6; 
84 1; 86 2; 87 5; 88 2; 89 15; 
90 3; 91 103; 92 15; 93 14; 94 3; 
95 4; 98 1; 99 1; 101 2; 102 7; 
103 37; 104 16; 105 31; 106 10; 107 26; 
108 6; 109 8; 113 1; 114 1; 115 62; 
116 19; 117 33; 118 8; 119 17; 120 5; 
121 17; 122 3; 123 2; 124 1; 126 2; 
127 21; 128 41; 129 22; 130 3; 131 58; 
132 31; 133 13; 134 3; 135 4; 137 31; 
138 3; 139 2; 141 7; 142 3; 143 4; 
144 5; 145 65; 146 30; 147 24; 148 10; 
149 3; 150 1; 151 3; 152 4; 153 3; 
154 1; 155 3; 156 1; 157 9; 158 8; 
159 13; 160 29; 161 48; 162 7; 163 3; 
164 1; 165 4; 166 1; 167 1; 168 1; 
169 2; 171 3; 172 1; 173 19; 174 51; 
175 999; 176 371; 177 41; 178 5; 179 1; 
181 2; 182 2; 183 1; 184 1; 185 1; 
186 1; 187 26; 188 13; 189 15; 190 3; 
195 1; 196 1; 197 1; 198 1; 199 4; 
200 2; 201 11; 202 4; 203 2; 211 1; 
213 3; 214 2; 215 26; 216 4; 227 1; 
229 2; 241 1; 243 63; 244 11; 245 1; 
258 112; 259 21; 260 2; 
