Name: 5-AEDB
InChIKey: GDRWGOBKFDGTJB-UHFFFAOYSA-N
Synon: 2-(2,3-dihydro-1-benzofuran-5-yl)ethan-1-amine
Synon: 5-(2-Aminoethyl)-2,3-dihydrobenzofuran
Formula: C10H13NO
MW: 163
ExactMass: 163.099714
CASNO: 796869335
ID: 4733
Comment: ENFSI / NFL Slovenija (I-SEE project JUST/2013/ISEC/DRUGS/AG/6426); confirmed by NMR
Num Peaks: 57
30 302; 31 8; 32 44; 38 8; 39 39; 
40 9; 41 10; 42 10; 43 8; 44 9; 
50 29; 51 68; 52 29; 53 36; 55 44; 
62 15; 63 48; 64 11; 65 50; 66 10; 
67 7; 74 13; 75 11; 76 17; 77 191; 
78 59; 79 112; 80 14; 86 6; 89 22; 
90 15; 91 95; 92 12; 102 25; 103 95; 
104 31; 105 82; 106 21; 107 10; 115 51; 
116 9; 117 29; 118 15; 119 45; 120 8; 
130 7; 131 36; 132 24; 133 790; 134 999; 
135 102; 136 6; 146 13; 147 6; 161 9; 
163 59; 164 9; 
