Name: DOAM
InChIKey: VLJORLCVOAUUKM-UHFFFAOYSA-N
Synon: 1-(2,5-Dimethoxy-4-pentylphenyl)propan-2-amine
Synon: 2,5-Dimethoxy-4-amylamphetamine
Synon: 2,5-Dimethoxy-4-pentylamphetamine
Formula: C16H27NO2
MW: 265
ExactMass: 265.20418
CASNO: 63779908
ID: 4735
Comment: ENFSI / NFL Slovenija (I-SEE project JUST/2013/ISEC/DRUGS/AG/6426); confirmed by NMR
Num Peaks: 138
50 3; 51 16; 52 8; 53 19; 54 3; 
55 21; 56 6; 57 21; 58 4; 59 3; 
62 1; 63 9; 64 5; 65 42; 66 10; 
67 23; 68 4; 69 13; 70 1; 71 2; 
73 1; 74 2; 75 4; 76 4; 77 87; 
78 43; 79 54; 80 9; 81 6; 82 3; 
83 1; 85 1; 87 1; 89 16; 90 10; 
91 183; 92 27; 93 18; 94 6; 95 4; 
96 2; 97 2; 99 1; 101 1; 102 7; 
103 54; 104 41; 105 72; 106 14; 107 24; 
108 12; 109 8; 110 1; 115 38; 116 12; 
117 29; 118 12; 119 26; 120 31; 121 72; 
122 29; 123 19; 124 2; 125 3; 127 6; 
128 14; 129 10; 130 10; 131 19; 132 11; 
133 26; 134 41; 135 133; 136 19; 137 25; 
138 4; 139 1; 141 2; 142 1; 143 2; 
144 6; 145 9; 146 11; 147 20; 148 14; 
149 16; 150 17; 151 108; 152 15; 153 2; 
157 1; 158 1; 159 4; 160 6; 161 9; 
162 14; 163 19; 164 15; 165 396; 166 51; 
167 4; 172 1; 173 1; 174 2; 175 5; 
176 5; 177 9; 178 8; 179 8; 180 2; 
189 1; 190 1; 191 13; 192 8; 193 4; 
194 1; 205 1; 206 2; 207 23; 208 4; 
218 1; 220 3; 221 53; 222 999; 223 155; 
224 15; 225 1; 232 6; 233 2; 234 4; 
235 1; 248 4; 249 2; 250 5; 251 1; 
264 2; 265 7; 266 1; 
