Name: Propylphenidate
InChIKey: PRMWWEANNQSWAR-UHFFFAOYSA-N
Synon: Propyl-2-phenyl-2-(piperidin-2-yl)acetate
Synon: 2-(2-Oxo-1-phenyl-2-propoxyethyl)piperidin
Synon: PPH
Formula: C16H23NO2
MW: 261
ExactMass: 261.172878
CASNO: 0
ID: 4736
Comment: ENFSI / NFL Slovenija (RESPONSE project AG JUST/2013/ISEC/DRUGS/AG/6413); confirmed by NMR
Num Peaks: 82
50 6; 51 17; 52 6; 53 7; 54 23; 
55 81; 56 112; 57 10; 58 1; 59 1; 
62 4; 63 18; 65 52; 66 5; 67 14; 
68 17; 69 3; 70 2; 74 1; 75 2; 
76 3; 77 34; 78 9; 79 20; 80 8; 
82 37; 84 999; 85 111; 86 3; 87 1; 
89 37; 90 44; 91 343; 92 57; 93 4; 
94 1; 96 2; 101 1; 102 10; 103 17; 
104 9; 105 10; 106 2; 107 8; 115 53; 
116 23; 117 57; 118 47; 119 20; 120 2; 
127 5; 128 15; 129 22; 130 35; 131 10; 
132 10; 133 1; 135 3; 136 55; 137 6; 
141 2; 142 2; 143 4; 144 15; 145 5; 
146 3; 149 1; 155 1; 156 1; 157 1; 
158 1; 170 3; 172 21; 173 8; 174 15; 
175 2; 178 21; 179 2; 202 1; 218 1; 
260 2; 262 1; 
