Name: 4-Fluoromethylphenidate
InChIKey: XISBAJBPDVRSPG-UHFFFAOYSA-N
Synon: 4F-MPH
Synon: 4-Fluoro-MPH
Synon: Methyl 2-(4-fluorophenyl)-2-(2-piperidyl)acetate
Synon: 4-FMPH
Formula: C14H18FNO2
MW: 251
ExactMass: 251.132157
CASNO: 1354631336
ID: 4738
Comment: ENFSI / NFL Slovenija (RESPONSE project AG JUST/2013/ISEC/DRUGS/AG/6413); confirmed by NMR
Num Peaks: 106
31 3; 33 1; 37 1; 38 3; 39 22; 
40 3; 41 30; 42 21; 43 5; 44 3; 
45 1; 50 7; 51 9; 52 3; 53 6; 
54 22; 55 72; 56 101; 57 26; 59 23; 
60 1; 61 2; 62 6; 63 14; 64 3; 
65 4; 67 12; 68 14; 69 4; 70 4; 
71 1; 75 12; 76 2; 77 5; 78 1; 
79 1; 80 6; 81 11; 82 36; 83 73; 
84 999; 85 63; 86 3; 87 2; 88 1; 
89 8; 90 2; 91 3; 94 3; 95 12; 
96 9; 97 7; 99 1; 101 14; 102 2; 
103 2; 105 1; 107 40; 108 40; 109 313; 
110 26; 111 1; 115 10; 116 2; 117 1; 
120 8; 121 8; 122 6; 123 9; 124 2; 
125 5; 126 1; 127 2; 128 1; 130 1; 
133 31; 134 15; 135 28; 136 29; 137 6; 
139 13; 140 1; 145 1; 146 8; 147 8; 
148 20; 149 6; 150 5; 151 1; 153 4; 
159 1; 160 1; 161 3; 162 8; 163 2; 
164 1; 168 60; 169 6; 176 1; 188 2; 
190 12; 191 4; 192 4; 216 1; 249 2; 
250 1; 
