Name: 4-Methylmethylphenidate
InChIKey: WJZNCJIOIACDBR-KGLIPLIRSA-N
Synon: Methyl-2-(4-methylphenyl)-2-(piperidin-2-yl)acetate
Synon: Methyl 2-(2-piperidyl)-2-(p-tolyl)acetate
Synon: 4-Me-TMP
Synon: threo-4-Methylmethylphenidate
Formula: C15H21NO2
MW: 247
ExactMass: 247.157228
CASNO: 191790791
ID: 4739
Comment: ENFSI / NFL Slovenija (RESPONSE project AG JUST/2013/ISEC/DRUGS/AG/6413); confirmed by NMR
Num Peaks: 90
50 8; 51 21; 52 9; 53 11; 54 21; 
55 69; 56 80; 57 5; 59 10; 62 3; 
63 13; 64 3; 65 16; 66 2; 67 10; 
68 10; 69 2; 70 1; 72 3; 73 2; 
74 3; 75 3; 76 5; 77 61; 78 31; 
79 31; 80 7; 81 1; 82 27; 83 31; 
84 999; 85 62; 86 2; 87 1; 89 9; 
90 3; 91 39; 92 5; 93 5; 94 1; 
96 1; 101 1; 102 9; 103 45; 104 33; 
105 312; 106 28; 107 1; 114 1; 115 29; 
116 12; 117 17; 118 5; 119 8; 120 2; 
121 3; 127 4; 128 14; 129 13; 130 20; 
131 19; 132 26; 133 5; 135 12; 136 1; 
141 3; 142 3; 143 7; 144 13; 145 4; 
146 3; 147 1; 149 3; 156 1; 157 1; 
158 5; 159 1; 163 1; 164 79; 165 9; 
170 2; 171 2; 172 1; 184 1; 186 9; 
187 3; 188 7; 189 1; 245 1; 246 1; 
