Name: Phenetrazine
InChIKey: DOMAVIHZFHQQHF-UHFFFAOYSA-N
Synon: 3-Ethyl-2-phenylmorpholine
Formula: C12H17NO
MW: 191
ExactMass: 191.131014
CASNO: 0
ID: 4740
Comment: ENFSI / NFL Slovenija (RESPONSE project AG JUST/2013/ISEC/DRUGS/AG/6413); confirmed by NMR
Num Peaks: 85
31 1; 32 3; 38 4; 39 44; 40 7; 
41 57; 42 37; 43 14; 44 22; 45 1; 
49 1; 50 23; 51 69; 52 23; 53 11; 
54 34; 56 999; 57 162; 58 25; 61 1; 
62 7; 63 27; 64 10; 65 27; 66 5; 
67 6; 68 29; 69 7; 70 440; 71 25; 
72 3; 73 1; 74 7; 75 8; 76 13; 
77 177; 78 40; 79 30; 80 3; 82 12; 
83 14; 84 36; 85 743; 86 51; 87 3; 
88 1; 89 36; 90 20; 91 97; 92 11; 
96 4; 98 1; 100 3; 102 10; 103 17; 
104 12; 105 111; 106 21; 107 4; 112 1; 
113 1; 115 53; 116 16; 117 59; 118 10; 
119 5; 127 4; 128 8; 129 5; 130 13; 
131 10; 132 12; 133 2; 134 1; 143 1; 
144 1; 146 1; 158 2; 160 1; 161 3; 
162 11; 163 1; 189 2; 191 56; 192 7; 
