Name: 3-Fluorophenetrazine
InChIKey: GPTHUZORYIVVNJ-UHFFFAOYSA-N
Synon: 3F-Phenetrazine
Synon: 3-Ethyl-2-(3-fluorophenyl)morpholine
Formula: C12H16FNO
MW: 209
ExactMass: 209.1215925
CASNO: 0
ID: 4741
Comment: ENFSI / NFL Slovenija (RESPONSE project AG JUST/2013/ISEC/DRUGS/AG/6413); confirmed by NMR
Num Peaks: 80
31 4; 32 11; 38 5; 39 31; 40 4; 
41 57; 42 37; 43 17; 44 28; 45 2; 
50 18; 51 22; 52 4; 53 5; 54 42; 
56 999; 57 193; 58 24; 59 3; 62 7; 
63 15; 64 5; 65 5; 67 7; 68 37; 
70 414; 71 24; 75 57; 76 10; 77 21; 
78 3; 80 3; 81 10; 82 18; 83 45; 
84 38; 85 659; 86 48; 87 3; 89 7; 
91 3; 93 3; 94 10; 95 115; 96 44; 
97 20; 98 3; 100 5; 101 24; 102 5; 
103 7; 104 3; 105 3; 107 32; 108 17; 
109 86; 110 8; 115 18; 120 11; 121 8; 
122 11; 123 108; 124 26; 125 4; 127 4; 
128 2; 133 32; 134 10; 135 50; 136 11; 
146 6; 147 5; 148 9; 149 6; 150 18; 
179 4; 180 6; 207 6; 209 45; 210 6; 
