Name: 4-Methylephedrine
InChIKey: DUESQFQLBNOCIT-UHFFFAOYSA-N
Synon: 1-(4-Methylphenyl)-2-methylamino-1-propanol
Synon: 2-(Methylamino)-1-(4-methylphenyl)propan-1-ol
Formula: C11H17NO
MW: 179
ExactMass: 179.131014
CASNO: 27465538
ID: 4746
Comment: ENFSI / NFL Slovenija (RESPONSE project AG JUST/2013/ISEC/DRUGS/AG/6413); confirmed by NMR
Num Peaks: 33
31 7; 32 25; 39 21; 40 7; 41 13; 
42 44; 43 14; 44 17; 50 8; 51 23; 
56 43; 57 23; 58 999; 59 40; 63 16; 
65 36; 77 52; 78 12; 89 11; 91 98; 
92 9; 93 15; 103 10; 105 14; 115 19; 
117 27; 119 39; 120 22; 121 11; 131 11; 
132 23; 146 7; 160 12; 
