Name: 4-Methyl-N-ethyl-norephedrine
InChIKey: AQJDADTYOSUEIK-UHFFFAOYSA-N
Synon: 1-(4-Methylphenyl)-2-ethylamino-1-propanol
Synon: 2-Ethylamino)-1-(4-methyl phenyl)propan-1-ol
Formula: C12H19NO
MW: 193
ExactMass: 193.146665
CASNO: 0
ID: 4747
Comment: ENFSI / NFL Slovenija (RESPONSE project AG JUST/2013/ISEC/DRUGS/AG/6413); confirmed by NMR
Num Peaks: 67
30 9; 31 4; 32 15; 36 4; 38 6; 
39 26; 40 9; 41 18; 42 47; 43 10; 
44 176; 45 7; 50 7; 51 24; 52 8; 
53 6; 54 8; 55 6; 56 78; 57 8; 
62 4; 63 18; 64 7; 65 43; 68 4; 
70 40; 71 18; 72 999; 73 46; 74 5; 
75 4; 77 70; 78 20; 79 8; 86 4; 
89 15; 90 6; 91 131; 92 13; 93 17; 
102 5; 103 19; 104 10; 105 36; 106 4; 
115 38; 116 13; 117 68; 118 17; 119 96; 
120 40; 121 11; 127 4; 128 7; 129 7; 
130 11; 131 20; 132 41; 133 6; 144 8; 
145 4; 146 46; 147 6; 159 3; 160 9; 
174 61; 175 12; 
