Name: 4-Hydroxymethcathinone
InChIKey: WYLPQOVNOVHCLO-UHFFFAOYSA-N
Synon: 1-(4-Hydroxy-phenyl)-2-methylamino-propan-1-one
Formula: C10H13NO2
MW: 179
ExactMass: 179.094628
CASNO: 132224987
ID: 4749
Comment: ENFSI / NFL Slovenija (RESPONSE project AG JUST/2013/ISEC/DRUGS/AG/6413); confirmed by NMR
Num Peaks: 60
31 1; 32 3; 37 2; 38 9; 39 57; 
40 4; 41 11; 42 47; 43 26; 44 6; 
50 7; 51 8; 52 2; 53 13; 54 4; 
55 8; 56 70; 57 20; 58 999; 59 37; 
61 2; 62 8; 63 25; 64 12; 65 84; 
66 11; 67 2; 74 4; 75 4; 76 2; 
77 10; 78 2; 79 1; 89 1; 91 4; 
92 6; 93 40; 94 6; 95 1; 103 2; 
105 1; 107 6; 118 1; 119 1; 121 67; 
122 6; 123 1; 131 1; 133 1; 134 1; 
136 3; 146 1; 147 1; 148 3; 149 4; 
150 1; 160 3; 161 2; 163 1; 164 3; 
