Name: Methoxyacetyl fentanyl
InChIKey: SADNVKRDSWWFTK-UHFFFAOYSA-N
Synon: Methoxyacetyl-F
Synon: 2-Methoxy-N-phenyl-N-[1-(2-phenylethyl)piperidin-4-yl]acetamide;
Synon: Methoxy-AcF
Formula: C22H28N2O2
MW: 352
ExactMass: 352.215078
CASNO: 101365542
ID: 4751
Comment: ENFSI / NFL Slovenija (RESPONSE project AG JUST/2013/ISEC/DRUGS/AG/6413); confirmed by NMR
Num Peaks: 135
50 5; 51 24; 52 6; 53 11; 54 14; 
55 41; 56 27; 57 16; 58 51; 59 3; 
62 1; 63 8; 64 5; 65 38; 66 6; 
67 24; 68 31; 69 31; 70 95; 71 7; 
72 1; 73 1; 74 2; 75 1; 76 5; 
77 144; 78 28; 79 62; 80 13; 81 5; 
82 27; 83 6; 84 9; 85 1; 88 4; 
89 7; 90 5; 91 115; 92 20; 93 14; 
94 21; 95 22; 96 171; 97 26; 98 10; 
100 18; 101 3; 102 6; 103 50; 104 77; 
105 256; 106 52; 107 4; 108 2; 109 1; 
111 1; 115 8; 116 7; 117 29; 118 53; 
119 21; 120 13; 121 2; 126 1; 127 2; 
128 9; 129 4; 130 79; 131 43; 132 148; 
133 20; 134 10; 135 7; 136 1; 139 19; 
140 2; 142 1; 143 6; 144 18; 145 9; 
146 59; 147 7; 148 9; 149 1; 156 3; 
157 4; 158 289; 159 44; 160 47; 161 6; 
162 5; 165 5; 166 2; 170 2; 171 1; 
172 8; 173 4; 174 3; 176 3; 182 1; 
184 11; 185 7; 186 36; 187 25; 188 50; 
189 27; 190 112; 191 15; 192 3; 200 1; 
201 17; 202 4; 207 4; 208 1; 215 1; 
217 1; 218 241; 219 34; 220 3; 229 4; 
231 3; 232 2; 233 2; 245 1; 259 1; 
260 1; 261 999; 262 179; 263 18; 264 2; 
279 2; 281 2; 307 1; 350 3; 351 1; 
