Name: 4-MeO-DiPT
InChIKey: WIVWUNUDMXNQJD-UHFFFAOYSA-N
Synon: [2-(4-methoxy-1H-indol-3-yl)ethyl]bis(propan-2-yl)amine
Synon: 4-Methoxy-N,N-Diisopropyltryptamine
Synon: N-isopropyl-N-(2-(4-methoxy-1H-indol-3-yl)ethyl)propan-2-amine
Formula: C17H26N2O
MW: 274
ExactMass: 274.204514
CASNO: 0
ID: 4752
Comment: ENFSI / NFL Slovenija (RESPONSE project AG JUST/2013/ISEC/DRUGS/AG/6413); confirmed by NMR
Num Peaks: 90
51 6; 52 2; 53 1; 54 3; 55 4; 
56 47; 57 8; 58 13; 62 2; 63 9; 
64 2; 65 5; 68 3; 69 1; 70 23; 
71 7; 72 193; 73 10; 74 2; 75 4; 
76 6; 77 21; 78 5; 79 1; 82 1; 
84 12; 86 17; 87 3; 88 2; 89 19; 
90 10; 91 5; 92 1; 96 1; 98 8; 
99 3; 100 9; 101 4; 102 12; 103 25; 
104 7; 105 2; 108 2; 112 6; 113 7; 
114 999; 115 92; 116 13; 117 34; 118 9; 
119 1; 127 3; 128 16; 129 18; 130 93; 
131 15; 132 10; 133 2; 140 4; 141 2; 
142 4; 143 8; 144 7; 145 6; 146 24; 
147 6; 154 1; 156 2; 157 4; 158 13; 
159 25; 160 66; 161 20; 162 3; 171 2; 
172 4; 173 15; 174 39; 175 4; 185 1; 
186 1; 187 1; 188 2; 207 6; 216 1; 
229 1; 243 2; 257 4; 272 1; 274 4; 
