Name: 4-AcO-DET
InChIKey: WYEVVQJLTXBMPM-UHFFFAOYSA-N
Synon: 3-[2-(Diethylamino)ethyl]-1H-indol-4-yl acetate
Synon: 4-Acetoxy-DET
Synon: Ethacetin
Synon: Ethylacybin
Formula: C16H22N2O2
MW: 274
ExactMass: 274.168127
CASNO: 0
ID: 4755
Comment: ENFSI / NFL Slovenija (RESPONSE project AG JUST/2013/ISEC/DRUGS/AG/6413); confirmed by NMR
Num Peaks: 79
50 1; 51 3; 52 1; 53 1; 54 1; 
55 1; 56 15; 57 6; 58 54; 59 2; 
62 1; 63 4; 64 1; 65 4; 70 4; 
71 2; 72 4; 73 1; 74 1; 75 2; 
76 2; 77 8; 78 3; 79 1; 84 13; 
85 6; 86 999; 87 63; 88 2; 89 8; 
90 6; 91 6; 92 1; 101 1; 102 4; 
103 5; 104 3; 105 1; 113 1; 114 2; 
115 10; 116 4; 117 13; 118 8; 119 1; 
128 3; 129 2; 130 16; 131 5; 132 2; 
133 2; 140 1; 141 1; 142 1; 143 1; 
144 2; 145 5; 146 29; 147 6; 156 1; 
157 2; 158 4; 159 13; 160 20; 161 2; 
171 1; 172 1; 173 1; 185 1; 188 1; 
199 1; 201 1; 202 3; 207 1; 213 1; 
215 1; 257 1; 272 1; 274 2; 
