Name: 2C-P-NBOMe-TFA
InChIKey: HQXZCMVADJRBBG-UHFFFAOYSA-N
Synon: 25P-NB2OMe-TFA
Synon: 2C-P-NB2OMe-TFA
Synon: 25P-NBOMe-TFA
Formula: C23H28F3NO4
MW: 439
ExactMass: 439.197042
CASNO: 0
ID: 4758
Comment: ENFSI / NFL Slovenija (RESPONSE project AG JUST/2013/ISEC/DRUGS/AG/6413); TFA derivative; confirmed by NMR
Num Peaks: 143
51 14; 52 9; 53 12; 55 12; 56 6; 
57 6; 58 1; 59 4; 62 1; 63 9; 
64 3; 65 64; 66 5; 67 9; 68 1; 
69 21; 70 1; 71 5; 73 16; 74 3; 
75 4; 76 4; 77 66; 78 49; 79 34; 
80 3; 81 3; 83 2; 85 3; 89 16; 
90 12; 91 518; 92 47; 93 39; 94 8; 
95 4; 96 10; 97 2; 99 1; 102 4; 
103 32; 104 28; 105 71; 106 12; 107 63; 
108 12; 109 11; 110 2; 113 1; 115 30; 
116 19; 117 25; 118 11; 119 24; 120 22; 
121 402; 122 65; 123 16; 124 2; 125 1; 
126 2; 127 4; 128 9; 129 11; 130 4; 
131 23; 132 10; 133 30; 134 43; 135 80; 
136 12; 137 7; 139 1; 140 1; 141 2; 
142 3; 143 1; 144 1; 145 6; 146 6; 
147 35; 148 24; 149 23; 150 11; 151 8; 
152 1; 155 1; 157 11; 158 2; 159 3; 
160 2; 161 9; 162 5; 163 58; 164 11; 
165 13; 166 2; 171 6; 174 2; 175 3; 
176 4; 177 173; 178 25; 179 5; 185 1; 
186 1; 190 7; 191 30; 192 19; 193 468; 
194 64; 195 6; 197 2; 204 7; 205 11; 
206 999; 207 203; 208 23; 209 7; 211 1; 
212 1; 219 1; 220 1; 221 1; 232 4; 
249 2; 258 1; 265 1; 267 1; 281 15; 
282 3; 283 2; 288 3; 311 3; 312 1; 
327 1; 341 4; 342 3; 355 2; 429 1; 
439 99; 440 25; 441 4; 
