Name: 25T7-NBOMe-TFA
InChIKey: PERNYXCZFKCNBI-UHFFFAOYSA-N
Synon: 25T7-NB2OMe-TFA
Synon: 2C-T-7-NB2OMe-TFA
Synon: 2C-T-7-NBOMe-TFA
Formula: C23H28F3NO4S
MW: 471
ExactMass: 471.169113
CASNO: 0
ID: 4759
Comment: ENFSI / NFL Slovenija (RESPONSE project AG JUST/2013/ISEC/DRUGS/AG/6413); TFA derivative; confirmed by NMR
Num Peaks: 162
51 19; 52 12; 53 14; 54 2; 55 6; 
56 7; 57 3; 58 3; 59 7; 61 3; 
63 11; 64 5; 65 78; 66 10; 67 6; 
69 27; 70 3; 71 5; 73 46; 74 5; 
75 12; 76 7; 77 69; 78 55; 79 40; 
80 5; 81 6; 82 4; 83 4; 84 3; 
85 16; 87 2; 89 21; 90 18; 91 623; 
92 62; 93 50; 94 8; 95 8; 96 18; 
97 21; 98 3; 99 2; 102 5; 103 9; 
104 8; 105 24; 106 11; 107 79; 108 19; 
109 34; 110 32; 111 14; 112 3; 115 5; 
116 3; 117 7; 118 8; 119 20; 120 15; 
121 473; 122 91; 123 29; 124 6; 125 17; 
126 7; 127 3; 131 4; 132 5; 133 23; 
134 27; 135 28; 136 13; 137 19; 138 45; 
139 13; 140 19; 141 3; 142 2; 145 3; 
146 4; 147 21; 148 29; 149 27; 150 15; 
151 24; 152 19; 153 164; 154 19; 155 13; 
156 2; 161 5; 162 6; 163 11; 164 31; 
165 17; 166 8; 167 28; 168 11; 169 6; 
170 2; 176 3; 177 6; 178 4; 179 7; 
180 8; 181 86; 182 19; 183 81; 184 10; 
185 4; 187 3; 191 12; 192 4; 193 9; 
194 15; 195 38; 196 19; 197 9; 198 4; 
207 104; 208 21; 209 17; 210 3; 211 2; 
221 3; 222 3; 223 13; 224 8; 225 999; 
226 143; 227 57; 228 8; 232 3; 236 2; 
237 2; 238 756; 239 124; 240 51; 241 7; 
249 2; 251 2; 265 2; 267 4; 275 3; 
279 2; 281 31; 282 8; 283 7; 325 4; 
327 4; 341 12; 342 5; 343 4; 355 3; 
397 3; 429 4; 430 2; 471 163; 472 46; 
473 13; 474 2; 
