Name: 5-Fluoro-AB-001
InChIKey: WBLLMFXPGHZFFP-UHFFFAOYSA-N
Synon: 5-Fluoro-JWH-018 adamantyl-analog
Synon: 3-(Adamantane-1-carbonyl)-1-(5-fluoropentyl)-1H-indole
Synon: [1-(5-fluoropentyl)-1H-indol-3-yl]tricyclo[3.3.1.13,7]dec-1-yl-methanone
Synon: 5F-AB-001
Synon: AM2201 adamantyl analog
Formula: C24H30FNO
MW: 367
ExactMass: 367.231142
CASNO: 1364933629
ID: 4762
Comment: ENFSI / NFL Slovenija (RESPONSE project AG JUST/2013/ISEC/DRUGS/AG/6413); confirmed by NMR
Num Peaks: 71
51 6; 53 13; 55 30; 59 6; 61 5; 
63 4; 65 11; 66 5; 67 35; 69 17; 
73 16; 75 5; 77 34; 78 11; 79 68; 
80 5; 81 19; 88 6; 89 19; 90 6; 
91 34; 92 7; 93 45; 94 6; 96 9; 
101 6; 102 22; 103 15; 105 12; 107 19; 
114 4; 115 25; 116 49; 117 11; 118 4; 
119 5; 128 21; 129 28; 130 46; 131 5; 
133 7; 135 65; 136 7; 143 23; 144 169; 
145 20; 147 4; 148 4; 154 6; 156 6; 
157 5; 158 5; 167 5; 168 5; 170 13; 
191 7; 193 5; 207 55; 208 11; 209 6; 
212 12; 230 4; 231 4; 232 999; 233 152; 
234 15; 281 14; 282 4; 292 4; 367 53; 
368 12; 
