Name: AM2201 4-methoxynaphthyl analogue
InChIKey: BIESBZORWYRYDT-UHFFFAOYSA-N
Synon: 1-(5-Fluoropentyl)-3-(4-methoxynaphthalene-1-carbonyl)-1H-indole
Synon: AM2201 4-methoxynaphthyl metabolite
Formula: C25H24FNO2
MW: 389
ExactMass: 389.179108
CASNO: 0
ID: 4763
Comment: ENFSI / NFL Slovenija (RESPONSE project AG JUST/2013/ISEC/DRUGS/AG/6413); confirmed by NMR
Num Peaks: 249
51 13; 52 4; 53 11; 54 2; 55 12; 
56 1; 59 17; 61 16; 62 10; 63 23; 
64 5; 65 5; 67 7; 69 37; 70 2; 
73 42; 74 11; 75 22; 76 20; 77 27; 
78 8; 79 2; 81 2; 82 1; 84 1; 
86 4; 87 14; 88 48; 89 67; 90 11; 
91 5; 94 15; 96 20; 98 2; 99 4; 
100 14; 101 41; 102 71; 103 25; 104 5; 
105 2; 107 24; 109 23; 110 3; 111 2; 
113 58; 114 277; 115 114; 116 158; 117 30; 
118 6; 119 10; 121 74; 125 8; 126 49; 
127 147; 128 138; 129 91; 130 49; 131 9; 
132 11; 133 22; 135 59; 138 3; 139 11; 
140 10; 142 107; 143 68; 144 436; 145 45; 
146 6; 147 15; 150 39; 152 6; 153 5; 
154 16; 155 18; 157 269; 158 40; 159 5; 
161 4; 162 4; 163 10; 164 5; 165 6; 
166 3; 167 9; 168 10; 169 17; 170 42; 
171 40; 172 6; 173 2; 174 6; 175 7; 
176 14; 177 11; 178 4; 179 3; 180 8; 
181 4; 182 7; 183 24; 184 31; 185 428; 
186 62; 187 18; 188 6; 189 12; 190 4; 
191 24; 192 7; 193 11; 195 15; 196 3; 
197 272; 198 45; 199 11; 200 35; 201 41; 
202 70; 203 21; 204 18; 205 6; 207 173; 
208 37; 209 22; 210 6; 211 14; 212 22; 
213 29; 214 20; 215 25; 216 10; 217 6; 
218 4; 221 3; 223 2; 224 3; 225 4; 
226 17; 227 33; 228 100; 229 39; 230 49; 
231 16; 232 577; 233 98; 234 8; 235 1; 
238 6; 239 6; 240 43; 241 109; 242 57; 
243 23; 244 7; 245 3; 249 5; 250 2; 
251 5; 252 5; 253 11; 254 56; 255 26; 
256 48; 257 59; 258 25; 259 5; 265 7; 
266 5; 267 13; 268 9; 269 42; 270 81; 
271 43; 272 27; 273 7; 281 72; 282 54; 
283 38; 284 51; 285 108; 286 64; 287 16; 
288 4; 294 2; 295 3; 296 13; 297 25; 
298 57; 299 54; 300 149; 301 35; 302 9; 
307 1; 309 1; 310 8; 311 6; 312 20; 
313 13; 314 483; 315 125; 316 19; 317 2; 
324 4; 325 6; 326 12; 327 5; 328 19; 
329 8; 330 3; 338 3; 339 3; 340 13; 
341 14; 342 9; 343 3; 344 3; 345 3; 
346 51; 347 12; 348 2; 352 9; 353 3; 
354 9; 355 10; 356 9; 357 12; 358 56; 
359 18; 360 8; 361 11; 362 5; 367 2; 
368 12; 369 43; 370 38; 371 15; 372 494; 
373 156; 374 175; 375 45; 376 6; 386 2; 
388 476; 389 999; 390 265; 391 41; 
