Name: 4-Chlorodiazepam
InChIKey: PUMYFTJOWAJIKF-UHFFFAOYSA-N
Synon: 7-Chloro-5-(4-chlorophenyl)-1-methyl-3H-1,4-benzodiazepin-2-one
Synon: 4'-Chlorodiazepam
Synon: Chlorodiazepam
Synon: RO5-4864
Formula: C16H12Cl2N2O
MW: 318
ExactMass: 318.03267
CASNO: 14439613
ID: 4764
Comment: ENFSI / NFL Slovenija (RESPONSE project AG JUST/2013/ISEC/DRUGS/AG/6413); confirmed by NMR
Num Peaks: 217
50 73; 51 92; 52 18; 53 7; 54 5; 
55 7; 56 11; 57 9; 61 19; 62 60; 
63 124; 64 31; 65 25; 66 17; 67 8; 
68 19; 69 12; 72 5; 73 69; 74 85; 
75 287; 76 97; 77 78; 78 9; 79 6; 
80 13; 81 112; 83 21; 85 30; 86 49; 
87 74; 88 57; 89 208; 90 56; 91 18; 
92 13; 93 40; 95 31; 96 151; 98 46; 
99 111; 100 66; 101 59; 102 117; 103 38; 
104 6; 106 21; 109 124; 110 142; 111 206; 
112 55; 113 111; 114 66; 115 30; 116 43; 
117 108; 118 18; 119 24; 120 36; 121 18; 
122 13; 123 68; 124 96; 125 254; 126 79; 
127 215; 128 84; 131 13; 132 10; 133 11; 
134 39; 135 23; 136 46; 137 98; 138 85; 
139 51; 140 32; 141 107; 142 45; 144 10; 
145 9; 146 11; 147 17; 148 9; 149 48; 
150 157; 151 116; 152 106; 153 23; 154 18; 
160 23; 161 27; 162 44; 163 210; 164 116; 
165 181; 166 47; 167 9; 168 5; 172 5; 
173 12; 174 14; 175 37; 176 64; 177 234; 
178 70; 179 40; 180 11; 181 11; 183 5; 
184 12; 185 12; 186 38; 187 12; 188 26; 
189 15; 190 64; 191 70; 192 43; 193 23; 
194 5; 197 14; 198 22; 199 83; 200 21; 
201 29; 202 15; 203 19; 204 21; 205 31; 
206 11; 207 106; 208 16; 209 12; 210 5; 
211 30; 212 34; 213 38; 214 19; 215 13; 
216 4; 217 6; 218 17; 219 21; 220 15; 
221 12; 222 4; 224 8; 225 11; 226 32; 
227 93; 228 31; 229 24; 230 7; 232 7; 
233 16; 234 6; 235 9; 236 4; 237 8; 
238 17; 239 121; 240 50; 241 41; 242 14; 
247 27; 248 29; 249 21; 250 5; 251 6; 
252 7; 253 39; 254 24; 255 316; 256 80; 
257 102; 258 26; 261 12; 262 29; 263 11; 
264 21; 265 10; 267 19; 268 15; 269 7; 
270 7; 272 9; 273 31; 274 16; 275 85; 
276 27; 277 46; 278 10; 279 8; 281 41; 
282 198; 283 134; 284 77; 285 50; 286 9; 
287 6; 289 373; 290 999; 291 494; 292 659; 
293 204; 294 116; 295 28; 302 12; 304 8; 
317 711; 318 478; 319 532; 320 297; 321 127; 
322 48; 323 8; 
