Name: 4-Fluorococaine
InChIKey: JRPRINGETIYVSV-UHFFFAOYSA-N
Synon: Methyl (1R,2R,3S,5S)-3-(4-fluorobenzoyloxy)-8-methyl-8-azabicyclo[3.2.1] octane-2-carboxylate
Synon: 4'-Fluorococaine
Formula: C17H20FNO4
MW: 321
ExactMass: 321.137636
CASNO: 134507623
ID: 4766
Comment: ENFSI / NFL Slovenija (RESPONSE project AG JUST/2013/ISEC/DRUGS/AG/6413); confirmed by NMR
Num Peaks: 70
50 19; 51 26; 52 15; 53 42; 54 26; 
55 88; 56 34; 57 46; 58 10; 59 55; 
65 32; 66 20; 67 65; 68 64; 69 37; 
70 25; 71 7; 73 7; 74 9; 75 73; 
76 9; 77 29; 78 23; 79 39; 80 75; 
81 145; 82 999; 83 339; 84 49; 85 8; 
91 43; 92 13; 93 47; 94 387; 95 274; 
96 293; 97 117; 98 11; 100 10; 106 15; 
107 11; 108 36; 109 13; 110 19; 118 13; 
119 37; 120 32; 121 10; 122 72; 123 324; 
124 36; 138 9; 140 20; 150 14; 152 67; 
153 14; 154 11; 155 20; 166 27; 180 11; 
181 49; 182 558; 183 78; 198 59; 199 8; 
207 22; 281 8; 290 24; 321 65; 322 9; 
