Name: N-Methyl-2C-H
InChIKey: PIGIFXLLTQEIPK-UHFFFAOYSA-N
Synon: N-Me-2C-H
Synon: 2,5-Dimethoxy-N-methylphenethylamine
Formula: C11H17NO2
MW: 195
ExactMass: 195.125929
CASNO: 0
ID: 4767
Comment: ENFSI / NFL Slovenija (RESPONSE project AG JUST/2013/ISEC/DRUGS/AG/6413); confirmed by NMR
Num Peaks: 39
32 47; 39 26; 40 13; 42 48; 44 999; 
45 33; 51 34; 52 15; 53 23; 55 14; 
63 17; 65 60; 66 12; 77 73; 78 50; 
79 32; 89 19; 91 62; 92 11; 93 11; 
94 11; 106 16; 108 28; 121 60; 122 13; 
123 22; 135 18; 137 136; 138 19; 148 11; 
149 12; 150 11; 151 26; 152 534; 153 52; 
162 44; 163 15; 164 40; 195 11; 
