Name: 1P-LSD
InChIKey: JSMQOVGXBIDBIE-UHFFFAOYSA-N
Synon: N,N-diethyl-7-methyl-4-propanoyl-6,6a,8,9-tetrahydroindolo[4,3-fg]quinoline-9-carboxamide
Synon: 1-Propionyl-lysergic acid diethylamide
Formula: C23H29N3O2
MW: 379
ExactMass: 379.225977
CASNO: 0
ID: 4769
Comment: ENFSI / NFL Slovenija (RESPONSE project AG JUST/2013/ISEC/DRUGS/AG/6413); confirmed by NMR
Num Peaks: 187
51 5; 53 5; 54 9; 55 42; 56 28; 
57 280; 58 58; 59 3; 60 3; 63 7; 
65 5; 66 4; 67 6; 68 14; 69 1; 
70 17; 71 5; 72 612; 73 41; 74 52; 
75 8; 76 12; 77 14; 78 3; 79 3; 
80 4; 81 3; 82 5; 83 6; 84 15; 
85 6; 86 12; 87 3; 88 1; 89 14; 
90 9; 91 2; 92 4; 94 12; 95 5; 
96 10; 97 17; 98 5; 99 4; 100 184; 
101 22; 102 15; 103 6; 104 6; 105 3; 
110 13; 111 14; 112 7; 113 7; 114 6; 
115 18; 116 7; 117 4; 118 6; 119 3; 
121 3; 123 6; 124 5; 125 11; 126 34; 
127 60; 128 229; 129 24; 130 8; 131 2; 
133 6; 137 4; 138 7; 139 30; 140 24; 
141 10; 142 7; 143 4; 144 3; 147 4; 
149 7; 150 39; 151 143; 152 180; 153 105; 
154 177; 155 45; 156 12; 161 2; 163 14; 
164 42; 165 63; 166 63; 167 203; 168 62; 
169 8; 175 4; 176 9; 177 29; 178 174; 
179 145; 180 264; 181 479; 182 105; 183 22; 
184 5; 189 3; 190 37; 191 112; 192 208; 
193 106; 194 79; 195 128; 196 154; 197 25; 
203 12; 204 22; 205 289; 206 224; 207 569; 
208 219; 209 48; 210 10; 211 6; 217 5; 
218 11; 219 118; 220 203; 221 818; 222 315; 
223 226; 224 43; 225 5; 230 4; 231 4; 
233 9; 234 9; 235 17; 237 166; 238 31; 
239 4; 247 8; 248 10; 249 45; 250 18; 
251 35; 252 97; 253 24; 254 4; 261 4; 
262 9; 263 56; 264 32; 265 37; 266 10; 
269 2; 275 6; 277 945; 278 340; 279 262; 
281 25; 282 3; 292 5; 293 4; 294 4; 
295 3; 306 6; 307 13; 308 7; 320 4; 
321 15; 322 63; 323 19; 326 1; 327 2; 
328 2; 335 8; 336 69; 337 22; 338 4; 
341 1; 342 15; 343 1; 350 4; 355 1; 
377 7; 379 999; 
