Name: 3,4-Methylenedioxy-PV9
InChIKey: SUZXRHPREJMNOG-UHFFFAOYSA-N
Synon: 1-(2H-1,3-benzodioxol-5-yl)-2-(pyrrolidin-1-yl)octan-1-one
Formula: C19H27NO3
MW: 317
ExactMass: 317.199093
CASNO: 0
ID: 4774
Comment: ENFSI / NFL Slovenija (RESPONSE project AG JUST/2013/ISEC/DRUGS/AG/6413); confirmed by NMR
Num Peaks: 93
51 4; 52 1; 53 8; 54 18; 55 57; 
56 22; 57 3; 62 5; 63 23; 64 4; 
65 49; 66 4; 67 6; 68 19; 69 39; 
70 25; 71 4; 72 2; 73 1; 74 1; 
75 1; 76 1; 77 6; 78 2; 79 4; 
80 6; 81 4; 82 8; 83 3; 84 47; 
85 2; 89 1; 90 1; 91 15; 92 2; 
93 1; 94 5; 95 4; 96 46; 97 28; 
98 15; 99 1; 102 1; 103 3; 104 1; 
105 1; 106 1; 108 3; 110 47; 111 4; 
115 2; 116 2; 117 2; 118 1; 119 4; 
120 2; 121 36; 122 6; 124 3; 131 2; 
132 1; 133 1; 135 7; 136 1; 138 1; 
140 1; 145 1; 146 1; 147 4; 148 2; 
149 56; 150 5; 151 1; 160 1; 161 1; 
164 15; 165 2; 166 16; 167 5; 168 999; 
169 135; 170 8; 174 1; 175 1; 177 2; 
204 2; 207 5; 208 1; 228 1; 230 1; 
232 4; 233 1; 281 2; 
