Name: MMDA-2
InChIKey: GPVJAXJRAZVITB-UHFFFAOYSA-N
Synon: 1-(6-Methoxy-2H-1,3-benzodioxol-5-yl)propan-2-amine
Synon: 2-Methoxy-4,5-methylenedioxyamphetamine
Synon: 2-Methoxy-MDA
Synon: 2-MeO-MDA
Formula: C11H15NO3
MW: 209
ExactMass: 209.105193
CASNO: 0
ID: 4775
Comment: ENFSI / NFL Slovenija (RESPONSE project AG JUST/2013/ISEC/DRUGS/AG/6413); confirmed by NMR
Num Peaks: 105
31 5; 32 11; 37 2; 38 9; 39 36; 
40 6; 41 13; 42 47; 43 14; 44 999; 
45 29; 47 5; 48 2; 49 2; 50 20; 
51 41; 52 14; 53 69; 54 8; 55 14; 
56 3; 57 5; 58 1; 59 3; 61 4; 
62 11; 63 38; 64 41; 65 41; 66 23; 
67 18; 68 5; 69 38; 70 2; 73 1; 
74 7; 75 8; 76 15; 77 114; 78 23; 
79 45; 80 11; 81 8; 82 3; 83 1; 
88 2; 90 14; 91 13; 92 26; 93 20; 
94 6; 95 5; 97 7; 102 2; 103 5; 
104 8; 105 29; 106 9; 107 21; 108 10; 
109 4; 117 2; 118 4; 119 6; 120 5; 
121 32; 122 7; 123 5; 124 1; 131 1; 
132 9; 133 9; 134 5; 135 65; 136 16; 
137 10; 138 1; 146 6; 147 12; 148 3; 
149 7; 150 11; 151 254; 152 34; 153 3; 
161 3; 162 8; 163 5; 164 5; 165 119; 
166 776; 167 76; 168 8; 175 3; 176 5; 
177 4; 178 5; 179 2; 192 7; 193 3; 
194 4; 207 1; 208 2; 209 9; 210 1; 
