Name: 1,3-Indanedione
InChIKey: UHKAJLSKXBADFT-UHFFFAOYSA-N
Synon: 2,3-Dihydro-1H-indene-1,3-dione
Synon: 1,3-Dioxoindan
Synon: Indandione
Synon: 1,3-Diketohydrindene
Synon: 1,3-Dioxoindane
Synon: 1,3-Hydrindendione
Formula: C9H6O2
MW: 146
ExactMass: 146.036779
CASNO: 606235
ID: 4778
Comment: ENFSI / NFL Slovenija (RESPONSE project AG JUST/2013/ISEC/DRUGS/AG/6413); confirmed by NMR
Num Peaks: 50
32 55; 36 5; 37 30; 38 39; 39 54; 
40 16; 41 20; 42 58; 43 16; 44 10; 
45 21; 48 5; 49 45; 50 366; 51 84; 
52 11; 53 15; 59 31; 60 6; 61 38; 
62 81; 63 149; 64 53; 69 22; 73 41; 
74 207; 75 157; 76 802; 77 99; 78 5; 
84 21; 85 15; 86 27; 87 19; 88 7; 
89 259; 90 499; 91 38; 98 9; 101 4; 
102 11; 103 10; 104 702; 105 133; 106 11; 
118 199; 119 19; 146 999; 147 113; 148 7; 
