Name: 2C-iP
InChIKey: XUGPCRRUMVWELT-UHFFFAOYSA-N
Synon: 2-[2,5-Dimethoxy-4-(propan-2-yl)phenyl]ethan-1-amine
Synon: 2-(4-Isopropyl-2,5-dimethoxyphenyl)ethan-1-amine
Formula: C13H21NO2
MW: 223
ExactMass: 223.157228
CASNO: 1498978474
ID: 4779
Comment: ENFSI / NFL Slovenija (I-SEE project JUST/2013/ISEC/DRUGS/AG/6426); confirmed by NMR
Num Peaks: 140
30 247; 31 5; 32 8; 38 2; 39 31; 
40 4; 41 32; 42 5; 43 19; 44 4; 
45 5; 50 7; 51 23; 52 11; 53 29; 
54 4; 55 19; 56 1; 57 4; 59 5; 
60 1; 61 1; 62 3; 63 17; 64 8; 
65 38; 66 12; 67 24; 68 5; 69 6; 
70 2; 71 3; 73 2; 74 3; 75 7; 
76 7; 77 92; 78 33; 79 53; 80 9; 
81 6; 82 1; 83 1; 85 1; 86 1; 
87 2; 89 20; 90 10; 91 180; 92 26; 
93 21; 94 7; 95 5; 96 6; 101 2; 
102 11; 103 58; 104 26; 105 105; 106 17; 
107 23; 108 14; 109 8; 110 1; 114 1; 
115 85; 116 44; 117 72; 118 23; 119 49; 
120 18; 121 56; 122 16; 123 25; 124 5; 
125 1; 127 8; 128 18; 129 21; 130 12; 
131 66; 132 21; 133 69; 134 24; 135 66; 
136 30; 137 23; 138 7; 139 10; 140 1; 
141 1; 143 3; 144 5; 145 10; 146 14; 
147 37; 148 90; 149 51; 150 15; 151 112; 
152 15; 153 2; 158 2; 159 3; 160 5; 
161 16; 162 13; 163 75; 164 90; 165 27; 
166 7; 173 1; 174 3; 175 3; 176 11; 
177 25; 178 32; 179 922; 180 115; 181 10; 
182 1; 188 2; 189 2; 190 4; 191 21; 
192 34; 193 215; 194 999; 195 132; 196 11; 
204 5; 205 1; 206 10; 207 3; 219 2; 
221 5; 222 1; 223 176; 224 25; 225 2; 
