Name: Eticyclidone
InChIKey: IDLSBAANXISGEI-UHFFFAOYSA-N
Synon: Deschloro-N-ethyl-Ketamine
Synon: 2-(Ethylamino)-2-phenylcyclohexan-1-one
Synon: 2-(Ethylamino)-2-phenyl-cyclohexanone
Synon: O-PCE
Synon: 2-Oxo-PCE
Formula: C14H19NO
MW: 217
ExactMass: 217.146665
CASNO: 4551922
ID: 4780
Comment: ENFSI / NFL Slovenija (RESPONSE project AG JUST/2013/ISEC/DRUGS/AG/6413); confirmed by NMR
Num Peaks: 126
30 23; 32 7; 38 3; 39 34; 40 8; 
41 47; 42 41; 43 8; 44 93; 45 4; 
46 1; 49 1; 50 14; 51 52; 52 13; 
53 10; 54 25; 55 25; 56 13; 57 2; 
58 6; 62 4; 63 17; 64 5; 65 29; 
67 19; 68 9; 69 4; 70 4; 72 6; 
74 5; 75 8; 76 21; 77 202; 78 37; 
79 17; 80 4; 81 2; 82 6; 83 2; 
84 12; 85 1; 86 2; 87 2; 88 2; 
89 23; 90 7; 91 147; 92 14; 93 2; 
94 3; 95 1; 96 1; 101 3; 102 20; 
103 106; 104 384; 105 55; 106 6; 107 1; 
110 2; 112 32; 113 4; 114 2; 115 108; 
116 30; 117 170; 118 26; 119 10; 120 2; 
126 1; 127 9; 128 28; 129 20; 130 44; 
131 30; 132 83; 133 11; 134 8; 135 1; 
139 1; 140 3; 141 5; 142 4; 143 14; 
144 34; 145 42; 146 162; 147 52; 148 5; 
152 2; 153 1; 154 1; 155 2; 156 3; 
157 1; 158 15; 159 6; 160 999; 161 127; 
162 7; 167 1; 168 1; 169 1; 170 6; 
171 5; 172 10; 173 5; 174 14; 175 2; 
180 1; 182 1; 184 2; 186 8; 187 2; 
188 120; 189 179; 190 26; 191 1; 198 5; 
199 3; 200 7; 201 4; 214 2; 215 2; 
217 2; 
