Name: Fluorolintane
InChIKey: ZAGWVXYVNFPCLW-UHFFFAOYSA-N
Synon: 1-(1-(2-fluorophenyl)-2-phenylethyl)pyrrolidine
Synon: 2-FPPP
Formula: C18H20FN
MW: 269
ExactMass: 269.157978
CASNO: 0
ID: 4781
Comment: ENFSI / NFL Slovenija (RESPONSE project AG JUST/2013/ISEC/DRUGS/AG/6413); confirmed by NMR
Num Peaks: 116
50 2; 51 10; 52 2; 53 4; 54 4; 
55 18; 56 2; 57 2; 62 2; 63 6; 
64 1; 65 17; 66 1; 68 2; 69 1; 
70 6; 74 1; 75 9; 76 3; 77 19; 
78 5; 79 2; 81 2; 82 1; 83 10; 
84 1; 85 1; 86 1; 87 1; 88 1; 
89 7; 90 2; 91 37; 92 3; 94 2; 
95 5; 96 5; 97 6; 98 2; 99 1; 
101 18; 102 11; 103 17; 104 4; 105 2; 
107 9; 108 8; 109 151; 110 11; 111 1; 
115 2; 116 1; 117 3; 118 1; 120 4; 
121 17; 122 23; 123 4; 124 10; 125 1; 
126 1; 127 2; 128 2; 129 3; 130 3; 
131 1; 133 5; 134 3; 135 9; 136 17; 
137 1; 139 1; 144 1; 146 3; 147 3; 
148 11; 149 17; 150 4; 151 3; 152 3; 
154 1; 156 1; 157 1; 158 2; 159 1; 
160 1; 165 3; 169 1; 170 5; 171 2; 
172 1; 173 1; 174 19; 175 4; 176 29; 
177 15; 178 999; 179 124; 180 7; 181 1; 
182 1; 183 16; 184 5; 194 3; 195 1; 
196 16; 197 14; 198 12; 199 6; 200 3; 
207 1; 262 1; 265 1; 266 1; 267 1; 
268 1; 
