Name: Isovaleryl indandione
InChIKey: PVWMAOPFDINGAY-UHFFFAOYSA-N
Synon: 2-Isovaleryl-1,3-indanedione
Synon: 2-Isovalerylindan-1,3-dione; 2-(3-methylbutanoyl)-1H-indene-1,3(2H)-dione
Synon: 2-(3-Methyl-1-oxobutyl)-1H-indene-1,3(2H)-dione
Synon: Valone
Synon: Isoval
Formula: C14H14O3
MW: 230
ExactMass: 230.094295
CASNO: 0
ID: 4783
Comment: ENFSI / NFL Slovenija (RESPONSE project AG JUST/2013/ISEC/DRUGS/AG/6413); confirmed by NMR
Num Peaks: 129
51 57; 52 8; 53 26; 54 3; 55 22; 
56 12; 57 18; 59 1; 61 6; 62 31; 
63 109; 64 14; 65 16; 66 11; 67 7; 
68 2; 69 60; 70 5; 71 3; 73 4; 
74 35; 75 50; 76 121; 77 268; 78 28; 
79 6; 80 1; 81 1; 82 1; 83 13; 
84 6; 85 8; 86 11; 87 19; 88 39; 
89 368; 90 42; 91 12; 92 4; 93 4; 
97 1; 98 5; 99 6; 100 20; 101 44; 
102 28; 103 41; 104 45; 105 278; 106 23; 
107 4; 113 18; 114 45; 115 59; 116 15; 
117 38; 118 11; 119 2; 121 1; 125 2; 
126 5; 127 7; 128 13; 129 11; 130 2; 
131 9; 132 2; 133 5; 134 1; 139 14; 
140 4; 141 21; 142 9; 143 4; 144 2; 
145 8; 146 292; 147 44; 148 3; 151 3; 
152 7; 153 6; 154 2; 155 5; 156 2; 
157 3; 158 1; 159 32; 160 9; 161 2; 
165 5; 166 1; 167 2; 168 3; 169 8; 
170 13; 171 3; 172 6; 173 999; 174 812; 
175 95; 176 10; 181 1; 182 1; 183 5; 
184 2; 185 1; 187 8; 188 92; 189 13; 
190 1; 194 1; 195 3; 196 1; 197 53; 
198 9; 199 4; 200 1; 201 1; 207 3; 
211 6; 212 3; 213 2; 214 1; 215 33; 
216 5; 230 157; 231 25; 232 2; 
