Name: TDIQ
InChIKey: JHLDJOBIUVJSTG-UHFFFAOYSA-N
Synon: 2H,5H,6H,7H,8H-[1,3]dioxolo[4,5-g]isoquinoline
Synon: 5,6,7,8-tetrahydro-1,3-dioxolo[4,5-g]isoquinoline
Synon: MDTHIQ
Synon: 6,7-Methylenedioxy-1,2,3,4-tetrahydroisoquinoline
Formula: C10H11NO2
MW: 177
ExactMass: 177.078979
CASNO: 15052058
ID: 4784
Comment: ENFSI / NFL Slovenija (I-SEE project JUST/2013/ISEC/DRUGS/AG/6426); confirmed by NMR
Num Peaks: 94
30 12; 31 5; 32 5; 37 5; 38 19; 
39 72; 40 13; 41 24; 42 21; 43 9; 
44 2; 45 3; 47 2; 49 3; 50 41; 
51 68; 52 24; 53 33; 54 11; 55 6; 
56 2; 58 3; 59 54; 61 12; 62 49; 
63 123; 64 49; 65 87; 66 16; 67 12; 
68 5; 69 1; 74 17; 75 17; 76 17; 
77 44; 78 28; 79 14; 80 10; 85 2; 
87 24; 88 51; 89 253; 90 101; 91 179; 
92 31; 93 11; 94 3; 95 1; 101 2; 
102 8; 103 15; 104 15; 105 8; 106 6; 
107 2; 114 4; 115 7; 116 37; 117 70; 
118 117; 119 56; 120 17; 121 15; 122 10; 
128 1; 129 2; 130 4; 131 8; 132 2; 
133 6; 134 5; 135 12; 136 1; 144 4; 
145 7; 146 42; 147 503; 148 999; 149 190; 
150 18; 151 1; 159 6; 160 4; 161 25; 
162 4; 172 8; 173 10; 174 69; 175 45; 
176 668; 177 504; 178 57; 179 5; 
