Name: DOBU
InChIKey: NGVDYAULSQKEGW-UHFFFAOYSA-N
Synon: 1-(4-Butyl-2,5-dimethoxyphenyl)propan-2-amine
Synon: 4-Butyl-2,5-dimethoxy-.alpha.-methyl-benzeneethanamine
Synon: 2,5-Dimethoxy-4-butylamphetamine
Synon: 4-Butyl-2,5-dimethoxyamphetamine
Formula: C15H25NO2
MW: 251
ExactMass: 251.188529
CASNO: 0
ID: 4785
Comment: ENFSI / NFL Slovenija (I-SEE project JUST/2013/ISEC/DRUGS/AG/6426); confirmed by NMR
Num Peaks: 127
51 17; 52 8; 53 20; 54 4; 55 19; 
56 4; 57 8; 58 3; 59 2; 62 2; 
63 13; 64 6; 65 44; 66 10; 67 23; 
68 4; 69 5; 70 1; 71 1; 73 1; 
74 3; 75 3; 76 4; 77 89; 78 44; 
79 54; 80 10; 81 6; 82 3; 83 2; 
85 1; 87 1; 89 18; 90 10; 91 171; 
92 25; 93 16; 94 6; 95 3; 96 2; 
101 2; 102 8; 103 53; 104 38; 105 69; 
106 13; 107 25; 108 13; 109 7; 110 1; 
115 37; 116 12; 117 27; 118 14; 119 26; 
120 33; 121 69; 122 31; 123 19; 124 2; 
127 5; 128 15; 129 9; 130 11; 131 19; 
132 12; 133 25; 134 36; 135 126; 136 18; 
137 25; 138 4; 139 1; 141 1; 142 1; 
143 2; 144 5; 145 9; 146 10; 147 20; 
148 14; 149 14; 150 15; 151 109; 152 14; 
153 2; 158 1; 159 3; 160 5; 161 10; 
162 14; 163 18; 164 14; 165 374; 166 49; 
167 4; 173 1; 174 2; 175 4; 176 5; 
177 14; 178 8; 179 7; 180 2; 190 1; 
191 7; 192 7; 193 40; 194 6; 204 2; 
205 1; 206 6; 207 55; 208 999; 209 150; 
210 14; 211 1; 218 6; 219 3; 220 5; 
221 1; 234 3; 235 2; 236 5; 250 3; 
251 10; 252 1; 
