Name: 3,4-Trimethylene-.alpha.-PVP
InChIKey: NBZPCEWLKPSIIL-UHFFFAOYSA-N
Synon: 1-(2,3-dihydro-1H-inden-5-yl)-2-(pyrrolidin-1-yl)pentan-1-one
Synon: 3',4'-trimethylene-.alpha.-Pyrrolidinovalerophenone
Synon: Indanyl-.alpha.-PVP
Synon: 3',4'-Trimethylene-.alpha.-PVP
Formula: C18H25NO
MW: 271
ExactMass: 271.193615
CASNO: 0
ID: 4786
Comment: ENFSI / NFL Slovenija (I-SEE project JUST/2013/ISEC/DRUGS/AG/6426); confirmed by NMR
Num Peaks: 87
51 3; 52 1; 53 5; 54 12; 55 34; 
56 11; 57 3; 62 1; 63 6; 64 1; 
65 6; 66 1; 67 2; 68 9; 69 23; 
70 15; 71 2; 72 1; 75 1; 76 1; 
77 4; 78 2; 79 1; 80 3; 81 2; 
82 4; 83 1; 84 26; 85 1; 89 7; 
90 1; 91 32; 92 2; 94 3; 95 2; 
96 30; 97 25; 98 9; 102 4; 103 1; 
108 1; 110 14; 111 1; 113 1; 114 1; 
115 78; 116 22; 117 27; 118 3; 122 2; 
124 22; 125 4; 126 999; 127 90; 128 9; 
129 5; 130 1; 131 5; 141 3; 142 1; 
143 2; 144 1; 145 35; 146 4; 152 1; 
153 1; 154 1; 155 2; 156 1; 157 2; 
160 4; 170 1; 171 1; 172 1; 173 1; 
198 1; 200 12; 201 2; 202 1; 224 2; 
225 1; 226 2; 228 4; 250 1; 251 1; 
253 1; 269 1; 
