Name: 5-MeO-DiBF
InChIKey: NBFMSQBTYHYVKP-UHFFFAOYSA-N
Synon: [2-(5-Methoxy-1-benzofuran-3-yl)ethyl]bis(propan-2-yl)amine
Formula: C17H25NO2
MW: 275
ExactMass: 275.18853
CASNO: 0
ID: 4789
Comment: ENFSI / NFL Slovenija (RESPONSE project AG JUST/2013/ISEC/DRUGS/AG/6413); confirmed by NMR
Num Peaks: 109
51 6; 52 2; 53 3; 54 5; 56 66; 
57 5; 58 5; 62 3; 63 9; 64 4; 
65 6; 68 3; 69 2; 70 31; 71 6; 
72 196; 73 7; 74 2; 75 3; 76 6; 
77 19; 78 6; 79 3; 80 1; 81 1; 
82 3; 84 5; 86 3; 87 3; 89 19; 
90 14; 91 18; 92 4; 93 1; 98 9; 
99 1; 100 2; 101 3; 102 9; 103 20; 
104 8; 105 5; 107 3; 108 1; 109 6; 
112 16; 113 6; 114 999; 115 96; 116 8; 
117 6; 118 23; 119 6; 120 1; 121 1; 
123 2; 127 2; 128 3; 129 2; 130 9; 
131 11; 132 15; 133 5; 134 1; 135 1; 
143 1; 144 4; 145 5; 146 21; 147 17; 
148 3; 156 1; 157 2; 159 13; 160 8; 
161 60; 162 15; 163 2; 171 1; 172 1; 
173 4; 174 28; 175 63; 176 7; 186 1; 
187 2; 188 4; 189 3; 190 3; 200 3; 
201 2; 202 11; 203 1; 207 2; 214 1; 
215 1; 216 8; 217 4; 218 1; 230 4; 
231 1; 232 1; 244 2; 258 26; 259 5; 
260 16; 261 3; 273 12; 274 3; 
