Name: 3,6-DMPM
InChIKey: FZEIVUHEODGHML-UHFFFAOYSA-N
Synon: 3,6-Dimethyl-2-phenylmorpholine
Synon: 2-Phenyl-3,6-dimethylmorpholine
Formula: C12H17NO
MW: 191
ExactMass: 191.131014
CASNO: 92902993
ID: 4790
Comment: ENFSI / NFL Slovenija (RESPONSE project AG JUST/2013/ISEC/DRUGS/AG/6413); confirmed by NMR
Num Peaks: 81
30 32; 31 2; 32 6; 36 1; 37 1; 
38 5; 39 72; 40 14; 41 122; 42 332; 
43 205; 44 467; 45 15; 50 28; 51 89; 
52 25; 53 11; 54 17; 55 13; 56 332; 
57 156; 58 15; 62 9; 63 33; 64 10; 
65 38; 66 5; 67 6; 68 36; 69 12; 
70 999; 71 49; 73 6; 74 10; 75 10; 
76 14; 77 221; 78 55; 79 61; 80 6; 
81 1; 82 5; 83 15; 84 66; 85 891; 
86 63; 87 4; 88 1; 89 55; 90 38; 
91 142; 92 14; 101 2; 102 13; 103 30; 
104 11; 105 131; 106 22; 107 12; 115 96; 
116 24; 117 170; 118 70; 119 8; 128 2; 
129 3; 130 13; 131 6; 132 6; 133 12; 
134 4; 143 1; 144 7; 145 3; 146 3; 
158 1; 176 2; 188 1; 189 2; 191 29; 
192 4; 
