Name: DB-MDBP
InChIKey: MPZINTHEMFDGTH-UHFFFAOYSA-N
Synon: 1-((2,2-Difluorobenzo[D][1,3]dioxol-5-yl)methyl)piperazine
Formula: C12H14F2N2O2
MW: 256
ExactMass: 256.102335
CASNO: 0
ID: 4791
Comment: ENFSI / NFL Slovenija (RESPONSE project AG JUST/2013/ISEC/DRUGS/AG/6413); confirmed by NMR
Num Peaks: 100
30 20; 31 1; 32 1; 38 3; 39 8; 
40 2; 41 11; 42 40; 43 11; 44 15; 
45 1; 47 2; 50 14; 51 83; 52 7; 
53 6; 54 12; 55 14; 56 148; 57 30; 
58 25; 59 1; 61 1; 62 4; 63 9; 
64 3; 65 5; 66 2; 67 1; 68 2; 
69 1; 70 4; 71 4; 72 2; 74 2; 
75 4; 76 12; 77 143; 78 15; 79 1; 
80 1; 81 2; 82 1; 83 12; 84 2; 
85 72; 86 4; 89 3; 90 2; 91 4; 
92 1; 96 1; 97 1; 99 6; 103 2; 
105 88; 106 7; 107 3; 108 2; 117 1; 
118 2; 119 1; 132 1; 135 1; 149 2; 
152 3; 171 999; 172 86; 173 7; 184 28; 
185 6; 186 1; 192 1; 197 2; 198 46; 
199 21; 200 52; 201 7; 210 2; 211 14; 
212 16; 213 12; 214 318; 215 34; 216 2; 
224 2; 225 4; 226 26; 227 16; 228 2; 
237 4; 238 1; 239 3; 241 5; 253 1; 
254 3; 255 15; 256 130; 257 17; 258 1; 
