Name: Phenmetetrazine precursor
InChIKey: PIQWNMHHXJMHFQ-UHFFFAOYSA-N
Synon: 2-[Ethyl(2-hydroxyethyl)amino]-1-phenylpropan-1-ol
Formula: C13H21NO2
MW: 223
ExactMass: 223.157228
CASNO: 0
ID: 4793
Comment: ENFSI / NFL Slovenija (RESPONSE project AG JUST/2013/ISEC/DRUGS/AG/6413); confirmed by NMR
Num Peaks: 86
31 4; 32 5; 36 1; 37 1; 38 3; 
39 11; 40 2; 41 11; 42 39; 43 23; 
44 65; 45 33; 49 1; 50 12; 51 33; 
52 8; 53 5; 54 8; 55 8; 56 77; 
57 25; 58 38; 59 2; 60 2; 62 2; 
63 7; 64 1; 65 7; 68 4; 70 58; 
71 18; 72 105; 73 6; 74 8; 75 3; 
77 94; 78 21; 79 29; 80 3; 82 2; 
84 9; 85 6; 86 11; 88 24; 89 8; 
90 6; 91 33; 92 4; 93 2; 96 2; 
97 3; 98 7; 99 10; 100 20; 101 1; 
102 3; 103 8; 105 59; 106 35; 107 7; 
114 14; 116 999; 117 106; 118 26; 119 3; 
120 1; 130 4; 131 1; 132 4; 133 5; 
134 4; 135 2; 143 1; 144 3; 146 2; 
158 1; 160 2; 162 5; 164 1; 174 1; 
178 3; 190 3; 192 6; 193 1; 207 2; 
208 1; 
