Name: 2-(1H-Indol-3-yl)-N,N-dipropylacetamide
InChIKey: AEPJTCZBIULDTE-UHFFFAOYSA-N
Formula: C16H22N2O
MW: 258
ExactMass: 258.173214
CASNO: 0
ID: 4794
Comment: ENFSI / NFL Slovenija (RESPONSE project AG JUST/2013/ISEC/DRUGS/AG/6413); confirmed by NMR
Num Peaks: 53
51 14; 52 5; 56 8; 58 7; 63 7; 
64 2; 65 4; 70 10; 72 39; 73 5; 
74 4; 75 12; 76 14; 77 88; 78 9; 
84 3; 86 127; 87 6; 89 4; 90 2; 
99 2; 100 18; 101 14; 102 45; 103 63; 
104 8; 114 8; 117 11; 118 2; 127 2; 
128 144; 129 63; 130 999; 131 110; 132 5; 
133 2; 142 2; 143 3; 144 2; 155 4; 
156 6; 157 11; 158 8; 186 2; 191 2; 
207 18; 208 3; 227 2; 229 3; 240 2; 
258 119; 259 20; 260 2; 
