Name: Lumacaftor-TFA
InChIKey: TVUKCGHBJUFZGM-UHFFFAOYSA-N
Synon: VX-809-TFA
Formula: C26H17F5N2O6
MW: 548
ExactMass: 548.100677
CASNO: 0
ID: 4795
Comment: ENFSI / NFL Slovenija (RESPONSE project AG JUST/2013/ISEC/DRUGS/AG/6413); confirmed by NMR; TFA derivative
Num Peaks: 378
51 18; 52 10; 53 24; 54 1; 55 1; 
57 1; 58 1; 59 4; 60 1; 61 1; 
62 3; 63 13; 64 3; 65 4; 66 3; 
70 2; 71 1; 72 3; 73 179; 74 20; 
75 51; 76 27; 77 164; 78 17; 79 6; 
80 5; 81 2; 82 1; 83 1; 84 2; 
85 1; 86 1; 87 2; 88 4; 89 12; 
90 3; 91 9; 92 4; 93 1; 94 1; 
96 3; 97 1; 98 1; 99 1; 100 1; 
101 11; 102 71; 103 350; 104 42; 105 11; 
106 2; 107 3; 108 13; 109 1; 113 3; 
114 13; 115 18; 116 6; 117 6; 118 2; 
119 3; 120 1; 121 4; 122 2; 125 2; 
126 3; 127 20; 128 14; 129 14; 130 21; 
131 150; 132 17; 133 12; 134 4; 135 4; 
136 1; 138 5; 139 28; 140 29; 141 10; 
142 5; 143 3; 144 1; 145 1; 146 2; 
147 11; 148 3; 149 3; 150 2; 151 5; 
152 9; 153 9; 154 40; 155 18; 156 7; 
157 3; 158 3; 159 4; 160 3; 161 2; 
162 1; 163 3; 164 11; 165 31; 166 54; 
167 28; 168 14; 169 34; 170 9; 171 6; 
172 1; 173 1; 174 1; 175 5; 176 2; 
177 4; 178 6; 179 11; 180 17; 181 97; 
182 35; 183 37; 184 10; 185 3; 186 1; 
189 1; 190 3; 191 6; 192 7; 193 9; 
194 27; 195 19; 196 19; 197 56; 198 23; 
199 3; 200 2; 201 1; 202 1; 203 3; 
204 5; 205 3; 207 55; 208 16; 209 45; 
210 24; 211 25; 212 6; 213 2; 214 5; 
215 2; 216 1; 218 1; 219 2; 220 3; 
221 8; 222 6; 223 11; 224 11; 225 13; 
226 5; 227 4; 228 2; 229 3; 230 2; 
231 1; 235 4; 236 1; 237 22; 238 9; 
239 95; 240 39; 241 44; 242 12; 243 5; 
244 3; 245 2; 247 4; 248 2; 249 20; 
250 4; 251 3; 252 2; 253 6; 254 10; 
255 13; 256 7; 257 4; 258 2; 259 2; 
260 1; 265 3; 266 3; 267 10; 268 5; 
269 12; 270 5; 271 3; 272 3; 273 2; 
274 1; 275 4; 276 1; 279 3; 280 2; 
281 25; 282 10; 283 21; 284 16; 285 16; 
286 5; 287 2; 288 1; 289 1; 290 1; 
292 1; 293 2; 294 2; 295 10; 296 5; 
297 4; 298 4; 299 80; 300 43; 301 14; 
302 4; 303 15; 304 9; 305 2; 307 1; 
308 1; 309 2; 310 2; 311 9; 312 5; 
313 6; 314 3; 315 2; 316 1; 317 1; 
318 1; 321 1; 323 3; 324 2; 325 6; 
326 2; 327 16; 328 5; 329 3; 330 1; 
331 9; 332 2; 333 1; 335 2; 336 1; 
337 1; 338 1; 339 5; 340 2; 341 10; 
342 3; 343 9; 344 3; 345 1; 347 1; 
348 1; 349 5; 350 5; 351 5; 352 2; 
353 4; 354 1; 355 4; 356 1; 357 2; 
358 1; 359 2; 360 1; 361 2; 362 2; 
363 3; 364 2; 365 4; 366 5; 367 4; 
368 1; 369 1; 370 1; 371 4; 372 1; 
373 3; 374 2; 375 2; 376 2; 377 10; 
378 10; 379 28; 380 7; 381 2; 383 1; 
385 1; 386 2; 387 2; 388 1; 389 3; 
390 1; 391 2; 392 1; 393 3; 394 22; 
395 5; 396 1; 399 1; 400 1; 401 4; 
402 2; 403 4; 404 8; 405 23; 406 6; 
407 2; 408 1; 409 1; 411 2; 412 1; 
413 65; 414 18; 415 37; 416 10; 417 2; 
422 1; 423 2; 424 1; 429 4; 430 2; 
431 4; 432 5; 433 3; 434 1; 435 2; 
436 1; 437 1; 451 4; 452 2; 453 3; 
454 1; 455 1; 465 2; 466 4; 467 8; 
468 7; 469 2; 470 1; 474 1; 475 2; 
479 2; 480 5; 481 49; 482 16; 483 5; 
484 1; 493 1; 494 1; 495 227; 496 999; 
497 341; 498 90; 499 19; 500 2; 505 1; 
509 21; 510 6; 511 2; 523 17; 524 45; 
525 16; 526 4; 527 1; 
