Name: LTI-701
InChIKey: FZYJALPWLNXEIP-UHFFFAOYSA-N
Synon: 1-(5-Fluoropentyl)-N-phenyl-1H-indole-3-carboxamide
Formula: C20H21FN2O
MW: 324
ExactMass: 324.163792
CASNO: 0
ID: 4801
Comment: ENFSI / NFL Slovenija (RESPONSE project AG JUST/2013/ISEC/DRUGS/AG/6413); confirmed by NMR
Num Peaks: 72
51 9; 52 5; 53 5; 55 4; 59 6; 
61 6; 62 4; 63 14; 64 10; 65 36; 
66 5; 69 14; 73 12; 75 8; 76 11; 
77 24; 78 8; 87 5; 88 13; 89 45; 
90 11; 91 8; 92 14; 93 6; 96 8; 
101 14; 102 32; 103 13; 110 9; 114 14; 
115 53; 116 117; 117 13; 119 12; 124 39; 
127 4; 128 24; 129 56; 130 34; 131 5; 
133 8; 142 5; 143 44; 144 307; 145 33; 
155 11; 156 13; 157 12; 158 5; 170 15; 
180 5; 191 9; 193 6; 205 7; 206 6; 
207 79; 208 20; 209 7; 212 10; 217 8; 
230 7; 232 999; 233 166; 234 15; 235 7; 
249 10; 281 24; 282 6; 283 6; 295 8; 
324 80; 325 19; 
