Name: Pivoxazepam-TMS
InChIKey: KLTTVPDHMXETRJ-UHFFFAOYSA-N
Synon: 7-Chloro-2-oxo-5-phenyl-2,3-dihydro-1H-1,4- benzodiazepin-3-yl 2,2-dimethylpropanoate-TMS
Formula: C23H27ClN2O3Si
MW: 442
ExactMass: 442.147947
CASNO: 0
ID: 4805
Comment: ENFSI / NFL Slovenija (RESPONSE project AG JUST/2013/ISEC/DRUGS/AG/6413); confirmed by NMR; TMS derivative
Num Peaks: 291
50 4; 51 14; 52 3; 53 3; 54 1; 
55 13; 56 11; 57 698; 58 42; 59 15; 
60 3; 61 8; 62 2; 63 10; 64 2; 
65 4; 67 1; 69 6; 70 12; 71 5; 
72 20; 73 804; 74 76; 75 127; 76 13; 
77 55; 78 6; 79 5; 80 1; 81 1; 
83 2; 84 6; 85 21; 86 7; 87 4; 
88 3; 89 7; 90 3; 91 11; 92 1; 
93 6; 94 1; 95 4; 96 1; 97 1; 
98 1; 99 4; 100 49; 101 7; 102 8; 
103 11; 104 18; 105 23; 106 3; 107 3; 
108 1; 109 1; 110 7; 111 5; 112 3; 
113 3; 114 3; 115 4; 116 4; 117 5; 
118 2; 119 3; 120 7; 121 6; 122 3; 
123 2; 124 8; 125 12; 126 7; 127 7; 
128 2; 129 3; 130 3; 131 11; 132 4; 
133 3; 134 1; 135 56; 136 13; 137 9; 
138 8; 139 7; 140 4; 141 2; 143 2; 
144 14; 145 6; 146 6; 147 2; 148 2; 
149 4; 150 12; 151 36; 152 17; 153 8; 
154 2; 155 2; 156 1; 157 1; 158 1; 
159 32; 160 7; 161 3; 162 5; 163 23; 
164 15; 165 12; 166 6; 167 7; 168 4; 
169 3; 170 1; 172 1; 173 2; 174 3; 
175 3; 176 10; 177 33; 178 27; 179 12; 
180 6; 181 3; 182 9; 183 3; 184 4; 
185 1; 186 3; 187 2; 188 7; 189 7; 
190 19; 191 9; 192 4; 193 3; 194 3; 
195 2; 196 4; 197 1; 198 2; 199 5; 
200 1; 201 3; 202 3; 203 7; 204 12; 
205 35; 206 18; 207 15; 208 4; 209 3; 
210 5; 211 1; 212 5; 213 32; 214 10; 
215 13; 216 4; 217 2; 218 1; 219 2; 
220 3; 221 5; 222 2; 223 1; 224 6; 
225 2; 226 3; 227 7; 228 3; 229 3; 
230 2; 231 2; 232 1; 233 1; 234 3; 
235 4; 236 3; 237 3; 238 4; 239 35; 
240 14; 241 29; 242 11; 243 8; 244 2; 
245 1; 247 1; 248 1; 249 1; 250 3; 
251 2; 252 2; 253 2; 254 3; 255 7; 
256 5; 257 17; 258 4; 259 4; 260 1; 
261 1; 263 1; 264 2; 265 2; 266 1; 
267 7; 268 3; 269 11; 270 5; 271 5; 
272 2; 273 1; 275 1; 276 1; 277 6; 
278 8; 279 9; 280 2; 281 4; 282 2; 
283 3; 284 4; 285 3; 286 3; 287 2; 
289 1; 290 1; 291 1; 292 1; 293 3; 
294 6; 295 5; 296 2; 297 7; 298 4; 
299 15; 300 4; 301 5; 302 2; 304 1; 
305 1; 306 1; 307 1; 309 1; 310 1; 
311 5; 312 14; 313 528; 314 134; 315 207; 
316 46; 317 13; 318 2; 325 6; 326 8; 
327 29; 328 16; 329 999; 330 252; 331 375; 
332 89; 333 22; 334 3; 339 9; 340 71; 
341 110; 342 60; 343 117; 344 32; 345 31; 
346 8; 347 2; 357 105; 358 29; 359 42; 
360 10; 361 2; 399 1; 427 4; 428 1; 
429 2; 441 4; 442 14; 443 6; 444 5; 
445 1; 
