Name: 2C-B-NBOH-2TMS
InChIKey: UCISOEQRJPLMRO-UHFFFAOYSA-N
Synon: 25B-NBOH-2TMS
Synon: 2-({[2-(4-Bromo-2,5-dimethoxyphenyl)ethyl]amino}methyl)phenol-2TMS derivative
Synon: NBOH-2C-B -2TMS
Formula: C23H36BrNO3Si2
MW: 509
ExactMass: 509.141708
CASNO: 0
ID: 4807
Comment: ENFSI / NFL Slovenija (RESPONSE project AG JUST/2013/ISEC/DRUGS/AG/6413); TMS derivative; confirmed by NMR
Num Peaks: 156
51 5; 52 1; 53 4; 55 1; 57 2; 
58 2; 59 33; 60 2; 61 2; 63 4; 
64 2; 65 6; 66 1; 67 2; 69 1; 
71 1; 72 3; 73 280; 74 25; 75 42; 
76 5; 77 32; 78 11; 79 9; 80 2; 
81 1; 82 3; 83 1; 85 1; 86 9; 
87 1; 88 1; 89 13; 90 11; 91 40; 
92 10; 93 3; 95 1; 100 5; 101 2; 
102 4; 103 6; 104 6; 105 42; 106 9; 
107 15; 108 2; 109 1; 115 1; 116 1; 
117 3; 118 4; 119 6; 120 7; 121 9; 
122 5; 123 2; 130 1; 131 4; 132 3; 
133 9; 134 11; 135 42; 136 6; 137 7; 
139 1; 143 3; 145 4; 146 2; 147 11; 
148 9; 149 45; 150 9; 151 31; 152 4; 
153 1; 156 1; 157 1; 158 1; 159 1; 
161 23; 162 7; 163 128; 164 28; 165 19; 
166 2; 169 3; 170 1; 171 4; 172 1; 
173 1; 175 1; 176 4; 177 42; 178 17; 
179 999; 180 161; 181 45; 182 4; 184 2; 
185 1; 186 4; 187 1; 188 2; 190 3; 
191 2; 192 19; 193 5; 194 3; 195 1; 
199 15; 200 2; 201 14; 202 1; 206 11; 
207 6; 208 154; 209 27; 210 7; 211 1; 
213 5; 214 1; 215 6; 216 1; 217 1; 
221 1; 227 2; 228 8; 229 14; 230 13; 
231 12; 232 5; 236 1; 237 2; 240 1; 
242 1; 243 8; 244 2; 245 8; 246 1; 
250 2; 257 1; 259 1; 264 1; 266 1; 
272 1; 274 1; 278 10; 279 3; 280 416; 
281 107; 282 41; 283 7; 284 1; 301 1; 
327 1; 
