Name: JWH-072-N-carboxy-TMS
InChIKey: PFASVPPJFONHQF-UHFFFAOYSA-N
Synon: 3-[3-(Naphthalene-1-carbonyl)-1H-indol-1-yl]propanoic acid-TMS derivative
Formula: C25H25NO3Si
MW: 415
ExactMass: 415.16037
CASNO: 0
ID: 4808
Comment: ENFSI / NFL Slovenija (RESPONSE project AG JUST/2013/ISEC/DRUGS/AG/6413); TMS derivative; confirmed by NMR
Num Peaks: 219
51 8; 52 1; 53 2; 55 135; 56 5; 
57 3; 58 7; 59 10; 60 3; 61 13; 
62 4; 63 8; 64 2; 65 3; 70 1; 
71 2; 73 447; 74 46; 75 164; 76 21; 
77 43; 78 5; 79 1; 81 1; 85 4; 
86 3; 87 6; 88 12; 89 23; 90 3; 
91 1; 93 1; 94 2; 96 5; 98 1; 
99 4; 101 38; 102 30; 103 130; 104 15; 
105 6; 106 4; 107 4; 111 1; 113 10; 
114 15; 115 66; 116 40; 117 11; 118 2; 
119 3; 121 8; 125 5; 126 61; 127 427; 
128 100; 129 67; 130 23; 131 5; 133 8; 
134 4; 135 2; 137 3; 139 12; 140 7; 
141 28; 142 20; 143 35; 144 86; 145 14; 
146 2; 147 4; 148 2; 149 3; 150 2; 
151 3; 152 5; 153 3; 155 269; 156 40; 
157 5; 158 2; 159 1; 161 1; 163 7; 
164 4; 165 4; 166 1; 167 32; 168 5; 
170 42; 171 9; 172 5; 173 1; 174 2; 
175 1; 176 3; 177 4; 179 20; 181 2; 
183 1; 184 1; 185 2; 186 3; 187 7; 
188 4; 189 7; 190 2; 191 7; 192 2; 
193 4; 196 1; 198 4; 200 6; 201 3; 
202 6; 203 2; 204 1; 207 52; 208 11; 
209 7; 210 1; 211 5; 212 3; 213 28; 
214 18; 215 24; 216 11; 217 10; 218 1; 
219 1; 223 1; 224 5; 225 5; 226 22; 
227 12; 228 11; 229 5; 230 2; 237 2; 
238 7; 239 13; 240 33; 241 73; 242 30; 
243 12; 244 4; 249 1; 250 1; 251 7; 
252 9; 253 29; 254 147; 255 55; 256 39; 
257 8; 258 1; 260 1; 264 2; 265 9; 
266 33; 267 38; 268 19; 270 999; 271 231; 
272 28; 273 3; 278 3; 279 2; 280 20; 
281 30; 282 208; 283 341; 284 187; 285 37; 
286 4; 288 273; 289 67; 290 18; 291 2; 
294 2; 296 66; 297 66; 298 35; 299 7; 
308 2; 309 1; 324 12; 325 21; 326 8; 
327 2; 328 2; 329 1; 340 1; 341 2; 
342 18; 343 5; 344 2; 346 1; 355 3; 
356 2; 357 1; 358 15; 359 4; 360 1; 
370 3; 371 1; 372 1; 387 3; 388 1; 
398 42; 400 121; 401 37; 402 10; 403 2; 
415 306; 416 101; 417 27; 418 4; 
