Name: JWH-166
InChIKey: JCOOBICVPDFZNX-UHFFFAOYSA-N
Synon: (6-methoxy-1-naphthalenyl)(1-pentyl-1H-indol-3-yl)-methanone
Synon: 1-Pentyl-3-(6-methoxy-1-naphthoyl)indole
Synon: JWH-081 6-methoxynaphthyl isomer
Formula: C25H25NO2
MW: 371
ExactMass: 371.18853
CASNO: 824961413
ID: 4810
Comment: Provided by www.caymanchem.com/app/template/landing%2CForensic.vm / Item #9001047  Lot #0431274
Num Peaks: 146
41 85; 43 199; 44 2; 51 10; 55 26; 
62 7; 64 13; 73 2; 75 9; 76 17; 
77 20; 78 8; 87 10; 88 32; 89 53; 
95 11; 100 12; 101 24; 102 54; 103 22; 
106 10; 107 15; 108 14; 109 16; 113 48; 
114 179; 115 73; 116 148; 117 24; 119 9; 
121 68; 126 51; 127 84; 128 115; 129 80; 
130 79; 132 8; 134 7; 135 32; 137 8; 
139 9; 141 17; 142 153; 143 72; 144 490; 
145 44; 149 13; 150 20; 151 20; 154 16; 
155 13; 156 45; 157 342; 158 87; 159 15; 
163 9; 169 10; 170 37; 171 25; 174 7; 
175 10; 176 9; 177 8; 185 268; 186 88; 
187 25; 188 9; 189 11; 191 1; 197 259; 
198 46; 199 10; 200 42; 201 42; 202 52; 
203 24; 207 13; 211 10; 212 12; 214 999; 
215 184; 216 23; 225 9; 226 17; 227 50; 
228 132; 229 74; 230 26; 237 8; 238 10; 
240 58; 241 127; 242 117; 243 78; 244 11; 
251 7; 252 9; 253 26; 254 68; 255 32; 
256 65; 257 144; 258 40; 259 10; 266 8; 
267 12; 268 11; 269 53; 270 87; 271 51; 
272 29; 281 14; 282 14; 283 22; 284 68; 
285 81; 286 64; 287 19; 296 13; 297 27; 
298 28; 299 28; 300 190; 301 44; 302 11; 
310 15; 311 7; 312 16; 314 437; 315 97; 
316 15; 328 22; 338 7; 340 72; 341 12; 
342 23; 343 19; 352 22; 354 467; 355 145; 
356 38; 357 10; 370 335; 371 902; 372 236; 
373 37; 
