Name: Methylepitiostanol
InChIKey: UPLPHRJJTCUQAY-WIRWPRASSA-N
Synon: Methylepithiostanol
Synon: Epistane
Synon: Hemapolin
Synon: Havoc
Synon: Epi Plex
Synon: 17.alpha.-Methylepitiostanol
Synon: 2.alpha.,3.alpha.-Epithio-17.alpha.-methyl-4,5.alpha.-dihydrotestosterone
Synon: 2.alpha.,3.alpha.-Epithio-17.alpha.-methyl-DHT
Synon: 2.alpha.,3.alpha.-epithio-17.alpha.-methyl-5.alpha.-androstan-17.beta.-ol
Formula: C20H32OS
MW: 320
ExactMass: 320.217386
CASNO: 4267805
ID: 4811
Comment: DEA SWL / SWGDRUG Monograph available
Num Peaks: 236
38 1; 39 88; 40 26; 41 348; 42 24; 
43 634; 44 50; 45 64; 46 1; 47 23; 
49 1; 50 7; 51 29; 52 17; 53 187; 
54 78; 55 398; 56 21; 57 134; 58 110; 
59 54; 60 5; 61 7; 62 1; 63 8; 
64 4; 65 135; 66 59; 67 458; 68 81; 
69 189; 70 19; 71 372; 72 65; 73 77; 
74 5; 75 7; 76 3; 77 429; 78 107; 
79 779; 80 169; 81 569; 82 58; 83 166; 
84 17; 85 81; 86 10; 87 16; 88 3; 
89 13; 90 6; 91 999; 92 254; 93 710; 
94 169; 95 438; 96 53; 97 122; 98 20; 
99 28; 100 7; 101 9; 102 7; 103 63; 
104 66; 105 794; 106 380; 107 596; 108 237; 
109 251; 110 54; 111 104; 112 14; 113 25; 
114 7; 115 98; 116 38; 117 184; 118 204; 
119 348; 120 149; 121 283; 122 88; 123 147; 
124 16; 125 50; 126 5; 127 22; 128 60; 
129 94; 130 38; 131 212; 132 77; 133 273; 
134 122; 135 204; 136 41; 137 23; 138 7; 
139 39; 140 12; 141 30; 142 18; 143 72; 
144 32; 145 227; 146 67; 147 306; 148 96; 
149 127; 150 67; 151 41; 152 15; 153 17; 
154 10; 155 16; 156 16; 157 57; 158 27; 
159 188; 160 103; 161 264; 162 91; 163 124; 
164 21; 165 24; 166 13; 167 20; 168 13; 
169 8; 170 3; 171 26; 172 22; 173 119; 
174 100; 175 94; 176 212; 177 43; 178 12; 
179 15; 180 7; 181 5; 182 1; 183 10; 
184 2; 185 23; 186 7; 187 62; 188 36; 
189 61; 190 11; 191 7; 192 2; 193 10; 
194 2; 195 3; 196 1; 197 13; 198 5; 
199 19; 200 10; 201 87; 202 27; 203 36; 
204 5; 205 6; 207 17; 208 3; 209 2; 
210 2; 211 12; 212 3; 213 65; 214 31; 
215 152; 216 197; 217 65; 218 12; 219 4; 
220 4; 221 1; 225 1; 226 9; 227 17; 
228 78; 229 58; 230 145; 231 37; 232 8; 
233 9; 234 88; 235 17; 236 1; 239 1; 
241 5; 243 1; 245 3; 246 3; 247 6; 
248 1; 249 3; 252 1; 253 39; 254 3; 
255 163; 256 29; 257 5; 258 1; 262 10; 
263 11; 264 1; 266 1; 267 2; 268 29; 
269 70; 270 73; 271 22; 272 7; 273 13; 
274 5; 281 3; 282 1; 283 2; 284 1; 
285 1; 286 264; 287 75; 288 80; 289 15; 
290 2; 302 3; 305 2; 320 13; 321 2; 
322 1; 
