Name: Methyl Benzoate
InChIKey: QPJVMBTYPHYUOC-UHFFFAOYSA-N
Synon: Benzoic acid, methyl ester
Synon: Oil of niobe
Synon: Niobe Oil
Synon: Methyl benzenecarboxylate
Formula: C8H8O2
MW: 136
ExactMass: 136.052429
CASNO: 93583
ID: 4813
Comment: DEA SWL / breakdown from benzoyl chloride
Num Peaks: 45
37 11; 38 21; 39 28; 40 1; 44 1; 
45 2; 48 1; 49 14; 50 159; 51 327; 
52 19; 53 9; 59 13; 60 1; 61 4; 
62 9; 63 11; 64 5; 65 9; 66 1; 
73 14; 74 69; 75 42; 76 56; 77 711; 
78 58; 79 3; 89 1; 90 1; 91 27; 
92 35; 93 3; 103 2; 104 1; 105 999; 
106 92; 107 5; 118 3; 119 5; 120 2; 
121 2; 135 32; 136 378; 137 35; 138 3; 
