Name: Docosane
InChIKey: HOWGUJZVBDQJKV-UHFFFAOYSA-N
Synon: n-Docosane
Synon: Heneicosane, methyl-
Formula: C22H46
MW: 310
ExactMass: 310.359951
CASNO: 629970
ID: 4817
Comment: DEA SWL
Num Peaks: 83
39 30; 40 6; 41 295; 42 74; 43 654; 
44 23; 51 1; 52 1; 53 17; 54 25; 
55 269; 56 141; 57 999; 58 46; 65 2; 
66 2; 67 34; 68 27; 69 164; 70 123; 
71 753; 72 44; 77 3; 79 5; 80 1; 
81 14; 82 33; 83 122; 84 82; 85 576; 
86 36; 93 1; 95 5; 96 18; 97 101; 
98 57; 99 183; 100 14; 109 1; 110 9; 
111 51; 112 45; 113 109; 114 10; 124 4; 
125 21; 126 32; 127 70; 128 6; 138 2; 
139 6; 140 26; 141 48; 142 4; 152 1; 
153 3; 154 21; 155 34; 156 2; 167 1; 
168 13; 169 19; 170 2; 182 10; 183 16; 
184 2; 196 8; 197 8; 198 1; 210 4; 
211 10; 212 1; 224 2; 225 5; 238 3; 
239 5; 252 1; 253 5; 266 1; 267 3; 
281 1; 310 10; 311 2; 
