Name: Isopropyl Palmitate
InChIKey: XUGNVMKQXJXZCD-UHFFFAOYSA-N
Synon: Isopropyl hexadecanoate
Synon: Hexadecanoic acid, 1-methylethyl ester
Formula: C19H38O2
MW: 298
ExactMass: 298.28718
CASNO: 142916
ID: 4818
Comment: DEA SWL
Num Peaks: 150
37 1; 38 3; 39 76; 40 22; 41 519; 
42 173; 43 999; 44 38; 45 38; 46 1; 
51 2; 52 1; 53 26; 54 36; 55 398; 
56 112; 57 432; 58 33; 59 149; 60 480; 
61 198; 62 6; 63 1; 65 5; 66 4; 
67 63; 68 38; 69 230; 70 72; 71 247; 
72 17; 73 267; 74 45; 75 3; 77 4; 
78 1; 79 18; 80 7; 81 58; 82 36; 
83 190; 84 88; 85 160; 86 15; 87 86; 
88 11; 89 5; 91 3; 93 15; 94 6; 
95 56; 96 31; 97 155; 98 94; 99 47; 
100 8; 101 54; 102 573; 103 99; 104 7; 
105 1; 107 12; 108 4; 109 31; 110 16; 
111 72; 112 27; 113 25; 114 6; 115 70; 
116 23; 117 3; 119 1; 121 15; 122 3; 
123 17; 124 9; 125 37; 126 10; 127 17; 
129 154; 130 16; 131 2; 133 1; 134 1; 
135 14; 136 3; 137 8; 138 7; 139 19; 
140 5; 141 9; 143 32; 144 9; 145 1; 
149 9; 150 1; 151 4; 152 5; 153 11; 
154 4; 155 4; 157 58; 158 10; 159 1; 
163 5; 164 1; 165 3; 166 3; 167 6; 
168 5; 169 1; 171 53; 172 7; 173 1; 
177 2; 179 1; 181 3; 182 1; 185 53; 
186 7; 187 1; 192 2; 194 10; 195 4; 
196 6; 197 3; 199 25; 200 4; 201 1; 
213 79; 214 12; 215 1; 219 7; 220 2; 
221 1; 227 21; 228 4; 236 10; 237 15; 
239 220; 240 39; 241 4; 254 1; 256 504; 
257 284; 258 44; 259 4; 298 20; 299 6; 
