Name: L-Tryptophan, methyl ester
InChIKey: YMCDJTJXWNMKIK-LBPRGKRZSA-N
Formula: C13H15NO2
MW: 217
ExactMass: 217.110279
CASNO: 4299701
ID: 4819
Comment: DEA SWL
Num Peaks: 67
38 1; 39 4; 40 1; 41 1; 42 2; 
43 1; 44 4; 45 1; 50 5; 51 12; 
52 5; 53 2; 54 2; 57 1; 59 3; 
60 3; 61 1; 62 4; 63 10; 64 1; 
65 5; 66 1; 74 8; 75 8; 76 14; 
77 69; 78 11; 79 16; 80 3; 86 1; 
87 2; 88 15; 89 16; 90 8; 91 2; 
99 1; 100 1; 101 8; 102 34; 103 57; 
104 9; 105 2; 113 2; 114 2; 115 15; 
116 6; 117 26; 118 4; 128 26; 129 33; 
130 999; 131 109; 132 25; 133 2; 140 2; 
141 2; 142 6; 143 5; 144 1; 155 3; 
156 4; 157 8; 158 15; 159 42; 160 6; 
218 24; 219 3; 
