Name: Tetraphenylethylene
InChIKey: JLZUZNKTTIRERF-UHFFFAOYSA-N
Synon: 1,1,2,2-Tetraphenylethene
Synon: Benzene, 1,1',1'',1'''-(1,2-ethenediylidene)tetrakis-
Synon: (1,2,2-Triphenylvinyl)benzene
Formula: C26H20
MW: 332
ExactMass: 332.1565
CASNO: 632519
ID: 4821
Comment: DEA SWL
Num Peaks: 212
38 1; 39 33; 40 2; 41 13; 50 19; 
51 120; 52 19; 53 6; 62 7; 63 34; 
64 3; 65 18; 66 3; 69 1; 74 11; 
75 20; 76 21; 77 143; 78 109; 79 12; 
80 1; 81 1; 82 3; 86 8; 87 17; 
88 14; 89 31; 90 4; 91 28; 92 1; 
94 2; 96 1; 98 5; 99 7; 100 13; 
101 19; 102 25; 103 8; 104 1; 105 2; 
106 6; 107 2; 108 1; 110 3; 111 6; 
112 13; 113 68; 114 24; 115 61; 116 6; 
117 1; 118 2; 119 9; 120 47; 122 1; 
123 2; 124 8; 125 47; 126 169; 127 81; 
128 31; 129 4; 130 1; 131 26; 132 7; 
133 3; 135 1; 136 4; 137 34; 138 67; 
139 68; 140 8; 141 6; 142 3; 143 6; 
144 50; 145 91; 147 2; 148 3; 149 21; 
150 128; 151 168; 152 159; 153 49; 154 28; 
155 5; 156 8; 157 53; 158 19; 159 1; 
161 6; 162 30; 163 74; 164 59; 165 293; 
166 98; 167 79; 168 11; 174 8; 175 14; 
176 123; 177 62; 178 140; 179 26; 180 3; 
185 1; 186 1; 187 20; 188 10; 189 31; 
190 6; 191 2; 198 2; 199 4; 200 24; 
201 13; 202 38; 203 12; 204 1; 207 1; 
211 6; 212 2; 213 25; 214 4; 215 43; 
216 10; 217 2; 222 1; 223 3; 224 22; 
225 18; 226 60; 227 28; 228 35; 229 10; 
235 2; 236 4; 237 22; 238 9; 239 197; 
240 97; 241 140; 242 27; 243 1; 246 1; 
247 2; 248 13; 249 8; 250 98; 251 44; 
252 416; 253 534; 254 282; 255 174; 256 37; 
257 2; 259 1; 260 1; 261 8; 262 4; 
263 27; 264 9; 265 24; 266 5; 267 4; 
272 1; 274 11; 275 6; 276 34; 277 18; 
278 7; 279 2; 285 2; 286 1; 287 16; 
288 4; 289 80; 290 30; 291 48; 292 5; 
293 1; 298 6; 299 2; 300 28; 301 19; 
302 52; 303 33; 304 16; 305 6; 306 1; 
311 2; 312 1; 313 24; 314 15; 315 56; 
316 25; 317 44; 318 13; 319 1; 322 1; 
324 7; 325 5; 326 17; 327 17; 328 12; 
329 18; 330 10; 331 31; 332 999; 333 285; 
334 39; 335 1; 
