Name: Trans-Cinnamic Acid
InChIKey: WBYWAXJHAXSJNI-VOTSOKGWSA-N
Synon: Cinnamic acid
Synon: (E)-Cinnamic acid
Synon: 3-Phenylacrylic acid
Synon: trans-3-Phenylacrylic acid
Formula: C9H8O2
MW: 148
ExactMass: 148.052429
CASNO: 140103
ID: 4822
Comment: DEA SWL
Num Peaks: 77
37 10; 38 24; 39 53; 40 3; 41 3; 
42 2; 43 5; 44 3; 45 82; 46 8; 
49 14; 50 147; 51 299; 52 53; 53 23; 
54 3; 55 8; 59 2; 60 9; 61 20; 
62 47; 63 100; 64 14; 65 46; 66 9; 
67 1; 68 2; 69 9; 70 1; 71 6; 
72 1; 73 20; 74 118; 75 95; 76 122; 
77 497; 78 88; 79 32; 80 2; 81 1; 
85 2; 86 8; 87 14; 88 2; 89 18; 
90 10; 91 344; 92 53; 93 4; 94 21; 
97 3; 98 17; 99 5; 100 1; 101 28; 
102 364; 103 609; 104 61; 105 33; 106 5; 
107 17; 108 1; 118 3; 119 56; 120 78; 
121 9; 122 4; 129 9; 130 54; 131 234; 
132 23; 133 1; 146 1; 147 999; 148 728; 
149 72; 150 6; 
