Name: 1-Phenyl-2-butanone
InChIKey: GKDLTXYXODKDEA-UHFFFAOYSA-N
Synon: Benzyl ethyl ketone
Synon: 2-Butanone, 1-phenyl-
Synon: Ethyl benzyl ketone
Formula: C10H12O
MW: 148
ExactMass: 148.088815
CASNO: 1007325
ID: 4825
Comment: DEA SWL
Num Peaks: 58
37 4; 38 19; 39 125; 40 9; 41 28; 
42 7; 43 3; 45 1; 46 8; 49 2; 
50 38; 51 74; 52 22; 53 7; 55 10; 
56 14; 57 999; 58 37; 59 3; 61 8; 
62 35; 63 111; 64 32; 65 316; 66 18; 
73 1; 74 12; 75 9; 76 7; 77 21; 
78 8; 79 3; 85 2; 86 7; 87 6; 
88 1; 89 109; 90 53; 91 828; 92 152; 
93 9; 98 1; 102 3; 103 7; 104 2; 
105 6; 115 11; 116 2; 117 3; 118 5; 
119 4; 127 1; 128 2; 129 2; 131 1; 
148 239; 149 28; 150 1; 
