Name: 2,3-Methylenedioxybenzaldehyde
InChIKey: QZMQKPGVXNSITP-UHFFFAOYSA-N
Synon: 1,3-Benzodioxole-4-carbaldehyde
Synon: 4-Formyl-1,3-benzodioxole
Formula: C8H6O3
MW: 150
ExactMass: 150.031694
CASNO: 7797833
ID: 4826
Comment: DEA SWL
Num Peaks: 61
36 3; 37 47; 38 83; 39 80; 40 10; 
41 3; 42 7; 43 1; 44 1; 48 2; 
49 20; 50 74; 51 64; 52 22; 53 90; 
54 6; 55 10; 60 10; 61 89; 62 189; 
63 409; 64 131; 65 284; 66 74; 67 5; 
68 3; 69 2; 73 13; 74 40; 75 20; 
76 16; 77 28; 78 6; 79 28; 80 3; 
81 1; 89 1; 90 8; 91 124; 92 171; 
93 55; 94 19; 95 2; 103 1; 104 5; 
105 7; 106 1; 107 92; 108 10; 119 98; 
120 94; 121 180; 122 38; 123 2; 134 1; 
146 1; 147 8; 149 900; 150 999; 151 92; 
152 5; 
