Name: 2-Iodoethylbenzene
InChIKey: KVTHPKXDLVYNCH-UHFFFAOYSA-N
Synon: Benzene, (2-iodoethyl)-
Synon: 2-Phenylethyl iodide
Synon: p-Iodoethylbenzene
Formula: C8H9I
MW: 232
ExactMass: 231.974898
CASNO: 17376044
ID: 4827
Comment: DEA SWL
Num Peaks: 48
37 4; 38 12; 39 48; 40 3; 41 3; 
49 4; 50 64; 51 127; 52 32; 53 10; 
61 6; 62 17; 63 42; 64 8; 65 31; 
66 2; 73 5; 74 29; 75 19; 76 25; 
77 241; 78 104; 79 195; 80 13; 85 1; 
86 2; 87 2; 89 17; 90 4; 91 64; 
92 5; 98 3; 101 3; 102 28; 103 179; 
104 95; 105 999; 106 105; 107 4; 116 1; 
127 90; 128 20; 139 1; 140 1; 141 14; 
155 1; 232 16; 233 1; 
