Name: Dimethyl fumarate
InChIKey: LDCRTTXIJACKKU-ONEGZZNKSA-N
Synon: (E)-Dimethyl fumarate
Synon: Fumaric acid, dimethyl ester
Synon: Dimethyl (E)-but-2-enedioate
Synon: Methyl fumarate
Formula: C6H8O4
MW: 144
ExactMass: 144.042258
CASNO: 624497
ID: 4829
Comment: DEA SWL
Num Peaks: 35
37 3; 38 3; 39 29; 40 2; 41 16; 
42 13; 43 1; 44 2; 45 10; 52 4; 
53 153; 54 121; 55 30; 56 3; 57 4; 
59 255; 60 6; 68 7; 69 12; 71 3; 
81 30; 82 64; 83 5; 84 1; 85 610; 
86 31; 87 4; 99 25; 100 53; 101 6; 
112 1; 113 999; 114 206; 115 14; 144 10; 
