Name: 4-Phenyl-2-Pyrrolidinone
InChIKey: HOJZEMQCQRPLQQ-UHFFFAOYSA-N
Formula: C10H11NO
MW: 161
ExactMass: 161.084064
CASNO: 1198976
ID: 4833
Comment: HSA IDL MS Library
Num Peaks: 62
37 1; 38 5; 39 29; 40 2; 41 7; 
42 4; 43 2; 44 2; 49 1; 50 28; 
51 70; 52 22; 53 5; 54 4; 55 6; 
56 6; 58 12; 61 2; 62 9; 63 29; 
64 6; 65 28; 66 4; 73 2; 74 14; 
75 13; 76 18; 77 106; 78 125; 79 12; 
80 2; 83 8; 84 1; 86 2; 87 3; 
88 1; 89 21; 90 8; 91 61; 92 7; 
98 1; 101 3; 102 33; 103 153; 104 999; 
105 93; 106 4; 115 39; 116 10; 117 50; 
118 15; 119 2; 130 11; 131 51; 132 33; 
133 46; 134 4; 159 2; 160 2; 161 451; 
162 51; 163 3; 
