Name: Cannabidiol-2TMS
InChIKey: FWZOFSHJDAIJQE-UHFFFAOYSA-N
Synon: CBD-2TMS
Formula: C27H46O2Si2
MW: 458
ExactMass: 458.303635
CASNO: 64846157
ID: 4836
Comment: HSA IDL MS Library
Num Peaks: 354
39 5; 40 3; 41 19; 42 2; 43 35; 
44 3; 45 36; 46 2; 47 2; 51 1; 
53 12; 54 1; 55 23; 56 1; 57 2; 
58 1; 59 13; 60 1; 61 2; 65 3; 
66 1; 67 40; 68 64; 69 10; 70 1; 
71 4; 72 4; 73 650; 74 55; 75 63; 
76 4; 77 11; 78 2; 79 14; 80 2; 
81 12; 82 1; 83 3; 85 3; 89 1; 
91 23; 92 4; 93 30; 94 3; 95 7; 
96 1; 97 3; 99 2; 102 1; 103 6; 
104 1; 105 18; 106 5; 107 32; 108 4; 
109 21; 110 2; 111 1; 115 10; 116 3; 
117 9; 118 2; 119 17; 120 3; 121 23; 
122 2; 123 2; 125 1; 127 3; 128 10; 
129 10; 130 2; 131 6; 132 1; 133 27; 
134 17; 135 13; 136 1; 137 2; 139 1; 
141 8; 142 3; 143 7; 144 2; 145 5; 
146 1; 147 47; 148 8; 149 10; 150 1; 
151 3; 152 4; 153 6; 154 4; 155 12; 
156 2; 157 4; 158 1; 159 4; 160 1; 
161 8; 162 2; 163 5; 164 2; 165 10; 
166 3; 167 6; 168 2; 169 6; 170 2; 
171 7; 172 2; 173 4; 174 2; 175 7; 
176 2; 177 14; 178 6; 179 9; 180 3; 
181 5; 182 1; 183 4; 184 1; 185 8; 
186 2; 187 5; 188 2; 189 9; 190 5; 
191 11; 192 4; 193 9; 194 3; 195 6; 
196 2; 197 4; 198 2; 199 15; 200 7; 
201 9; 202 3; 203 11; 204 4; 205 7; 
206 3; 207 5; 208 2; 209 5; 210 1; 
211 5; 212 2; 213 13; 214 13; 215 42; 
216 14; 217 16; 218 5; 219 13; 220 3; 
221 6; 222 2; 223 6; 224 2; 225 5; 
226 2; 227 10; 228 7; 229 56; 230 33; 
231 61; 232 16; 233 23; 234 5; 235 8; 
236 2; 237 9; 238 3; 239 8; 240 2; 
241 9; 242 5; 243 30; 244 74; 245 39; 
246 18; 247 28; 248 7; 249 28; 250 7; 
251 11; 252 5; 253 8; 254 3; 255 8; 
256 5; 257 19; 258 9; 259 13; 260 5; 
261 10; 262 5; 263 15; 264 5; 265 22; 
266 8; 267 11; 268 58; 269 18; 270 8; 
271 21; 272 7; 273 10; 274 3; 275 6; 
276 2; 277 8; 278 6; 279 8; 280 4; 
281 19; 282 22; 283 10; 284 3; 285 18; 
286 6; 287 18; 288 6; 289 15; 290 5; 
291 7; 292 4; 293 5; 294 7; 295 5; 
296 16; 297 8; 298 3; 299 6; 300 30; 
301 299; 302 80; 303 42; 304 19; 305 14; 
306 5; 307 5; 308 3; 309 14; 310 7; 
311 5; 312 2; 313 4; 314 2; 315 5; 
316 3; 317 15; 318 12; 319 162; 320 48; 
321 48; 322 13; 323 9; 324 143; 325 48; 
326 19; 327 7; 328 2; 329 3; 330 2; 
331 6; 332 3; 333 23; 334 12; 335 46; 
336 15; 337 499; 338 152; 339 64; 340 13; 
341 4; 342 1; 343 5; 344 2; 345 4; 
346 3; 347 7; 348 3; 349 36; 350 107; 
351 205; 352 92; 353 32; 354 8; 355 3; 
356 1; 357 1; 358 1; 359 3; 360 1; 
361 4; 362 2; 363 7; 364 15; 365 5; 
366 2; 367 1; 368 1; 369 21; 370 7; 
371 3; 372 1; 373 2; 374 2; 375 86; 
376 29; 377 15; 378 5; 379 1; 385 9; 
386 3; 387 9; 388 5; 389 65; 390 999; 
391 344; 392 125; 393 26; 394 4; 399 3; 
400 1; 401 7; 402 6; 403 11; 404 4; 
405 1; 415 15; 416 6; 417 2; 429 2; 
430 27; 431 10; 432 3; 441 2; 442 1; 
443 56; 444 22; 445 8; 446 1; 457 1; 
458 76; 459 30; 460 11; 461 2; 
