Name: Cannabidiolic Acid-3TMS
InChIKey: NLUDHDUQAJYEEH-IZZNHLLZSA-N
Formula: C31H54O4Si3
MW: 574
ExactMass: 574.33299
CASNO: 0
ID: 4837
Comment: HSA IDL MS Library
Num Peaks: 426
39 3; 40 2; 41 9; 42 2; 43 10; 
44 3; 45 30; 46 2; 47 3; 53 7; 
55 11; 56 1; 57 1; 58 1; 59 7; 
61 2; 65 1; 66 1; 67 28; 68 59; 
69 8; 70 1; 71 1; 72 5; 73 586; 
74 50; 75 62; 76 3; 77 5; 78 1; 
79 6; 80 1; 81 5; 83 2; 85 1; 
91 9; 92 1; 93 10; 94 1; 95 3; 
97 1; 99 1; 103 2; 105 8; 106 1; 
107 11; 108 1; 109 7; 115 4; 116 1; 
117 4; 118 1; 119 9; 120 1; 121 5; 
123 1; 127 1; 128 3; 129 4; 130 1; 
131 9; 132 1; 133 35; 134 11; 135 8; 
136 1; 137 1; 141 4; 142 2; 143 3; 
144 1; 145 2; 146 1; 147 162; 148 25; 
149 27; 150 3; 151 2; 152 2; 153 3; 
154 2; 155 6; 156 1; 157 2; 159 2; 
161 2; 163 1; 165 5; 166 2; 167 3; 
168 1; 169 4; 170 1; 171 3; 173 1; 
175 2; 176 1; 177 3; 178 3; 179 5; 
180 1; 181 3; 182 1; 183 3; 184 1; 
185 3; 186 1; 187 2; 189 3; 190 1; 
191 5; 192 2; 193 7; 194 2; 195 4; 
196 1; 197 3; 198 1; 199 6; 200 2; 
201 4; 202 2; 203 5; 204 2; 205 5; 
206 2; 207 10; 208 3; 209 4; 210 1; 
211 3; 212 1; 213 7; 214 4; 215 10; 
216 4; 217 7; 218 2; 219 7; 220 2; 
221 9; 222 3; 223 4; 224 1; 225 3; 
226 1; 227 9; 228 5; 229 15; 230 6; 
231 9; 232 3; 233 7; 234 2; 235 4; 
236 1; 237 4; 238 2; 239 4; 240 2; 
241 8; 242 7; 243 20; 244 9; 245 12; 
246 14; 247 9; 248 2; 249 7; 250 2; 
251 5; 252 2; 253 9; 254 4; 255 10; 
256 5; 257 13; 258 4; 259 13; 260 5; 
261 6; 262 2; 263 6; 264 2; 265 6; 
266 4; 267 11; 268 7; 269 14; 270 7; 
271 19; 272 8; 273 12; 274 3; 275 7; 
276 2; 277 6; 278 3; 279 7; 280 5; 
281 12; 282 6; 283 14; 284 7; 285 15; 
286 5; 287 11; 288 5; 289 9; 290 3; 
291 21; 292 6; 293 8; 294 4; 295 7; 
296 4; 297 7; 298 3; 299 9; 300 3; 
301 13; 302 5; 303 26; 304 8; 305 11; 
306 3; 307 8; 308 3; 309 6; 310 3; 
311 9; 312 3; 313 7; 314 2; 315 6; 
316 4; 317 12; 318 7; 319 10; 320 3; 
321 6; 322 8; 323 6; 324 2; 325 5; 
326 3; 327 33; 328 10; 329 12; 330 4; 
331 14; 332 5; 333 8; 334 2; 335 8; 
336 3; 337 4; 338 1; 339 3; 340 2; 
341 5; 342 3; 343 13; 344 6; 345 12; 
346 4; 347 8; 348 2; 349 10; 350 4; 
351 9; 352 3; 353 4; 354 2; 355 9; 
356 3; 357 9; 358 3; 359 8; 360 3; 
361 30; 362 10; 363 19; 364 6; 365 19; 
366 6; 367 7; 368 2; 369 5; 370 2; 
371 4; 372 1; 373 9; 374 3; 375 11; 
376 3; 377 9; 378 12; 379 11; 380 4; 
381 3; 382 1; 383 2; 384 1; 385 3; 
386 1; 387 6; 388 3; 389 9; 390 3; 
391 4; 392 2; 393 5; 394 3; 395 6; 
396 2; 397 3; 398 1; 399 5; 400 3; 
401 24; 402 8; 403 7; 404 2; 405 4; 
406 2; 407 2; 409 1; 411 12; 412 5; 
413 4; 414 1; 415 5; 416 6; 417 15; 
418 16; 419 17; 420 6; 421 3; 422 1; 
423 1; 425 28; 426 10; 427 6; 428 2; 
429 8; 430 3; 431 3; 432 1; 433 4; 
434 2; 435 4; 436 1; 437 3; 438 1; 
439 3; 440 2; 441 8; 442 3; 443 4; 
444 1; 445 1; 447 2; 448 1; 449 3; 
450 1; 451 8; 452 3; 453 172; 454 68; 
455 34; 456 10; 457 4; 458 1; 461 1; 
463 1; 465 41; 466 16; 467 13; 468 4; 
469 49; 470 19; 471 7; 472 2; 473 1; 
475 2; 476 1; 477 1; 479 1; 483 13; 
484 44; 485 40; 486 16; 487 7; 488 2; 
489 3; 491 999; 492 431; 493 199; 494 52; 
495 13; 496 2; 501 1; 503 2; 504 1; 
505 3; 506 10; 507 4; 508 2; 515 1; 
517 3; 518 1; 531 3; 532 1; 557 1; 
559 535; 560 258; 561 120; 562 34; 563 8; 
564 1; 573 3; 574 16; 575 7; 576 3; 
577 1; 
