Name: Tetrahydrocannabinolic Acid-2TMS
InChIKey: OKVKHUNEGVDZCG-UHFFFAOYSA-N
Synon: THCA-2TMS
Formula: C28H46O4Si2
MW: 502
ExactMass: 502.293463
CASNO: 0
ID: 4838
Comment: HSA IDL MS Library
Num Peaks: 339
39 1; 41 16; 42 1; 43 11; 44 2; 
45 19; 46 1; 47 2; 53 2; 55 7; 
57 1; 59 4; 61 2; 65 1; 67 5; 
68 1; 69 12; 70 1; 71 1; 72 3; 
73 271; 74 23; 75 38; 76 2; 77 6; 
78 1; 79 5; 81 11; 82 1; 83 1; 
91 10; 92 1; 93 7; 94 1; 95 5; 
103 2; 105 9; 106 1; 107 6; 109 3; 
115 5; 116 1; 117 3; 118 1; 119 8; 
120 1; 121 4; 122 1; 123 1; 127 1; 
128 5; 129 4; 130 1; 131 6; 132 1; 
133 16; 134 3; 135 5; 136 1; 141 4; 
142 2; 143 3; 144 1; 145 3; 146 1; 
147 77; 148 12; 149 11; 150 1; 151 2; 
152 3; 153 4; 154 2; 155 4; 156 1; 
157 3; 158 1; 159 3; 160 1; 161 3; 
163 2; 164 1; 165 7; 166 3; 167 3; 
168 1; 169 3; 170 1; 171 4; 172 1; 
173 3; 174 1; 175 5; 176 1; 177 3; 
178 4; 179 5; 180 2; 181 4; 182 2; 
183 4; 184 1; 185 4; 186 1; 187 3; 
188 1; 189 3; 190 1; 191 4; 192 2; 
193 5; 194 2; 195 5; 196 2; 197 5; 
198 2; 199 5; 200 3; 201 5; 202 1; 
203 4; 204 1; 205 3; 206 2; 207 4; 
208 2; 209 5; 210 2; 211 5; 212 2; 
213 7; 214 2; 215 4; 216 2; 217 5; 
218 2; 219 8; 220 2; 221 4; 222 2; 
223 7; 224 3; 225 5; 226 2; 227 6; 
228 2; 229 5; 230 2; 231 5; 232 2; 
233 4; 234 2; 235 5; 236 4; 237 6; 
238 2; 239 6; 240 4; 241 6; 242 2; 
243 6; 244 3; 245 6; 246 3; 247 6; 
248 2; 249 4; 250 2; 251 4; 252 1; 
253 6; 254 2; 255 6; 256 6; 257 15; 
258 4; 259 6; 260 2; 261 4; 262 1; 
263 4; 264 1; 265 4; 266 2; 267 5; 
268 2; 269 7; 270 3; 271 10; 272 3; 
273 9; 274 4; 275 5; 276 1; 277 2; 
278 1; 279 4; 280 2; 281 5; 282 2; 
283 6; 284 2; 285 9; 286 3; 287 6; 
288 2; 289 4; 290 1; 291 8; 292 2; 
293 5; 294 2; 295 6; 296 3; 297 7; 
298 2; 299 6; 300 2; 301 6; 302 2; 
303 3; 304 1; 305 3; 306 1; 307 3; 
308 1; 309 4; 310 2; 311 5; 312 2; 
313 15; 314 5; 315 5; 316 1; 317 4; 
318 1; 319 3; 320 1; 321 3; 322 1; 
323 4; 324 1; 325 5; 326 1; 327 4; 
328 10; 329 7; 330 2; 331 6; 332 2; 
333 4; 334 1; 335 3; 336 1; 337 2; 
338 1; 339 27; 340 7; 341 8; 342 3; 
343 5; 344 2; 345 4; 346 1; 347 7; 
348 2; 349 1; 351 1; 353 3; 354 1; 
355 4; 356 1; 357 4; 358 2; 359 3; 
360 1; 361 2; 363 1; 365 6; 366 2; 
367 1; 369 15; 370 4; 371 8; 372 2; 
373 2; 375 2; 377 1; 379 1; 381 1; 
383 2; 384 1; 385 27; 386 8; 387 7; 
388 2; 389 1; 395 2; 397 9; 398 3; 
399 9; 400 3; 401 2; 402 2; 403 2; 
407 1; 411 7; 412 9; 413 32; 414 13; 
415 7; 416 2; 417 1; 419 20; 420 6; 
421 2; 429 2; 430 2; 431 15; 432 5; 
433 2; 443 4; 444 1; 445 4; 446 3; 
447 1; 459 1; 485 3; 486 1; 487 999; 
488 410; 489 155; 490 36; 491 7; 492 1; 
501 4; 502 23; 503 9; 504 3; 
