Name: 1'-Hydroxy Midazolam
InChIKey: QHSMEGADRFZVNE-UHFFFAOYSA-N
Synon: Ro 21-6347
Synon: 8-Chloro-6-(2-fluorophenyl)-4H-imidazo[1,5-a][1,4]benzodiazepine-1-methanol
Formula: C18H13ClFN3O
MW: 341
ExactMass: 341.073118
CASNO: 59468905
ID: 4840
Comment: Provided by www.caymanchem.com/app/template/landing%2CForensic.vm / Item#10385 Batch#0485841
Num Peaks: 253
40 3; 41 6; 42 4; 43 3; 50 11; 
51 13; 52 12; 53 9; 54 13; 55 6; 
56 2; 57 6; 59 2; 61 4; 62 7; 
63 17; 64 7; 65 2; 66 6; 67 2; 
68 5; 69 4; 70 6; 72 2; 73 16; 
74 20; 75 79; 76 14; 77 13; 78 5; 
79 4; 80 3; 81 6; 82 3; 83 8; 
84 7; 85 7; 86 6; 87 13; 88 5; 
89 10; 90 6; 91 5; 92 2; 93 3; 
94 14; 95 48; 96 13; 97 16; 98 8; 
99 13; 100 27; 101 32; 102 35; 103 7; 
104 3; 105 5; 106 4; 107 10; 108 4; 
109 18; 110 20; 111 37; 112 11; 113 12; 
114 14; 115 12; 119 3; 120 6; 121 25; 
122 16; 123 14; 124 18; 125 15; 126 19; 
127 21; 128 47; 129 17; 130 10; 131 7; 
132 5; 133 4; 134 9; 135 8; 136 27; 
137 12; 138 30; 139 11; 140 13; 141 6; 
142 16; 143 5; 144 4; 145 4; 146 2; 
147 6; 148 6; 149 10; 150 14; 151 6; 
152 6; 153 4; 154 12; 155 36; 156 20; 
157 10; 158 5; 161 4; 162 18; 163 46; 
164 27; 165 19; 166 11; 167 6; 168 14; 
169 12; 170 8; 173 3; 174 7; 175 9; 
176 14; 177 11; 178 5; 179 4; 180 6; 
181 34; 182 21; 183 17; 184 4; 187 3; 
188 6; 189 25; 190 8; 191 14; 192 2; 
193 11; 194 14; 195 15; 196 9; 197 2; 
198 2; 199 3; 200 9; 201 14; 202 11; 
203 8; 204 5; 205 4; 206 5; 207 11; 
208 19; 209 6; 210 3; 211 2; 212 2; 
214 4; 215 2; 216 13; 217 12; 218 9; 
219 16; 220 14; 221 28; 222 25; 223 16; 
224 5; 226 2; 227 2; 228 6; 229 8; 
230 3; 231 4; 232 4; 233 3; 234 4; 
235 4; 236 3; 237 3; 238 2; 239 4; 
241 2; 242 6; 244 4; 245 2; 246 4; 
247 22; 248 10; 249 21; 250 5; 251 3; 
253 7; 254 7; 255 6; 256 5; 257 43; 
258 13; 259 18; 260 3; 261 2; 263 5; 
264 3; 265 5; 266 3; 267 2; 268 3; 
269 2; 270 2; 271 3; 272 4; 274 9; 
275 17; 276 7; 277 4; 278 2; 281 9; 
282 4; 283 25; 284 10; 285 11; 286 4; 
287 3; 288 2; 290 31; 291 13; 292 23; 
293 8; 294 4; 295 3; 296 3; 297 8; 
298 3; 299 3; 304 2; 305 2; 306 2; 
308 25; 310 999; 311 270; 312 364; 313 89; 
314 10; 315 2; 322 2; 324 7; 325 6; 
326 4; 327 6; 328 2; 339 3; 341 79; 
342 8; 343 25; 344 6; 
