Name: Ethylphenethyl-FUBICA
InChIKey: HLWRZWWDBCHQNU-UHFFFAOYSA-N
Synon: 1-(4-Fluorobenzyl)-N-(1-phenylbutan-2-yl)-1H-indole-3-carboxamide
Formula: C26H25FN2O
MW: 400
ExactMass: 400.195091
CASNO: 0
ID: 4841
Comment: Provided by www.caymanchem.com/app/template/landing%2CForensic.vm / Item#23764 Batch#0517826
Num Peaks: 84
41 4; 50 3; 51 7; 52 2; 56 5; 
57 4; 58 2; 59 4; 62 4; 63 12; 
64 3; 65 35; 66 2; 73 4; 74 2; 
75 5; 76 3; 77 9; 78 5; 83 61; 
84 4; 87 3; 88 8; 89 22; 90 7; 
91 205; 92 23; 93 2; 96 2; 101 5; 
102 3; 103 4; 104 2; 105 2; 107 10; 
108 7; 109 999; 110 76; 111 4; 114 8; 
115 41; 116 11; 117 32; 118 6; 128 8; 
129 5; 130 3; 131 4; 132 14; 133 3; 
135 2; 143 39; 144 11; 156 2; 175 2; 
176 2; 191 2; 194 3; 195 2; 196 4; 
202 2; 204 3; 207 5; 209 2; 221 4; 
222 23; 223 8; 224 13; 225 5; 250 9; 
252 828; 253 147; 254 14; 267 2; 268 93; 
269 19; 270 2; 281 2; 293 2; 309 103; 
310 22; 311 3; 400 10; 401 3; 
