Name: N,N-didesmethyl U-47700
InChIKey: PLSITOMJRRPKDL-PZORYLMUSA-N
Synon: nor-U-47700
Synon: N,N-didesethyl U-49900
Synon: N-((1R,2R)-2-aminocyclohexyl)-3,4-dichloro-N-methylbenzamide
Formula: C14H18Cl2N2O
MW: 300
ExactMass: 300.079618
CASNO: 0
ID: 4842
Comment: Provided by www.caymanchem.com/app/template/landing%2CForensic.vm / Item#20295 Batch#0519132
Num Peaks: 189
41 57; 42 178; 43 100; 44 58; 45 7; 
49 2; 50 13; 51 8; 52 4; 53 21; 
54 25; 55 33; 56 300; 57 55; 58 12; 
59 3; 60 2; 61 3; 62 2; 63 6; 
64 3; 65 8; 66 4; 67 24; 68 49; 
69 157; 70 147; 71 24; 72 4; 73 18; 
74 52; 75 76; 76 9; 77 16; 78 6; 
79 51; 80 19; 81 35; 82 102; 83 27; 
84 94; 85 21; 86 8; 87 6; 88 2; 
91 5; 92 2; 93 2; 94 11; 95 15; 
96 224; 97 999; 98 112; 99 11; 100 7; 
102 5; 103 8; 108 5; 109 114; 110 182; 
111 85; 112 21; 113 8; 114 2; 115 2; 
116 5; 117 3; 119 6; 120 2; 121 2; 
122 2; 123 3; 124 3; 125 6; 126 4; 
127 31; 128 2; 130 2; 135 4; 136 8; 
137 7; 138 23; 139 16; 140 4; 141 7; 
142 4; 144 6; 145 265; 146 28; 147 154; 
148 14; 149 21; 150 4; 153 2; 154 4; 
155 2; 156 2; 159 3; 162 2; 163 2; 
166 2; 168 4; 171 11; 172 10; 173 310; 
174 34; 175 206; 176 24; 177 37; 178 5; 
179 2; 180 2; 182 6; 184 2; 185 3; 
186 13; 187 3; 188 8; 190 5; 191 5; 
192 3; 193 4; 195 2; 196 3; 197 2; 
198 3; 200 2; 202 9; 203 4; 204 20; 
205 6; 206 9; 207 15; 208 5; 209 2; 
210 4; 211 2; 212 2; 214 2; 216 47; 
217 11; 218 28; 219 8; 220 7; 225 9; 
226 3; 227 23; 228 17; 229 18; 230 25; 
231 2; 232 11; 238 2; 239 39; 240 19; 
241 30; 242 12; 243 8; 244 26; 245 5; 
246 15; 247 6; 248 2; 250 2; 252 3; 
253 16; 254 9; 255 14; 256 9; 257 5; 
258 8; 259 2; 260 4; 265 2; 267 2; 
269 3; 270 5; 272 3; 280 3; 281 30; 
282 26; 283 19; 284 16; 285 4; 286 3; 
299 10; 300 3; 301 6; 302 2; 
