Name: (S)-Methamphetamine p-toluenesulfonamide
InChIKey: FSONJJCLDHBBJA-HNNXBMFYSA-N
Synon: (S)-Methamphetamine para-toluenesulfonamide
Synon: Tosyl-Methamphetamine
Synon: TS-Methamphetamine
Synon: N,4-dimethyl-N-[(1S)-1-methyl-2-phenylethyl]-benzenesulfonamide
Formula: C17H21NO2S
MW: 303
ExactMass: 303.1293
CASNO: 74810234
ID: 4843
Comment: Provided by www.caymanchem.com/app/template/landing%2CForensic.vm / Item#23605 Batch#0516950
Num Peaks: 65
40 2; 41 16; 42 79; 43 3; 48 2; 
50 7; 51 18; 52 6; 53 3; 54 4; 
55 4; 56 78; 57 22; 58 18; 62 6; 
63 32; 64 13; 65 186; 66 11; 67 3; 
74 2; 75 3; 76 3; 77 22; 78 10; 
79 7; 89 53; 90 32; 91 903; 92 74; 
93 3; 102 2; 103 7; 104 4; 105 6; 
106 3; 107 2; 111 2; 115 11; 116 4; 
117 15; 118 10; 119 3; 121 2; 130 3; 
131 3; 132 18; 133 6; 139 18; 140 2; 
146 4; 147 5; 148 2; 152 2; 155 450; 
156 36; 157 22; 165 5; 166 2; 181 2; 
212 999; 213 140; 214 60; 215 6; 288 3; 
