Name: CUMYL-PeGACLONE
InChIKey: AWHWTKXMUJLSRM-UHFFFAOYSA-N
Synon: SGT-151
Synon: 2,5-Dihydro-2-(1-methyl-1-phenylethyl)-5-pentyl-1H-pyrido[4,3-b]indol-1-one
Formula: C25H28N2O
MW: 372
ExactMass: 372.220163
CASNO: 0
ID: 4844
Comment: Provided by www.caymanchem.com/app/template/landing%2CForensic.vm / Item#22696 Batch#0519069
Num Peaks: 148
41 83; 42 7; 43 25; 45 7; 49 2; 
50 20; 51 69; 52 17; 53 8; 55 4; 
56 2; 58 21; 59 3; 61 4; 62 12; 
63 46; 64 8; 65 38; 66 4; 67 3; 
68 2; 73 27; 74 13; 75 22; 76 27; 
77 161; 78 148; 79 57; 80 5; 85 3; 
86 4; 87 6; 88 4; 89 33; 90 12; 
91 331; 92 25; 98 2; 99 2; 100 4; 
101 12; 102 47; 103 245; 104 32; 105 84; 
106 6; 113 12; 114 19; 115 161; 116 34; 
117 317; 118 371; 119 176; 120 41; 121 5; 
126 6; 127 19; 128 42; 129 21; 130 5; 
131 2; 132 2; 133 3; 134 3; 135 11; 
136 2; 139 3; 140 31; 141 20; 142 12; 
143 2; 146 3; 147 6; 148 2; 149 3; 
152 11; 153 7; 154 12; 155 53; 156 8; 
157 4; 158 3; 163 3; 166 7; 167 21; 
168 46; 169 45; 170 17; 171 4; 177 3; 
179 95; 180 10; 181 7; 182 7; 183 11; 
184 23; 185 7; 187 2; 191 7; 192 4; 
193 6; 194 4; 195 20; 196 8; 197 468; 
198 72; 199 4; 207 27; 208 3; 209 13; 
210 5; 211 4; 212 3; 221 3; 223 5; 
224 2; 225 34; 226 7; 237 2; 239 3; 
249 4; 251 3; 252 2; 253 34; 254 999; 
255 185; 256 17; 257 2; 265 2; 267 2; 
268 2; 269 2; 281 9; 282 4; 283 2; 
284 2; 315 2; 325 3; 326 2; 327 5; 
331 2; 341 7; 343 3; 346 3; 355 4; 
372 26; 373 14; 374 2; 
