Name: Cannabigerorcin
InChIKey: MISXGGZQFZIVMF-MDWZMJQESA-N
Synon: Cannabigerorcinol
Synon: Cannabiorcogerol
Synon: CBGO
Synon: 2-[(2E)-3,7-dimethyl-2,6-octadien-1-yl]-5-methyl-1,3-benzenediol
Formula: C17H24O2
MW: 260
ExactMass: 260.17763
CASNO: 38106513
ID: 4848
Comment: Provided by www.caymanchem.com/app/template/landing%2CForensic.vm / Item#23257 Batch#0518060
Num Peaks: 129
40 12; 41 296; 42 14; 43 79; 44 2; 
50 5; 51 21; 52 12; 53 74; 54 11; 
55 52; 56 4; 57 5; 62 2; 63 11; 
64 4; 65 47; 66 16; 67 83; 68 12; 
69 254; 70 14; 71 2; 74 2; 75 4; 
76 4; 77 107; 78 26; 79 111; 80 34; 
81 69; 82 11; 83 11; 89 10; 90 6; 
91 111; 92 17; 93 43; 94 16; 95 21; 
96 3; 97 2; 101 2; 102 6; 103 24; 
104 7; 105 38; 106 6; 107 70; 108 61; 
109 60; 110 7; 111 2; 115 50; 116 13; 
117 22; 118 5; 119 14; 120 5; 121 232; 
122 197; 123 199; 124 41; 125 9; 126 2; 
127 15; 128 38; 129 32; 130 16; 131 32; 
132 13; 133 10; 134 6; 135 60; 136 63; 
137 999; 138 176; 139 21; 140 3; 141 9; 
142 3; 143 5; 144 7; 145 48; 146 9; 
147 37; 148 26; 149 182; 150 36; 151 39; 
152 8; 153 4; 154 2; 155 9; 156 2; 
157 15; 158 35; 159 13; 160 9; 161 63; 
162 31; 163 244; 164 35; 165 7; 171 3; 
172 3; 173 40; 174 15; 175 354; 176 65; 
177 120; 178 25; 179 4; 187 5; 189 40; 
190 20; 191 102; 192 16; 193 2; 203 29; 
204 14; 205 3; 217 49; 218 8; 245 13; 
246 2; 260 135; 261 24; 262 3; 
