Name: Mitragynine-d3
InChIKey: LELBFTMXCIIKKX-VVEFGZJMSA-N
Synon: 9-Methoxy Corynantheidine-d3
Synon: (.alpha.E,2S,3S,12bS)-3-ethyl-1,2,3,4,6,7,12,12b-octahydro-8-methoxy-d3-.alpha.-(methoxymethylene)-indolo[2,3-a]quinolizine-2-acetic acid, methyl ester
Formula: C23H27D3N2O4
MW: 401
ExactMass: 401.239388
CASNO: 0
ID: 4852
Comment: Provided by www.caymanchem.com/app/template/landing%2CForensic.vm / Item#18929 Batch#0518301
Num Peaks: 322
41 46; 42 48; 43 16; 44 5; 45 20; 
47 18; 50 2; 51 6; 52 7; 53 27; 
54 18; 55 48; 56 15; 57 5; 58 3; 
59 46; 60 2; 61 4; 63 6; 64 2; 
65 13; 66 9; 67 25; 68 39; 69 42; 
70 6; 71 14; 72 2; 73 9; 74 3; 
75 239; 76 12; 77 46; 78 22; 79 41; 
80 13; 81 28; 82 24; 83 18; 84 18; 
85 36; 86 5; 87 4; 88 3; 89 13; 
90 9; 91 31; 92 19; 93 27; 94 12; 
95 39; 96 16; 97 10; 98 5; 99 14; 
100 6; 101 8; 102 17; 103 25; 104 12; 
105 16; 106 10; 107 16; 108 16; 109 48; 
110 18; 111 41; 112 10; 113 11; 114 10; 
115 38; 116 34; 117 28; 118 18; 119 14; 
120 12; 121 14; 122 10; 123 26; 124 21; 
125 14; 126 9; 127 50; 128 49; 129 80; 
130 65; 131 32; 132 21; 133 17; 134 12; 
135 15; 136 11; 137 17; 138 17; 139 27; 
140 28; 141 29; 142 62; 143 52; 144 34; 
145 27; 146 26; 147 16; 148 12; 149 7; 
150 12; 151 14; 152 18; 153 20; 154 49; 
155 88; 156 94; 157 62; 158 39; 159 57; 
160 36; 161 20; 162 10; 163 27; 164 11; 
165 7; 166 27; 167 32; 168 34; 169 44; 
170 108; 171 76; 172 48; 173 28; 174 16; 
175 33; 176 33; 177 57; 178 15; 179 10; 
180 21; 181 16; 182 28; 183 47; 184 159; 
185 118; 186 39; 187 23; 188 33; 189 359; 
190 71; 191 13; 192 13; 193 10; 194 14; 
195 16; 196 18; 197 28; 198 45; 199 60; 
200 27; 201 73; 202 330; 203 304; 204 100; 
205 28; 206 9; 207 11; 208 9; 209 11; 
210 13; 211 34; 212 24; 213 20; 214 22; 
215 25; 216 71; 217 999; 218 157; 219 18; 
220 8; 221 12; 222 18; 223 30; 224 18; 
225 15; 226 9; 227 9; 228 11; 229 10; 
230 62; 231 26; 232 7; 233 5; 234 8; 
235 22; 236 12; 237 15; 238 14; 239 51; 
240 20; 241 19; 242 64; 243 22; 244 23; 
245 5; 246 2; 247 5; 248 4; 249 10; 
250 7; 251 9; 252 9; 253 12; 254 31; 
255 15; 256 54; 257 23; 258 127; 259 26; 
260 5; 261 5; 262 6; 263 8; 264 4; 
265 15; 266 8; 267 9; 268 9; 269 9; 
270 24; 271 14; 272 257; 273 52; 274 6; 
275 4; 276 3; 277 5; 278 5; 279 6; 
280 7; 281 4; 282 15; 283 8; 284 97; 
285 24; 286 10; 287 3; 289 2; 291 3; 
292 3; 293 9; 294 6; 295 3; 296 6; 
297 4; 298 16; 299 4; 300 2; 303 2; 
305 3; 306 4; 307 4; 308 6; 309 3; 
310 8; 311 5; 312 8; 313 5; 314 20; 
315 5; 317 3; 321 2; 322 3; 323 3; 
324 5; 325 5; 326 10; 327 6; 328 3; 
330 25; 331 7; 332 2; 334 2; 335 2; 
336 2; 337 3; 338 5; 339 6; 340 10; 
341 5; 342 23; 343 7; 344 20; 345 36; 
346 8; 347 2; 349 2; 351 2; 352 8; 
353 3; 354 23; 355 4; 356 5; 357 2; 
358 7; 359 2; 367 21; 368 17; 370 60; 
371 23; 372 46; 373 10; 374 2; 381 27; 
382 13; 383 11; 384 13; 386 358; 387 83; 
388 14; 398 6; 400 550; 401 439; 402 97; 
403 14; 404 2; 
