Name: alpha-Pyrrolidinoisohexanophenone
InChIKey: UOZWZANRCOALQL-UHFFFAOYSA-N
Synon: .alpha.-PiHP
Synon: 4-Methyl-1-phenyl-2-(pyrrolidin-1-yl)pentan-1-one, monohydrochloride
Formula: C16H23NO
MW: 245
ExactMass: 245.177964
CASNO: 0
ID: 4853
Comment: Provided by www.caymanchem.com/app/template/landing%2CForensic.vm / Item#21682  Batch#0501111
Num Peaks: 75
40 2; 41 57; 42 27; 43 25; 44 5; 
50 8; 51 35; 52 4; 53 7; 54 19; 
55 33; 56 43; 57 4; 63 2; 65 3; 
67 7; 68 18; 69 40; 70 23; 71 2; 
74 3; 75 3; 76 9; 77 188; 78 20; 
79 5; 80 6; 81 5; 82 8; 83 2; 
84 66; 85 4; 89 2; 91 15; 92 2; 
94 10; 95 4; 96 58; 97 28; 98 155; 
99 11; 102 2; 103 4; 104 3; 105 90; 
106 8; 108 3; 110 9; 115 6; 116 2; 
117 3; 118 2; 120 4; 122 2; 124 20; 
125 2; 128 2; 129 2; 130 2; 131 3; 
133 2; 136 2; 138 17; 139 5; 140 999; 
141 110; 142 5; 159 2; 160 5; 186 3; 
188 19; 189 3; 200 2; 228 5; 243 2; 
