Name: Cyclopentenyl fentanyl
InChIKey: SYSQDIUBJXIHAM-UHFFFAOYSA-N
Synon: N-(1-phenethylpiperidin-4-yl)-N-phenylcyclopent-1-ene-1-carboxamide
Formula: C25H30N2O
MW: 374
ExactMass: 374.235813
CASNO: 0
ID: 4862
Comment: Provided by www.caymanchem.com/app/template/landing%2CForensic.vm / Item#23010 Batch#0514286
Num Peaks: 127
40 3; 41 89; 42 93; 43 15; 44 15; 
50 7; 51 22; 52 6; 53 10; 54 6; 
55 9; 56 15; 57 12; 58 2; 63 9; 
64 4; 65 125; 66 35; 67 209; 68 36; 
69 12; 70 34; 71 3; 73 14; 74 2; 
75 5; 76 3; 77 113; 78 33; 79 46; 
80 9; 81 7; 82 19; 83 3; 84 5; 
89 10; 90 6; 91 155; 92 22; 93 29; 
94 31; 95 999; 96 212; 97 19; 98 10; 
99 2; 102 7; 103 42; 104 70; 105 156; 
106 19; 107 2; 115 9; 116 3; 117 17; 
118 32; 119 15; 120 3; 126 2; 127 2; 
128 5; 129 6; 130 52; 131 35; 132 51; 
133 11; 134 3; 135 8; 136 2; 139 3; 
141 2; 142 2; 143 5; 144 6; 145 5; 
146 142; 147 20; 148 4; 154 2; 156 8; 
157 3; 158 57; 159 15; 160 22; 165 2; 
167 2; 168 2; 170 14; 171 2; 172 2; 
173 2; 177 2; 182 2; 184 12; 185 8; 
186 29; 187 37; 188 31; 189 147; 190 19; 
191 4; 192 3; 193 3; 195 2; 197 2; 
207 20; 208 3; 209 6; 210 2; 240 64; 
241 8; 251 2; 253 10; 254 4; 255 2; 
265 2; 267 2; 279 8; 280 2; 281 11; 
283 629; 284 136; 285 8; 327 2; 331 3; 
343 2; 346 2; 
