Name: Methamphetamine-d5
InChIKey: MYWUZJCMWCOHBA-DKFMXDSJSA-N
Synon: N-methyl-1-(phenyl-d5)propan-2-amine
Formula: C10H10D5N
MW: 154
ExactMass: 154.151834
CASNO: 0
ID: 4863
Comment: Provided by www.caymanchem.com/app/template/landing%2CForensic.vm / Item#14021 Batch#0513005
Num Peaks: 61
41 28; 42 59; 43 24; 44 7; 45 3; 
51 5; 52 11; 53 8; 54 22; 55 7; 
56 84; 57 24; 58 999; 59 37; 62 2; 
63 4; 64 8; 65 14; 66 14; 67 8; 
68 47; 69 52; 70 15; 71 2; 75 2; 
76 3; 78 4; 79 6; 80 12; 81 14; 
82 15; 83 11; 84 2; 92 8; 93 17; 
94 18; 95 39; 96 173; 97 16; 98 2; 
106 4; 107 8; 108 7; 109 8; 110 2; 
118 9; 119 15; 120 5; 121 13; 122 21; 
123 13; 124 15; 125 2; 134 3; 136 6; 
137 7; 138 5; 139 27; 140 3; 150 2; 
153 7; 
