Name: Bupropion-d9
InChIKey: SNPPWIUOZRMYNY-WVZRYRIDSA-N
Synon: 1-(3-Chlorophenyl)-2-[[1,1-di(methyl-d3)ethyl-2,2,2-d3]amino]-1-propanone-3,3,3-d3
Formula: C13H9D9ClNO
MW: 248
ExactMass: 248.164183
CASNO: 1189725265
ID: 4864
Comment: Provided by www.caymanchem.com/app/template/landing%2CForensic.vm / Item#10010679 Batch#0508264
Num Peaks: 90
40 2; 41 6; 42 56; 43 24; 44 39; 
45 999; 46 200; 47 8; 48 5; 49 6; 
50 47; 51 24; 52 3; 53 3; 55 6; 
56 2; 57 2; 58 4; 59 2; 60 5; 
61 12; 62 21; 63 11; 64 27; 65 13; 
66 155; 67 6; 70 2; 71 6; 72 5; 
73 13; 74 38; 75 149; 76 48; 77 23; 
78 6; 79 2; 84 4; 85 16; 86 4; 
87 7; 88 2; 89 13; 90 43; 91 29; 
92 3; 101 2; 102 3; 103 13; 104 4; 
105 3; 107 6; 108 40; 109 611; 110 56; 
111 190; 112 20; 113 61; 114 7; 115 4; 
116 2; 125 2; 130 3; 131 21; 132 19; 
133 4; 134 3; 138 2; 139 112; 140 12; 
141 42; 142 4; 143 2; 147 2; 148 3; 
166 9; 167 9; 168 6; 169 10; 170 2; 
171 2; 205 2; 210 3; 211 3; 212 2; 
229 2; 230 52; 231 8; 232 17; 233 3; 
