Name: AB-FUBINACA 2'-indazole isomer
InChIKey: XFYTVZNCYIVYKQ-KRWDZBQOSA-N
Synon: (S)-N-(1-amino-3-methyl-1-oxobutan-2-yl)-2-(4-fluorobenzyl)-2H-indazole-3-carboxamide
Formula: C20H21FN4O2
MW: 368
ExactMass: 368.164854
CASNO: 0
ID: 4865
Comment: Provided by www.caymanchem.com/app/template/landing%2CForensic.vm / Item#23065 Batch#0513451
Num Peaks: 130
41 21; 42 6; 43 19; 44 36; 45 3; 
50 3; 51 5; 52 3; 53 3; 54 3; 
55 14; 56 10; 57 13; 59 7; 62 11; 
63 16; 64 4; 65 3; 68 2; 69 3; 
70 7; 71 7; 72 14; 73 6; 74 2; 
75 6; 76 6; 77 8; 78 2; 81 4; 
82 3; 83 93; 84 6; 86 9; 87 6; 
88 45; 89 27; 90 21; 91 5; 95 5; 
96 5; 97 2; 98 2; 100 2; 101 3; 
102 10; 103 9; 104 4; 105 2; 107 27; 
108 15; 109 999; 110 78; 111 3; 115 3; 
116 3; 117 8; 118 6; 119 2; 121 2; 
122 5; 123 2; 124 5; 125 2; 126 2; 
129 13; 130 4; 131 8; 132 2; 133 2; 
134 2; 135 3; 143 2; 144 5; 145 85; 
146 10; 147 2; 151 2; 156 2; 157 2; 
159 2; 163 2; 169 3; 170 5; 171 2; 
172 8; 173 5; 174 2; 175 2; 176 4; 
177 4; 178 7; 186 2; 194 4; 195 4; 
196 12; 197 15; 198 7; 199 3; 200 2; 
205 4; 207 8; 208 3; 209 2; 215 2; 
216 3; 223 44; 224 47; 225 61; 226 17; 
227 3; 228 2; 251 37; 252 251; 253 611; 
254 101; 255 10; 268 4; 269 22; 270 4; 
280 31; 281 9; 323 11; 324 28; 325 7; 
350 7; 351 42; 352 9; 368 35; 369 8; 
