Name: AB-7-FUBAICA
InChIKey: AIZFETCNFVMZGT-UHFFFAOYSA-N
Synon: (S)-N-(1-amino-3-methyl-1-oxobutan-2-yl)-1-(4-fluorobenzyl)-1H-pyrrolo[2,3-b]pyridine-3-carboxamide
Formula: C20H21FN4O2
MW: 368
ExactMass: 368.164854
CASNO: 0
ID: 4866
Comment: Provided by www.caymanchem.com/app/template/landing%2CForensic.vm / Item#23059 Batch#0513450
Num Peaks: 107
41 22; 42 7; 43 23; 44 34; 45 3; 
50 2; 51 5; 52 3; 53 3; 54 3; 
55 11; 56 10; 57 11; 59 7; 62 7; 
63 15; 64 4; 65 3; 69 2; 70 4; 
72 6; 73 6; 75 6; 76 9; 77 4; 
78 2; 81 2; 83 85; 84 5; 88 4; 
89 29; 90 10; 91 4; 95 2; 96 2; 
102 7; 103 10; 104 5; 107 17; 108 8; 
109 999; 110 77; 111 3; 112 7; 115 3; 
116 18; 117 14; 118 4; 119 3; 129 2; 
130 3; 131 4; 132 2; 133 3; 134 2; 
135 3; 143 3; 144 38; 145 44; 146 5; 
147 2; 156 2; 158 2; 162 6; 169 3; 
170 4; 171 2; 174 3; 191 2; 192 2; 
195 3; 196 4; 197 2; 198 4; 203 2; 
205 4; 207 11; 208 3; 209 2; 215 4; 
216 2; 223 35; 224 20; 225 38; 226 10; 
227 4; 250 3; 251 11; 253 910; 254 156; 
255 16; 267 2; 268 18; 269 106; 270 18; 
271 2; 281 3; 307 3; 308 5; 309 2; 
324 68; 325 18; 326 4; 327 2; 350 2; 
351 2; 368 7; 
