Name: Methacrylfentanyl
InChIKey: YRRFMVAFZJGZNS-UHFFFAOYSA-N
Synon: Methacrylic fentanyl
Synon: N-(1-phenethylpiperidin-4-yl)-N-phenylmethacrylamide
Formula: C23H28N2O
MW: 348
ExactMass: 348.220163
CASNO: 0
ID: 4867
Comment: Provided by www.caymanchem.com/app/template/landing%2CForensic.vm / Item#22884 Batch#0515141
Num Peaks: 110
40 9; 41 257; 42 123; 43 20; 44 30; 
50 7; 51 24; 52 8; 53 9; 54 11; 
55 24; 56 20; 57 14; 58 3; 62 2; 
63 10; 64 6; 65 43; 66 7; 67 18; 
68 24; 69 521; 70 60; 71 5; 74 2; 
75 2; 76 5; 77 121; 78 27; 79 48; 
80 10; 81 4; 82 19; 83 4; 84 7; 
89 9; 90 7; 91 157; 92 20; 93 13; 
94 16; 95 13; 96 109; 97 13; 98 4; 
100 2; 102 5; 103 44; 104 65; 105 170; 
106 25; 107 3; 108 2; 110 2; 111 2; 
112 3; 115 12; 116 7; 117 33; 118 41; 
119 15; 120 5; 128 5; 129 5; 130 71; 
131 41; 132 66; 133 12; 134 7; 135 2; 
138 2; 139 5; 142 2; 143 6; 144 48; 
145 15; 146 26; 147 4; 148 2; 156 4; 
157 3; 158 147; 159 27; 160 23; 161 9; 
162 5; 170 3; 171 2; 172 6; 173 4; 
182 2; 184 11; 185 8; 186 115; 187 54; 
188 35; 189 10; 198 2; 200 2; 212 2; 
214 418; 215 66; 216 6; 228 2; 253 2; 
255 3; 257 999; 258 184; 259 18; 279 4; 
