Name: Methylandrostanol
InChIKey: YRLBWYBAALVUGC-PAPWGAKMSA-N
Synon: 17.alpha.-Methyl-5.alpha.-androstan-17.beta.-ol
Synon: (5.alpha.,17.beta.)-17-methyl-androstan-17-ol
Formula: C20H34O
MW: 290
ExactMass: 290.260965
CASNO: 1229045
ID: 4869
Comment: Provided by www.caymanchem.com/app/template/landing%2CForensic.vm / Item#17368 Batch#0471062
Num Peaks: 184
40 48; 41 637; 42 83; 43 794; 44 23; 
45 30; 50 8; 51 25; 52 18; 53 203; 
54 90; 55 672; 56 57; 57 138; 58 156; 
59 41; 60 2; 61 2; 62 2; 63 10; 
64 6; 65 136; 66 72; 67 999; 68 253; 
69 300; 70 34; 71 499; 72 89; 73 9; 
74 7; 75 5; 76 6; 77 339; 78 89; 
79 706; 80 153; 81 901; 82 152; 83 246; 
84 24; 85 52; 86 5; 87 4; 88 4; 
89 7; 90 8; 91 557; 92 111; 93 628; 
94 190; 95 773; 96 120; 97 169; 98 23; 
99 7; 100 2; 101 3; 102 7; 103 40; 
104 22; 105 287; 106 97; 107 409; 108 369; 
109 835; 110 126; 111 74; 112 10; 113 4; 
115 52; 116 20; 117 73; 118 21; 119 151; 
120 72; 121 337; 122 301; 123 481; 124 56; 
125 37; 126 5; 127 9; 128 28; 129 29; 
130 12; 131 59; 132 17; 133 142; 134 68; 
135 264; 136 92; 137 168; 138 19; 139 5; 
141 11; 142 7; 143 13; 144 4; 145 50; 
146 23; 147 245; 148 189; 149 898; 150 333; 
151 144; 152 9; 153 5; 154 2; 155 4; 
156 2; 157 7; 158 2; 159 44; 160 23; 
161 217; 162 254; 163 287; 164 62; 165 14; 
166 3; 167 5; 171 5; 173 23; 174 7; 
175 175; 176 96; 177 52; 178 16; 179 5; 
180 53; 181 12; 182 2; 185 4; 187 22; 
188 9; 189 58; 190 55; 191 20; 192 2; 
193 3; 199 5; 201 38; 202 26; 203 189; 
204 47; 205 24; 206 3; 213 2; 215 84; 
216 66; 217 925; 218 191; 219 147; 220 40; 
221 5; 229 9; 230 104; 231 26; 232 237; 
233 154; 234 24; 235 2; 241 3; 243 13; 
244 2; 245 2; 247 3; 253 2; 255 7; 
257 813; 258 168; 259 19; 261 2; 270 2; 
271 7; 272 177; 273 42; 275 501; 276 103; 
277 11; 290 300; 291 65; 292 7; 
