Name: 5-Fluoro-tert-Butylbenzyl-PINACA
InChIKey: XRAMUHKDZOPJDF-UHFFFAOYSA-N
Synon: N-(2,2-dimethyl-1-phenylpropyl)-1-(5-fluoropentyl)-1H-indazole-3-carboxamide
Synon: 5-Fluoro-TBB-PINACA
Formula: C24H30FN3O
MW: 395
ExactMass: 395.237291
CASNO: 0
ID: 4873
Comment: Provided by www.caymanchem.com/app/template/landing%2CForensic.vm / Item #23351 Batch #0516381
Num Peaks: 120
40 3; 41 68; 42 12; 43 11; 45 3; 
47 6; 50 6; 51 8; 52 6; 53 9; 
55 10; 56 12; 57 133; 58 7; 59 4; 
62 3; 63 8; 64 3; 65 5; 67 5; 
68 3; 69 45; 70 4; 73 22; 74 5; 
75 5; 76 14; 77 60; 78 20; 79 10; 
87 3; 88 26; 89 27; 90 62; 91 43; 
92 7; 96 3; 101 2; 102 30; 103 111; 
104 76; 105 50; 106 43; 107 2; 115 11; 
116 17; 117 30; 118 11; 119 8; 127 3; 
128 6; 129 30; 130 21; 131 122; 132 32; 
133 8; 135 5; 143 12; 144 16; 145 353; 
146 27; 147 13; 148 2; 155 2; 156 17; 
157 8; 158 6; 159 3; 161 3; 162 5; 
163 2; 165 3; 168 2; 169 2; 171 12; 
172 2; 174 3; 177 52; 178 6; 179 2; 
185 7; 186 2; 191 4; 193 5; 195 2; 
197 2; 205 2; 207 23; 208 5; 209 4; 
213 96; 214 15; 215 2; 219 2; 231 11; 
233 999; 234 148; 235 9; 236 2; 249 3; 
253 8; 254 2; 262 8; 267 2; 269 2; 
281 8; 282 2; 318 17; 319 5; 320 2; 
322 2; 325 4; 327 4; 331 3; 338 512; 
339 112; 340 13; 341 5; 355 3; 380 3; 
