Name: Ethoxyacetyl fentanyl
InChIKey: FBHHANTXGLSYKL-UHFFFAOYSA-N
Synon: 2-Ethoxy-N-phenyl-N-[1-(2-phenylethyl)-4-piperidinyl]-acetamide
Formula: C23H30N2O2
MW: 366
ExactMass: 366.230728
CASNO: 101365553
ID: 4879
Comment: Provided by www.caymanchem.com/app/template/landing%2CForensic.vm / Item#22992 Batch#0515878
Num Peaks: 142
41 47; 42 117; 43 25; 44 32; 45 4; 
50 10; 51 29; 52 11; 53 10; 54 12; 
55 29; 56 20; 57 14; 58 37; 59 206; 
60 7; 61 2; 62 4; 63 16; 64 13; 
65 77; 66 15; 67 23; 68 28; 69 30; 
70 77; 71 6; 72 2; 73 10; 74 5; 
75 5; 76 8; 77 174; 78 43; 79 70; 
80 15; 81 6; 82 27; 83 6; 84 11; 
85 2; 89 12; 90 9; 91 224; 92 71; 
93 42; 94 30; 95 23; 96 184; 97 30; 
98 20; 101 4; 102 7; 103 54; 104 86; 
105 242; 106 107; 107 11; 108 4; 111 2; 
112 3; 114 7; 115 12; 116 3; 117 29; 
118 53; 119 38; 120 26; 121 3; 122 3; 
128 3; 129 3; 130 67; 131 45; 132 98; 
133 16; 134 27; 135 63; 136 6; 139 24; 
140 4; 141 2; 142 2; 143 5; 144 18; 
145 10; 146 60; 147 8; 148 8; 149 2; 
154 2; 156 3; 157 3; 158 207; 159 32; 
160 33; 161 5; 162 4; 163 2; 170 3; 
172 6; 173 4; 174 16; 175 3; 176 3; 
177 2; 179 25; 180 4; 182 2; 184 16; 
185 12; 186 37; 187 39; 188 65; 189 30; 
190 6; 191 2; 201 24; 202 6; 204 106; 
205 16; 206 2; 207 8; 229 2; 231 4; 
232 118; 233 18; 234 2; 245 2; 246 2; 
247 8; 248 2; 253 6; 273 2; 275 999; 
276 180; 277 20; 278 2; 279 3; 281 3; 
327 2; 364 3; 
