Name: Trans-3-methyl Norfentanyl
InChIKey: OYAVLRFPQKQMMH-STQMWFEESA-N
Synon: trans-N-(3-methyl-4-piperidinyl)-N-phenyl-propanamide
Formula: C14H21N3O
MW: 247
ExactMass: 247.168463
CASNO: 33794433
ID: 4883
Comment: Provided by www.caymanchem.com/app/template/landing%2CForensic.vm / Item#22695 Batch#0509283
Num Peaks: 131
40 25; 41 358; 42 264; 43 102; 44 41; 
45 2; 50 20; 51 97; 52 26; 53 46; 
54 32; 55 61; 56 231; 57 528; 58 25; 
59 4; 61 2; 62 8; 63 35; 64 44; 
65 102; 66 55; 67 79; 68 277; 69 321; 
70 277; 71 234; 72 20; 73 3; 74 11; 
75 10; 76 26; 77 486; 78 75; 79 43; 
80 61; 81 42; 82 974; 83 70; 84 22; 
85 8; 86 3; 87 3; 88 2; 89 13; 
90 19; 91 165; 92 64; 93 757; 94 170; 
95 29; 96 372; 97 986; 98 999; 99 70; 
100 4; 102 5; 103 33; 104 178; 105 69; 
106 103; 107 14; 111 2; 112 5; 113 8; 
114 2; 115 18; 116 11; 117 100; 118 219; 
119 160; 120 288; 121 30; 122 9; 126 3; 
127 11; 128 10; 129 7; 130 109; 131 49; 
132 242; 133 99; 134 229; 135 25; 136 2; 
139 2; 141 33; 142 5; 143 10; 144 38; 
145 26; 146 90; 147 71; 148 55; 149 171; 
150 184; 151 24; 154 2; 155 6; 156 11; 
157 3; 158 53; 159 10; 160 97; 161 22; 
162 3; 170 2; 171 4; 172 15; 173 226; 
174 43; 175 7; 176 19; 177 3; 185 3; 
186 2; 187 6; 188 27; 189 400; 190 68; 
191 8; 202 7; 203 26; 204 5; 207 4; 
216 5; 217 2; 228 7; 231 2; 246 33; 
247 10; 
