Name: cis-3-methyl Norfentanyl
InChIKey: OYAVLRFPQKQMMH-QWHCGFSZSA-N
Synon: 3-Methylfentanyl metabolite
Synon: nor-3-Methylfentanyl
Synon: (.+/-.)-cis-3-methyl Norfentanil
Synon: Normefentanyl
Synon: cis-N-(3-methyl-4-piperidinyl)-N-phenyl-propanamide
Formula: C14H21N3O
MW: 247
ExactMass: 247.168463
CASNO: 33794422
ID: 4884
Comment: Provided by www.caymanchem.com/app/template/landing%2CForensic.vm / Item#22617 Batch#0509281
Num Peaks: 156
40 31; 41 414; 42 350; 43 125; 44 66; 
45 4; 49 2; 50 23; 51 113; 52 28; 
53 55; 54 41; 55 69; 56 283; 57 618; 
58 32; 59 6; 61 2; 62 9; 63 40; 
64 46; 65 121; 66 68; 67 97; 68 266; 
69 366; 70 438; 71 497; 72 36; 73 2; 
74 17; 75 12; 76 29; 77 598; 78 90; 
79 44; 80 75; 81 42; 82 911; 83 71; 
84 33; 85 10; 86 5; 87 4; 88 2; 
89 16; 90 23; 91 210; 92 85; 93 999; 
94 217; 95 47; 96 364; 97 958; 98 929; 
99 71; 100 8; 101 3; 102 7; 103 38; 
104 222; 105 93; 106 138; 107 20; 108 4; 
109 3; 110 4; 111 4; 112 10; 113 12; 
114 4; 115 20; 116 17; 117 130; 118 342; 
119 244; 120 491; 121 52; 122 7; 123 2; 
126 5; 127 18; 128 13; 129 10; 130 153; 
131 74; 132 376; 133 134; 134 234; 135 25; 
136 2; 139 4; 140 2; 141 48; 142 9; 
143 13; 144 60; 145 38; 146 181; 147 182; 
148 92; 149 263; 150 201; 151 23; 152 2; 
154 3; 155 7; 156 16; 157 6; 158 145; 
159 28; 160 267; 161 52; 162 9; 163 2; 
168 3; 169 2; 170 3; 171 8; 172 31; 
173 424; 174 84; 175 12; 176 46; 177 7; 
183 2; 184 2; 185 7; 186 5; 187 6; 
188 86; 189 757; 190 120; 191 13; 199 3; 
200 2; 201 2; 202 19; 203 126; 204 20; 
205 2; 208 2; 213 6; 214 3; 216 7; 
217 9; 227 3; 228 16; 229 5; 230 2; 
231 4; 244 2; 245 5; 246 74; 247 14; 
248 2; 
