Name: N-methyl Homarylamine
InChIKey: GWQGGJKNIBZRAG-UHFFFAOYSA-N
Synon: N,N-Dimethyl Homopiperonylamine
Formula: C11H15NO2
MW: 193
ExactMass: 193.110279
CASNO: 65953879
ID: 4885
Comment: Provided by www.caymanchem.com/app/template/landing%2CForensic.vm / Item#22239 Batch#0508883
Num Peaks: 58
41 8; 42 72; 43 15; 44 5; 50 9; 
51 32; 52 5; 53 6; 54 2; 55 2; 
56 10; 57 16; 58 999; 59 35; 62 8; 
63 22; 64 6; 65 26; 66 4; 67 2; 
70 2; 71 2; 74 4; 75 4; 76 7; 
77 60; 78 16; 79 9; 89 20; 90 6; 
91 32; 92 4; 94 2; 96 3; 104 2; 
105 14; 106 5; 107 2; 117 2; 118 4; 
119 8; 120 2; 121 3; 132 3; 134 5; 
135 47; 136 5; 147 16; 148 14; 149 11; 
160 2; 162 2; 177 3; 190 4; 191 4; 
192 3; 193 16; 194 2; 
