Name: Furanylethyl fentanyl
InChIKey: AFTQVAQNGJXATO-UHFFFAOYSA-N
Synon: N-[1-[2-(2-furanyl)ethyl]-4-piperidinyl]-N-phenyl-propanamide
Formula: C20H26N2O2
MW: 326
ExactMass: 326.199429
CASNO: 802544021
ID: 4886
Comment: Provided by www.caymanchem.com/app/template/landing%2CForensic.vm / Item #20819 Batch #0499265
Num Peaks: 123
40 3; 41 49; 42 137; 43 22; 44 69; 
45 2; 50 7; 51 21; 52 10; 53 45; 
54 16; 55 35; 56 25; 57 187; 58 8; 
62 2; 63 7; 64 7; 65 42; 66 23; 
67 60; 68 33; 69 29; 70 50; 71 5; 
73 6; 74 2; 75 2; 76 5; 77 115; 
78 18; 79 14; 80 15; 81 145; 82 34; 
83 7; 84 9; 89 3; 90 3; 91 32; 
92 14; 93 69; 94 69; 95 113; 96 115; 
97 16; 98 7; 103 9; 104 51; 105 22; 
106 25; 107 5; 108 5; 109 2; 115 5; 
116 4; 117 27; 118 76; 119 25; 120 13; 
121 3; 122 4; 124 3; 128 2; 129 3; 
130 67; 131 47; 132 115; 133 21; 134 4; 
135 3; 136 3; 139 9; 140 2; 143 3; 
144 16; 145 11; 146 667; 147 78; 148 12; 
149 11; 150 11; 156 3; 157 3; 158 51; 
159 14; 160 8; 161 2; 170 2; 172 5; 
173 4; 174 4; 175 6; 176 16; 177 7; 
178 13; 179 3; 187 17; 188 16; 189 380; 
190 57; 191 6; 193 2; 202 130; 203 19; 
204 2; 207 22; 208 5; 209 3; 216 3; 
227 2; 229 2; 243 3; 245 999; 246 169; 
247 17; 253 4; 269 2; 281 9; 282 3; 
283 2; 324 2; 327 2; 
