Name: (2-Methyl) Butyryl fentanyl
InChIKey: DRAWSQJHCQAWNN-UHFFFAOYSA-N
Synon: .alpha.'-methyl Butyryl fentanyl
Synon: 2-Methyl-N-(1-phenethylpiperidin-4-yl)-N-phenylbutanamide
Formula: C24H32N2O
MW: 364
ExactMass: 364.251463
CASNO: 0
ID: 4893
Comment: Provided by www.caymanchem.com/app/template/landing%2CForensic.vm / Item#22994 Batch#052427
Num Peaks: 116
40 5; 41 138; 42 126; 43 23; 44 53; 
45 2; 50 7; 51 23; 52 8; 53 12; 
54 13; 55 49; 56 31; 57 487; 58 24; 
62 3; 63 11; 64 8; 65 49; 66 12; 
67 21; 68 33; 69 40; 70 58; 71 6; 
73 5; 74 3; 75 3; 76 6; 77 149; 
78 34; 79 60; 80 13; 81 5; 82 28; 
83 10; 84 21; 85 65; 86 4; 89 9; 
90 8; 91 178; 92 32; 93 134; 94 42; 
95 23; 96 163; 97 23; 98 8; 101 2; 
102 6; 103 54; 104 92; 105 273; 106 41; 
107 4; 108 3; 115 9; 116 6; 117 34; 
118 70; 119 32; 120 18; 121 2; 128 4; 
129 4; 130 87; 131 64; 132 99; 133 19; 
134 15; 135 4; 139 20; 140 2; 143 4; 
144 20; 145 12; 146 535; 147 61; 148 11; 
149 4; 156 4; 157 3; 158 19; 159 14; 
160 33; 161 6; 162 2; 172 4; 173 5; 
174 2; 177 19; 178 5; 182 2; 184 12; 
185 10; 186 31; 187 29; 188 58; 189 618; 
190 82; 191 6; 200 2; 207 5; 230 18; 
231 5; 244 3; 253 3; 271 2; 273 999; 
274 187; 275 18; 279 3; 281 2; 362 4; 
363 2; 
