Name: Pivaloyl fentanyl
InChIKey: ZSFLALBHNJDBFJ-UHFFFAOYSA-N
Synon: N-(1-phenethylpiperidin-4-yl)-N-phenylpivalamide
Formula: C24H32N2O
MW: 364
ExactMass: 364.251463
CASNO: 0
ID: 4894
Comment: Provided by www.caymanchem.com/app/template/landing%2CForensic.vm / Item#22991 Batch#0512425
Num Peaks: 115
40 9; 41 171; 42 120; 43 25; 44 43; 
45 2; 50 9; 51 28; 52 10; 53 13; 
54 13; 55 44; 56 34; 57 999; 58 46; 
62 3; 63 13; 64 11; 65 58; 66 17; 
67 18; 68 32; 69 38; 70 54; 71 6; 
73 6; 74 4; 75 4; 76 7; 77 152; 
78 36; 79 62; 80 12; 81 5; 82 26; 
83 8; 84 15; 85 97; 86 6; 89 9; 
90 8; 91 164; 92 40; 93 134; 94 34; 
95 18; 96 160; 97 27; 98 11; 101 4; 
102 6; 103 55; 104 92; 105 284; 106 39; 
107 4; 115 11; 116 6; 117 35; 118 66; 
119 35; 120 16; 121 4; 128 4; 129 7; 
130 79; 131 60; 132 82; 133 18; 134 26; 
135 7; 139 18; 140 2; 143 4; 144 17; 
145 12; 146 309; 147 37; 148 9; 156 4; 
157 3; 158 20; 159 12; 160 35; 161 6; 
162 2; 168 2; 172 4; 173 4; 174 2; 
177 70; 178 10; 182 2; 184 12; 185 10; 
186 34; 187 50; 188 77; 189 150; 190 20; 
207 6; 208 2; 230 27; 231 6; 253 4; 
264 2; 273 878; 274 165; 275 17; 279 7; 
281 2; 307 2; 349 7; 350 2; 362 5; 
