Name: Isovaleryl fentanyl
InChIKey: HQXKBEMWVAZFPK-UHFFFAOYSA-N
Synon: .beta.'-methyl Butyryl fentanyl
Synon: 3-Methyl-N-(1-phenethylpiperidin-4-yl)-N-phenylbutanamide
Formula: C24H32N2O
MW: 364
ExactMass: 364.251463
CASNO: 0
ID: 4895
Comment: Provided by www.caymanchem.com/app/template/landing%2CForensic.vm / Item# 22990 Batch#0512426
Num Peaks: 132
40 9; 41 147; 42 151; 43 70; 44 79; 
45 3; 50 10; 51 30; 52 11; 53 13; 
54 13; 55 42; 56 30; 57 283; 58 15; 
62 3; 63 14; 64 10; 65 62; 66 19; 
67 26; 68 35; 69 46; 70 61; 71 6; 
73 12; 74 5; 75 4; 76 8; 77 167; 
78 41; 79 66; 80 16; 81 7; 82 29; 
83 12; 84 20; 85 87; 86 5; 89 11; 
90 8; 91 196; 92 44; 93 250; 94 62; 
95 26; 96 184; 97 27; 98 13; 101 3; 
102 6; 103 57; 104 93; 105 266; 106 48; 
107 5; 108 4; 111 2; 115 11; 116 6; 
117 37; 118 80; 119 43; 120 22; 121 2; 
127 2; 128 3; 129 7; 130 85; 131 62; 
132 109; 133 21; 134 20; 135 11; 139 20; 
140 2; 141 2; 143 4; 144 26; 145 14; 
146 641; 147 75; 148 11; 149 2; 154 2; 
155 2; 156 3; 157 3; 158 26; 159 14; 
160 35; 161 6; 162 2; 170 2; 172 5; 
173 5; 177 28; 178 6; 179 2; 184 16; 
185 13; 186 34; 187 28; 188 64; 189 559; 
190 74; 191 7; 193 2; 207 14; 208 3; 
209 2; 229 2; 230 22; 231 7; 244 2; 
251 2; 253 7; 254 2; 255 2; 271 3; 
273 999; 274 187; 275 19; 279 3; 281 5; 
307 2; 327 2; 331 2; 341 2; 349 2; 
362 5; 363 3; 
