Name: Methamphetamine t-butyl Carbamate
InChIKey: NYMJXPUUUCVJQY-UHFFFAOYSA-N
Synon: tert-Butyl methyl(1-phenylpropan-2-yl)carbamate
Synon: N-t-Butoxycarbonyl-Methamphetamine
Synon: t-BOC Methamphetamine
Formula: C15H23NO2
MW: 249
ExactMass: 249.172879
CASNO: 0
ID: 4901
Comment: Provided by www.caymanchem.com/app/template/landing%2CForensic.vm / Item#22742 Batch#0510189 / SWGDRUG Monograph available
Num Peaks: 69
40 7; 41 327; 42 201; 43 104; 44 22; 
45 3; 49 2; 50 15; 51 34; 52 12; 
53 13; 54 11; 55 37; 56 161; 57 999; 
58 978; 59 43; 62 7; 63 34; 64 11; 
65 151; 66 10; 70 4; 71 6; 73 5; 
74 5; 75 5; 76 9; 77 51; 78 27; 
79 15; 87 2; 88 2; 89 47; 90 25; 
91 765; 92 141; 93 10; 101 6; 102 883; 
103 67; 104 18; 105 10; 106 2; 107 2; 
115 53; 116 17; 117 75; 118 37; 119 139; 
120 14; 130 5; 131 5; 132 32; 133 14; 
134 16; 135 2; 144 2; 146 10; 147 13; 
148 17; 149 2; 158 345; 159 32; 160 3; 
176 100; 177 13; 178 2; 194 2; 
