Name: 3,4-Methylenedioxy U-47700
InChIKey: UUAVKYBZWVMWSM-KWCCSABGSA-N
Synon: 3,4-MDO-U-47700
Synon: N-((1R,2R)-2-(dimethylamino)cyclohexyl)-N-methylbenzo[d][1,3]dioxole-5-carboxamide
Formula: C17H24N2O3
MW: 304
ExactMass: 304.178692
CASNO: 0
ID: 4903
Comment: Provided by www.caymanchem.com/app/template/landing%2CForensic.vm / Item#22753 Batch#0511960 / SWGDRUG Monograph available
Num Peaks: 111
41 26; 42 121; 43 17; 44 46; 45 8; 
46 4; 50 4; 51 8; 52 3; 53 16; 
54 10; 55 29; 56 58; 57 12; 58 140; 
59 6; 61 3; 62 20; 63 84; 64 12; 
65 209; 66 17; 67 16; 68 42; 69 16; 
70 74; 71 190; 72 17; 73 3; 74 3; 
75 2; 76 2; 77 14; 78 5; 79 41; 
80 10; 81 32; 82 69; 83 34; 84 902; 
85 65; 86 2; 89 2; 90 2; 91 55; 
92 12; 93 6; 94 19; 95 15; 96 35; 
97 62; 98 70; 99 17; 100 2; 104 2; 
106 2; 107 3; 108 12; 109 10; 110 156; 
111 19; 112 58; 113 6; 117 2; 119 17; 
120 17; 121 221; 122 28; 123 8; 124 187; 
125 999; 126 96; 127 3; 135 6; 137 2; 
139 5; 146 3; 147 6; 148 4; 149 437; 
150 41; 151 6; 153 11; 154 3; 155 23; 
156 3; 162 13; 163 3; 164 2; 169 4; 
178 5; 179 6; 180 5; 190 3; 192 18; 
193 2; 204 3; 206 3; 216 2; 230 2; 
231 3; 232 3; 246 2; 258 5; 259 2; 
260 12; 261 2; 271 2; 286 3; 303 22; 
304 8; 
