Name: Thiofuranyl fentanyl
InChIKey: CCHPKGYUIHSQIE-UHFFFAOYSA-N
Synon: Thiophene fentanyl
Synon: N-(1-phenethylpiperidin-4-yl)-N-phenylthiophene-2-carboxamide
Formula: C24H26N2OS
MW: 390
ExactMass: 390.176584
CASNO: 0
ID: 4907
Comment: Provided by www.caymanchem.com/app/template/landing%2CForensic.vm / Item#22802 Batch#0511239
Num Peaks: 116
41 20; 42 76; 43 12; 44 13; 45 4; 
50 5; 51 14; 52 5; 53 7; 54 6; 
55 14; 56 10; 57 12; 58 3; 62 2; 
63 7; 64 3; 65 34; 66 5; 67 15; 
68 18; 69 18; 70 23; 71 2; 73 9; 
74 3; 75 3; 76 4; 77 92; 78 22; 
79 36; 80 9; 81 6; 82 19; 83 43; 
84 9; 85 4; 89 8; 90 6; 91 142; 
92 18; 93 11; 94 16; 95 8; 96 96; 
97 14; 98 9; 102 3; 103 33; 104 45; 
105 111; 106 15; 107 2; 110 3; 111 999; 
112 62; 113 48; 114 3; 115 8; 116 3; 
117 16; 118 22; 119 10; 120 4; 128 3; 
129 3; 130 39; 131 25; 132 38; 133 9; 
134 4; 135 4; 142 2; 143 2; 144 8; 
145 5; 146 14; 147 4; 154 3; 156 2; 
157 2; 158 64; 159 13; 160 13; 161 2; 
172 2; 173 3; 182 2; 184 11; 185 9; 
186 33; 187 25; 188 17; 189 6; 191 2; 
193 2; 203 17; 204 4; 205 2; 207 23; 
208 5; 209 2; 253 5; 256 208; 257 37; 
258 13; 259 2; 279 7; 281 9; 282 2; 
299 544; 300 107; 301 37; 302 5; 341 2; 
388 2; 
