Name: 3,4-MDMA t-butyl Carbamate
InChIKey: AXMVJRRNQRXHMX-UHFFFAOYSA-N
Synon: 3,4-Methylenedioxymethamphetamine t-butyl Carbamate
Synon: N-t-Butoxycarbonyl-MDMA
Synon: t-BOC-3,4-MDMA
Synon: N-[2-(1,3-benzodioxol-5-yl)-1-methylethyl]-N-methyl-carbamic acid, 1,1-dimethylethyl ester
Formula: C16H23NO4
MW: 293
ExactMass: 293.162708
CASNO: 1228259708
ID: 4909
Comment: Provided by www.caymanchem.com/app/template/landing%2CForensic.vm / Item#22740 Batch#0510187
Num Peaks: 90
41 267; 42 101; 43 46; 44 28; 45 3; 
49 2; 50 23; 51 91; 52 17; 53 22; 
54 9; 55 39; 56 143; 57 831; 58 999; 
59 55; 62 8; 63 25; 64 7; 65 28; 
66 7; 67 5; 68 2; 70 4; 71 3; 
73 3; 74 7; 75 9; 76 23; 77 280; 
78 83; 79 76; 80 9; 89 18; 90 8; 
91 24; 92 6; 93 4; 94 3; 101 4; 
102 902; 103 90; 104 43; 105 130; 106 35; 
107 9; 108 2; 110 5; 115 4; 116 2; 
117 4; 118 9; 119 6; 120 5; 121 11; 
122 9; 130 2; 131 30; 132 17; 133 33; 
134 32; 135 771; 136 246; 137 22; 138 2; 
146 6; 147 22; 148 15; 149 4; 158 357; 
159 34; 160 7; 161 23; 162 121; 163 155; 
164 18; 165 2; 176 14; 177 6; 178 5; 
190 2; 191 31; 192 18; 193 3; 220 124; 
221 17; 222 2; 236 2; 293 27; 294 5; 
