Name: Crotonyl fentanyl
InChIKey: VDYXGPCGBKLRDA-XNWCZRBMSA-N
Synon: (2E)-N-phenyl-N-[1-(2-phenylethyl)-4-piperidinyl]-2-butenamide
Formula: C23H28N2O
MW: 348
ExactMass: 348.220163
CASNO: 760930594
ID: 4910
Comment: Provided by www.caymanchem.com/app/template/landing%2CForensic.vm / Item#22801 Batch#0511357 / SWGDRUG Monograph available
Num Peaks: 108
40 10; 41 176; 42 133; 43 21; 44 41; 
50 7; 51 23; 52 8; 53 10; 54 11; 
55 22; 56 21; 57 15; 58 3; 62 3; 
63 13; 64 7; 65 60; 66 11; 67 26; 
68 41; 69 703; 70 79; 71 7; 73 4; 
74 3; 75 4; 76 8; 77 177; 78 39; 
79 65; 80 14; 81 6; 82 25; 83 6; 
84 11; 89 14; 90 10; 91 245; 92 30; 
93 40; 94 31; 95 17; 96 157; 97 18; 
98 10; 102 7; 103 58; 104 87; 105 217; 
106 34; 107 4; 108 2; 111 3; 115 13; 
116 7; 117 39; 118 67; 119 22; 120 10; 
128 5; 129 4; 130 86; 131 58; 132 104; 
133 18; 134 10; 135 3; 139 8; 142 2; 
143 6; 144 29; 145 16; 146 481; 147 54; 
148 7; 156 5; 157 3; 158 74; 159 18; 
160 29; 161 13; 162 7; 170 2; 172 6; 
173 5; 182 2; 184 13; 185 10; 186 30; 
187 26; 188 37; 189 531; 190 78; 191 5; 
207 4; 214 107; 215 17; 228 5; 253 3; 
255 2; 257 999; 258 177; 259 19; 279 10; 
280 2; 281 2; 346 3; 
