Name: Pseudoephedrine-d3
InChIKey: KWGRBVOPPLSCSI-BMSJAHLVSA-N
Synon: .alpha.S-[(1S)-1-(Methyl-d3-amino)ethyl]-benzenemethanol
Formula: C10H12D3NO
MW: 168
ExactMass: 168.134194
CASNO: 754966068
ID: 4912
Comment: Provided by www.caymanchem.com/app/template/landing%2CForensic.vm / Item#22494 Batch#0509962
Num Peaks: 59
41 9; 42 20; 43 24; 44 15; 45 63; 
46 3; 47 2; 49 2; 50 21; 51 45; 
52 15; 53 5; 55 4; 56 3; 57 5; 
58 33; 59 50; 60 37; 61 999; 62 42; 
63 13; 64 4; 65 9; 66 2; 73 5; 
74 13; 75 9; 76 8; 77 168; 78 48; 
79 52; 80 5; 87 2; 89 13; 90 7; 
91 34; 92 5; 93 3; 102 2; 103 9; 
104 4; 105 80; 106 45; 107 16; 115 21; 
116 7; 117 46; 118 27; 119 4; 130 4; 
131 4; 132 8; 133 2; 134 9; 135 9; 
147 2; 149 17; 150 8; 151 2; 
