Name: Methamphetamine-d14
InChIKey: MYWUZJCMWCOHBA-QUMROUDOSA-N
Synon: N,.alpha.-di(methyl-d3)-(benzene-d5)-ethan-.alpha.,.beta.,.beta.-d3-amine
Formula: C10HD14N
MW: 163
ExactMass: 163.2083235
CASNO: 0
ID: 4914
Comment: Provided by www.caymanchem.com/app/template/landing%2CForensic.vm / Item#22681 Batch#0510768
Num Peaks: 54
42 26; 43 4; 44 4; 45 11; 46 38; 
47 12; 49 4; 52 8; 54 19; 56 5; 
58 4; 60 2; 61 26; 62 24; 63 11; 
64 29; 65 999; 66 78; 68 5; 69 5; 
70 78; 71 4; 73 2; 76 3; 78 3; 
80 3; 81 3; 82 16; 83 2; 84 9; 
86 2; 94 16; 95 2; 96 7; 97 15; 
98 135; 99 13; 108 2; 110 5; 112 3; 
113 2; 114 2; 122 8; 123 3; 124 2; 
125 4; 126 8; 127 9; 128 2; 142 3; 
144 2; 145 20; 146 2; 161 3; 
