Name: 7'-Methoxy NABUTIE
InChIKey: AEKYOIGTEGFYSI-UHFFFAOYSA-N
Synon: 7'-MeO NABUTIE
Synon: 1-(1-Butyl-7-methoxy-1H-indol-3-yl)-2-(1-naphthalenyl)-ethanone
Formula: C25H25NO2
MW: 371
ExactMass: 371.18853
CASNO: 1438278557
ID: 4915
Comment: Provided by www.caymanchem.com/app/template/landing%2CForensic.vm / Item#22630 Batch#0508175
Num Peaks: 94
41 19; 51 2; 55 4; 57 7; 62 2; 
63 6; 65 3; 73 8; 74 2; 75 6; 
76 10; 77 8; 78 2; 88 5; 89 21; 
90 5; 91 6; 101 3; 102 14; 103 29; 
104 3; 113 2; 114 7; 115 104; 116 24; 
117 13; 118 6; 119 3; 126 2; 127 3; 
128 12; 129 15; 130 19; 131 25; 132 4; 
133 3; 135 4; 139 29; 140 11; 141 170; 
142 28; 143 17; 144 25; 145 12; 146 5; 
147 2; 154 4; 155 2; 156 3; 157 3; 
158 14; 159 158; 160 25; 165 2; 170 4; 
172 12; 173 12; 174 190; 175 23; 176 2; 
184 2; 186 12; 187 4; 188 2; 200 5; 
201 3; 202 2; 207 10; 208 2; 209 2; 
213 2; 216 3; 226 3; 227 2; 228 9; 
230 999; 231 154; 232 16; 240 2; 241 2; 
242 2; 253 7; 254 5; 255 3; 267 2; 
270 2; 281 4; 282 3; 328 3; 341 2; 
355 3; 356 2; 371 30; 372 8; 
