Name: Diproqualone
InChIKey: NTGLQWGMESPVBV-UHFFFAOYSA-N
Synon: 3-(2,3-Dihydroxypropyl)-2-methyl-4(3H)-quinazolinone
Formula: C12H14N2O3
MW: 234
ExactMass: 234.100442
CASNO: 36518022
ID: 4917
Comment: Provided by www.caymanchem.com/app/template/landing%2CForensic.vm / Item #21836 Batch #051069
Num Peaks: 137
40 4; 41 23; 42 67; 43 78; 44 22; 
45 11; 49 2; 50 61; 51 48; 52 14; 
53 5; 54 16; 55 21; 56 47; 57 15; 
58 6; 59 11; 60 6; 61 35; 62 16; 
63 70; 64 46; 65 27; 66 8; 67 2; 
68 3; 70 3; 72 2; 73 26; 74 48; 
75 78; 76 208; 77 338; 78 52; 79 10; 
80 2; 81 2; 82 2; 84 5; 85 2; 
87 4; 88 13; 89 89; 90 145; 91 51; 
92 61; 93 10; 96 6; 97 2; 99 2; 
100 2; 101 5; 102 66; 103 33; 104 75; 
105 62; 106 19; 107 5; 114 3; 115 10; 
116 211; 117 172; 118 153; 119 92; 120 56; 
121 5; 128 6; 129 14; 130 23; 131 77; 
132 94; 133 39; 134 7; 135 9; 137 2; 
142 7; 143 190; 144 609; 145 142; 146 177; 
147 27; 148 3; 149 3; 152 2; 154 2; 
155 4; 156 6; 157 6; 158 5; 159 240; 
160 999; 161 777; 162 78; 163 7; 165 4; 
167 2; 171 10; 172 6; 173 135; 174 346; 
175 36; 176 4; 177 4; 179 2; 182 4; 
183 12; 184 5; 185 168; 186 22; 187 15; 
188 26; 189 5; 191 9; 192 2; 193 9; 
195 3; 196 2; 197 2; 198 3; 199 47; 
200 33; 201 80; 202 16; 203 338; 204 54; 
205 6; 207 90; 208 16; 209 13; 210 2; 
216 189; 217 28; 218 3; 219 2; 234 75; 
235 13; 236 2; 
