Name: Tetrahydrofuran fentanyl 3-tetrahydrofurancarboxamide isomer
InChIKey: IYRYSBGEQAGZME-UHFFFAOYSA-N
Synon: Tetrahydrofentanyl 3-THF
Synon: 3-THF fentanyl
Synon: N-(1-phenethylpiperidin-4-yl)-N-phenyltetrahydrofuran-3-carboxamide
Formula: C24H30N2O2
MW: 378
ExactMass: 378.230728
CASNO: 0
ID: 4918
Comment: Provided by www.caymanchem.com/app/template/landing%2CForensic.vm / Item#22664 Batch#0509669
Num Peaks: 119
40 3; 41 120; 42 115; 43 138; 44 53; 
45 2; 50 5; 51 17; 52 5; 53 8; 
54 10; 55 36; 56 18; 57 13; 58 2; 
62 2; 63 9; 64 6; 65 45; 66 8; 
67 19; 68 32; 69 98; 70 56; 71 89; 
72 4; 73 3; 74 2; 75 3; 76 6; 
77 131; 78 30; 79 53; 80 11; 81 5; 
82 25; 83 6; 84 12; 85 2; 89 10; 
90 9; 91 200; 92 29; 93 40; 94 23; 
95 17; 96 118; 97 24; 98 11; 99 64; 
100 4; 101 3; 102 5; 103 43; 104 64; 
105 206; 106 34; 107 7; 108 2; 113 3; 
115 8; 116 5; 117 28; 118 52; 119 25; 
120 12; 121 2; 122 5; 128 5; 129 4; 
130 64; 131 50; 132 83; 133 14; 134 10; 
135 2; 139 11; 143 5; 144 17; 145 11; 
146 416; 147 49; 148 10; 156 3; 157 2; 
158 21; 159 11; 160 22; 161 5; 162 2; 
170 2; 172 5; 173 4; 174 6; 184 9; 
185 7; 186 26; 187 22; 188 47; 189 363; 
190 50; 191 6; 200 2; 207 2; 231 5; 
244 62; 245 11; 253 2; 257 2; 258 2; 
259 3; 279 2; 285 2; 287 999; 288 188; 
289 21; 290 2; 335 5; 376 2; 
