Name: ortho-Methylfentanyl
InChIKey: DPAJFOSXYXNYMA-UHFFFAOYSA-N
Synon: N-(2-methylphenyl)-N-[1-(2-phenylethyl)-4-piperidinyl]-propanamide
Synon: 2-Methylfentanyl
Synon: o-Methylfentanyl
Formula: C23H30N2O
MW: 350
ExactMass: 350.235813
CASNO: 2141471
ID: 4919
Comment: Provided by www.caymanchem.com/app/template/landing%2CForensic.vm / Item#22634 Batch#0509212
Num Peaks: 117
41 31; 42 124; 43 18; 44 63; 45 2; 
50 5; 51 13; 52 7; 53 9; 54 10; 
55 27; 56 22; 57 179; 58 8; 62 2; 
63 11; 64 4; 65 69; 66 7; 67 23; 
68 28; 69 28; 70 53; 71 6; 73 5; 
74 3; 75 3; 76 5; 77 69; 78 32; 
79 62; 80 15; 81 6; 82 26; 83 5; 
84 6; 89 20; 90 14; 91 308; 92 31; 
93 8; 94 18; 95 22; 96 142; 97 20; 
98 9; 102 6; 103 48; 104 46; 105 208; 
106 44; 107 40; 108 17; 109 2; 115 10; 
116 7; 117 42; 118 84; 119 16; 120 14; 
128 4; 129 5; 130 54; 131 29; 132 57; 
133 13; 134 16; 135 3; 139 10; 142 2; 
143 8; 144 55; 145 42; 146 67; 147 10; 
148 4; 156 4; 157 3; 158 14; 159 8; 
160 721; 161 90; 162 9; 163 9; 164 5; 
170 2; 172 67; 173 19; 174 6; 182 2; 
184 11; 185 9; 186 28; 187 11; 188 22; 
189 3; 201 13; 202 8; 203 404; 204 61; 
205 4; 207 12; 208 2; 216 174; 217 27; 
218 2; 230 5; 231 2; 253 4; 257 2; 
259 999; 260 180; 261 17; 281 5; 293 2; 
348 4; 349 2; 
