Name: 4-MMA-NBOMe
InChIKey: DTFCZLWHKAATQN-UHFFFAOYSA-N
Synon: N-(ortho-methoxybenzyl)-4-Methylmethamphetamine
Synon: N-(2-methoxybenzyl)-N-methyl-1-(p-tolyl)propan-2-amine
Formula: C19H25NO
MW: 283
ExactMass: 283.193615
CASNO: 0
ID: 4922
Comment: Provided by www.caymanchem.com/app/template/landing%2CForensic.vm / Item#18755 Batch#0499606
Num Peaks: 66
41 10; 42 39; 43 2; 44 2; 50 5; 
51 17; 52 10; 53 7; 54 3; 55 3; 
56 38; 57 8; 58 3; 62 2; 63 13; 
64 5; 65 74; 66 6; 74 2; 75 2; 
76 5; 77 91; 78 66; 79 55; 80 4; 
89 20; 90 11; 91 511; 92 43; 93 59; 
94 5; 102 6; 103 42; 104 33; 105 150; 
106 17; 107 8; 115 15; 116 6; 117 17; 
118 6; 119 7; 120 9; 121 999; 122 88; 
123 5; 128 3; 129 2; 130 4; 131 8; 
132 9; 133 6; 134 6; 135 3; 144 4; 
145 2; 146 13; 147 3; 148 4; 150 2; 
162 8; 176 6; 177 3; 178 702; 179 87; 
180 6; 
