Name: Amphetamine-d11
InChIKey: KWTSXDURSIMDCE-AAFMOIDSSA-N
Synon: .alpha.-(Methyl-d3)-benzene-2,3,4,5,6-d5-ethan-.alpha.,.beta.,.beta.-d3-amine
Formula: C9H2D11N
MW: 146
ExactMass: 146.173843
CASNO: 0
ID: 4923
Comment: Provided by www.caymanchem.com/app/template/landing%2CForensic.vm / Item#18540 Batch#0509564
Num Peaks: 57
41 7; 42 57; 43 9; 44 25; 45 34; 
46 31; 47 20; 48 999; 49 61; 50 2; 
52 19; 53 4; 54 39; 55 4; 56 12; 
57 2; 61 2; 62 4; 63 5; 64 19; 
65 2; 66 39; 67 3; 68 9; 69 15; 
70 139; 71 6; 76 4; 78 4; 80 5; 
81 11; 82 24; 83 4; 84 10; 93 2; 
94 30; 95 3; 96 19; 97 58; 98 209; 
99 39; 100 8; 108 10; 109 9; 110 4; 
112 2; 121 2; 122 11; 123 2; 124 5; 
125 8; 126 12; 127 5; 128 35; 129 4; 
143 2; 144 4; 
