Name: Cyclopropyl fentanyl
InChIKey: OIQSKDSKROTEMN-UHFFFAOYSA-N
Synon: N-(1-phenethylpiperidin-4-yl)-N-phenylcyclopropanecarboxamide
Formula: C23H28N2O
MW: 348
ExactMass: 348.220163
CASNO: 1169682
ID: 4926
Comment: Provided by www.caymanchem.com/Forensic.vm / Item#21739 Batch#0505024 / SWGDRUG Monograph available
Num Peaks: 288
40 3; 41 160; 42 103; 43 15; 44 38; 
45 1; 46 1; 47 1; 48 1; 49 1; 
50 4; 51 16; 52 5; 53 7; 54 8; 
55 21; 56 16; 57 11; 58 2; 59 1; 
60 1; 61 1; 62 2; 63 8; 64 5; 
65 41; 66 7; 67 19; 68 29; 69 383; 
70 55; 71 5; 72 1; 73 3; 74 2; 
75 3; 76 5; 77 126; 78 29; 79 48; 
80 11; 81 4; 82 21; 83 5; 84 8; 
85 1; 86 1; 87 1; 88 1; 89 10; 
90 8; 91 179; 92 23; 93 39; 94 25; 
95 15; 96 112; 97 14; 98 5; 99 1; 
100 1; 101 1; 102 5; 103 45; 104 65; 
105 179; 106 29; 107 3; 108 2; 109 1; 
110 1; 111 1; 112 2; 113 1; 114 1; 
115 9; 116 5; 117 29; 118 51; 119 19; 
120 9; 121 1; 122 1; 123 1; 124 1; 
125 1; 126 1; 127 1; 128 3; 129 3; 
130 67; 131 43; 132 85; 133 15; 134 9; 
135 2; 136 1; 137 1; 138 1; 139 4; 
140 1; 141 1; 142 1; 143 4; 144 20; 
145 10; 146 426; 147 50; 148 6; 149 1; 
150 1; 151 1; 152 1; 153 1; 154 1; 
155 1; 156 4; 157 3; 158 46; 159 13; 
160 23; 161 11; 162 4; 163 1; 164 1; 
165 1; 166 1; 167 1; 168 1; 169 1; 
170 2; 171 1; 172 5; 173 4; 174 1; 
175 1; 176 1; 177 1; 178 1; 179 1; 
180 1; 181 1; 182 2; 183 1; 184 11; 
185 9; 186 25; 187 21; 188 33; 189 485; 
190 67; 191 6; 192 1; 193 1; 194 1; 
195 1; 196 1; 197 1; 198 1; 199 1; 
200 1; 201 1; 202 1; 203 1; 204 1; 
205 1; 206 1; 207 13; 208 3; 209 2; 
210 1; 211 1; 212 1; 213 1; 214 81; 
215 12; 216 1; 217 1; 218 1; 219 1; 
220 1; 221 1; 222 1; 223 1; 224 1; 
225 1; 226 1; 227 1; 228 3; 229 2; 
230 1; 231 1; 232 1; 233 1; 234 1; 
235 1; 236 1; 237 1; 238 1; 239 1; 
240 1; 241 1; 242 1; 243 1; 244 1; 
245 1; 246 1; 247 1; 249 1; 250 1; 
251 1; 252 1; 253 3; 254 1; 255 2; 
257 999; 258 180; 259 17; 260 1; 261 1; 
263 1; 264 1; 265 1; 266 1; 267 1; 
268 1; 269 1; 270 1; 271 1; 272 1; 
274 1; 275 1; 276 1; 277 1; 278 1; 
279 2; 280 1; 281 5; 282 1; 283 1; 
284 1; 285 1; 291 1; 293 1; 294 1; 
295 1; 296 1; 297 1; 298 1; 299 1; 
301 1; 302 1; 303 1; 305 1; 306 1; 
307 1; 308 1; 309 1; 311 1; 312 1; 
313 1; 314 1; 315 1; 316 1; 317 1; 
323 1; 324 1; 325 1; 326 1; 327 1; 
328 1; 329 1; 330 1; 331 1; 332 1; 
333 1; 334 1; 339 1; 340 1; 341 1; 
342 1; 343 1; 344 1; 345 1; 346 5; 
347 2; 348 1; 349 1; 
