Name: EADB-FUBINACA
InChIKey: WWIKBKIMULPMKD-HXUWFJFHSA-N
Synon: (S)-N-(1-(ethylamino)-3,3-dimethyl-1-oxobutan-2-yl)-1-(4-fluorobenzyl)-1H-indazole-3-carboxamide
Formula: C23H27FN4O2
MW: 410
ExactMass: 410.211803
CASNO: 0
ID: 4927
Comment: Provided by www.caymanchem.com/app/template/landing%2CForensic.vm / Item#23345 Batch#0520131
Num Peaks: 369
40 1; 41 40; 42 9; 43 7; 44 41; 
45 2; 46 14; 47 1; 48 1; 49 1; 
50 1; 51 4; 52 2; 53 3; 54 2; 
55 9; 56 15; 57 43; 58 4; 59 2; 
60 1; 61 1; 62 3; 63 8; 64 1; 
65 1; 66 1; 67 1; 68 2; 69 9; 
70 15; 71 8; 72 39; 73 9; 74 2; 
75 7; 76 6; 77 6; 78 3; 79 1; 
80 1; 81 2; 82 3; 83 58; 84 11; 
85 4; 86 54; 87 8; 88 21; 89 17; 
90 17; 91 5; 92 1; 93 1; 94 1; 
95 5; 96 7; 97 1; 98 1; 99 1; 
100 1; 101 6; 102 16; 103 8; 104 8; 
105 8; 106 1; 107 11; 108 8; 109 999; 
110 76; 111 2; 112 1; 113 1; 114 1; 
115 2; 116 2; 117 6; 118 6; 119 1; 
120 1; 121 1; 122 4; 123 1; 124 1; 
125 1; 126 1; 127 1; 128 2; 129 13; 
130 3; 131 12; 132 2; 133 1; 134 1; 
135 2; 136 1; 137 1; 138 1; 139 1; 
140 1; 141 1; 142 1; 143 1; 144 5; 
145 63; 146 7; 147 1; 148 1; 149 1; 
150 1; 151 1; 152 1; 153 1; 154 1; 
155 1; 156 1; 157 1; 158 1; 159 1; 
160 1; 161 1; 162 1; 163 1; 164 1; 
165 1; 166 1; 167 1; 168 1; 169 3; 
170 4; 171 4; 172 4; 173 4; 174 1; 
175 1; 176 1; 177 3; 178 1; 179 1; 
180 1; 181 1; 182 1; 183 1; 184 1; 
185 1; 186 2; 187 1; 188 1; 189 1; 
190 1; 191 1; 192 1; 193 1; 194 1; 
195 3; 196 6; 197 6; 198 4; 199 3; 
200 5; 201 1; 202 1; 203 1; 204 1; 
205 2; 206 1; 207 4; 208 1; 209 1; 
210 1; 211 1; 212 1; 213 1; 214 2; 
215 1; 216 1; 217 1; 218 1; 219 1; 
220 1; 221 1; 222 1; 223 14; 224 8; 
225 15; 226 9; 227 6; 228 1; 229 1; 
230 2; 231 1; 232 1; 233 1; 234 1; 
235 1; 236 1; 237 1; 238 1; 239 1; 
240 1; 241 1; 242 1; 243 1; 244 1; 
245 1; 246 1; 247 1; 248 1; 249 1; 
250 1; 251 6; 252 1; 253 718; 254 122; 
255 13; 256 1; 257 1; 258 1; 259 1; 
260 1; 261 1; 262 1; 263 1; 264 1; 
265 1; 266 2; 267 1; 268 1; 269 1; 
270 6; 271 1; 272 1; 273 1; 274 1; 
275 1; 276 1; 277 1; 278 1; 279 1; 
280 1; 281 3; 282 4; 283 5; 284 1; 
285 1; 286 1; 287 1; 288 1; 289 1; 
290 1; 291 1; 292 1; 293 1; 294 1; 
295 1; 296 1; 297 1; 298 1; 299 1; 
300 1; 301 1; 302 1; 303 1; 304 1; 
305 1; 306 1; 307 1; 308 1; 309 25; 
310 5; 311 1; 312 1; 313 1; 314 1; 
315 1; 316 1; 317 1; 318 1; 319 1; 
320 1; 321 1; 322 2; 323 1; 324 2; 
325 1; 326 1; 327 1; 328 1; 329 1; 
330 1; 331 1; 332 1; 333 1; 334 1; 
335 1; 336 20; 337 1; 338 447; 339 107; 
340 13; 341 1; 342 1; 343 1; 344 1; 
345 1; 346 1; 347 1; 348 1; 349 1; 
350 2; 351 1; 352 1; 353 2; 354 5; 
355 2; 356 1; 357 1; 358 1; 359 1; 
360 1; 361 1; 362 1; 363 1; 364 1; 
365 1; 366 1; 367 1; 369 1; 370 1; 
371 1; 372 1; 373 1; 374 1; 375 1; 
376 1; 377 3; 378 1; 379 1; 380 1; 
382 1; 383 1; 384 1; 385 1; 386 1; 
387 1; 389 1; 390 1; 391 1; 392 2; 
393 1; 394 1; 395 1; 396 1; 397 1; 
398 1; 399 1; 400 1; 401 1; 402 1; 
403 1; 404 1; 405 1; 406 1; 407 1; 
408 1; 409 1; 410 1; 411 1; 
