Name: 3,4-Methylenedioxy-.alpha.-methylamino-Isovalerophenone
InChIKey: IUSHOQXYDDUICV-UHFFFAOYSA-N
Synon: 1-(1,3-benzodioxol-5-yl)-3-methyl-2-(methylamino)-1-butanone
Formula: C13H17NO3
MW: 235
ExactMass: 235.120843
CASNO: 1368889080
ID: 4928
Comment: Provided by www.caymanchem.com/app/template/landing%2CForensic.vm / Item#23711 Batch#0520015
Num Peaks: 190
40 2; 41 38; 42 94; 43 28; 44 26; 
45 1; 46 1; 47 1; 48 1; 49 1; 
50 6; 51 10; 52 3; 53 13; 54 7; 
55 95; 56 27; 57 4; 58 6; 59 1; 
60 1; 61 5; 62 26; 63 81; 64 12; 
65 107; 66 9; 67 2; 68 7; 69 4; 
70 74; 71 100; 72 5; 73 1; 74 6; 
75 3; 76 4; 77 10; 78 3; 79 6; 
80 1; 81 1; 82 2; 83 1; 84 24; 
85 7; 86 999; 87 76; 88 3; 89 3; 
90 2; 91 34; 92 8; 93 4; 94 1; 
96 3; 97 1; 98 1; 99 1; 100 1; 
101 1; 102 1; 103 2; 104 2; 105 2; 
106 2; 107 1; 108 1; 109 1; 110 1; 
111 1; 112 1; 113 1; 114 1; 115 2; 
116 2; 117 2; 118 1; 119 8; 120 8; 
121 84; 122 11; 123 1; 124 1; 125 1; 
126 1; 127 1; 128 1; 129 1; 130 1; 
131 1; 132 1; 133 1; 134 8; 135 8; 
136 1; 137 1; 138 1; 139 1; 140 1; 
141 1; 142 1; 143 1; 144 1; 145 2; 
146 2; 147 2; 148 1; 149 99; 150 10; 
151 1; 152 1; 153 1; 154 1; 155 1; 
156 1; 157 1; 158 1; 159 1; 160 1; 
161 1; 162 29; 163 3; 164 7; 165 1; 
166 1; 167 1; 168 1; 169 1; 170 1; 
171 1; 172 1; 173 1; 174 2; 175 1; 
176 1; 177 1; 178 1; 179 1; 180 1; 
181 1; 184 1; 185 1; 186 1; 187 1; 
188 1; 189 1; 190 2; 191 2; 192 36; 
193 5; 194 1; 195 1; 197 1; 198 1; 
199 1; 200 1; 201 1; 202 1; 203 1; 
204 1; 205 1; 206 1; 207 1; 208 1; 
209 1; 210 1; 211 1; 213 1; 214 1; 
215 1; 216 1; 217 1; 218 1; 219 1; 
220 1; 221 1; 222 1; 223 1; 224 1; 
226 1; 227 1; 228 1; 229 1; 230 1; 
231 1; 232 1; 233 1; 234 1; 235 1; 
