Name: MEP-FUBINACA
InChIKey: MFRTXWHFMBIWRY-KRWDZBQOSA-N
Synon: MMB-FUBINACA isomer 1
Synon: Methyl (S)-2-(1-(4-fluorobenzyl)-1H-indazole-3-carboxamido)pentanoate
Formula: C21H22FN3O3
MW: 383
ExactMass: 383.16452
CASNO: 0
ID: 4929
Comment: Provided by www.caymanchem.com/app/template/landing%2CForensic.vm / Item#21654 Batch#0521014
Num Peaks: 345
40 1; 41 16; 42 4; 43 14; 44 5; 
45 2; 46 1; 47 1; 48 1; 49 1; 
50 1; 51 5; 52 1; 53 2; 54 1; 
55 11; 56 7; 57 6; 58 1; 59 31; 
60 2; 61 1; 62 8; 63 10; 64 2; 
65 1; 66 1; 67 1; 68 2; 69 2; 
70 16; 71 5; 72 2; 73 3; 74 3; 
75 9; 76 9; 77 9; 78 2; 79 1; 
80 1; 81 3; 82 2; 83 74; 84 4; 
85 1; 86 1; 87 6; 88 52; 89 21; 
90 19; 91 4; 92 1; 93 1; 94 1; 
95 6; 96 6; 97 1; 98 2; 99 1; 
100 1; 101 1; 102 20; 103 11; 104 6; 
105 5; 106 1; 107 14; 108 8; 109 999; 
110 74; 111 2; 112 1; 113 1; 114 1; 
115 1; 116 2; 117 7; 118 4; 119 1; 
120 1; 121 1; 122 4; 123 1; 124 1; 
125 1; 126 1; 127 1; 128 1; 129 13; 
130 18; 131 9; 132 2; 133 1; 134 1; 
135 1; 136 1; 137 1; 138 1; 139 1; 
140 1; 141 1; 142 1; 143 1; 144 4; 
145 97; 146 10; 147 1; 148 1; 149 1; 
150 1; 151 1; 152 1; 153 1; 154 1; 
155 1; 156 1; 157 1; 158 1; 159 2; 
160 1; 161 1; 162 1; 163 1; 164 1; 
165 1; 166 1; 167 1; 168 1; 169 3; 
170 5; 171 1; 172 5; 173 9; 174 2; 
175 1; 176 2; 177 2; 178 1; 179 1; 
180 1; 181 1; 182 1; 183 1; 184 1; 
185 1; 186 7; 187 3; 188 1; 189 1; 
190 1; 191 1; 192 1; 193 1; 194 1; 
195 3; 196 5; 197 6; 198 3; 199 1; 
200 2; 201 1; 202 1; 203 1; 204 1; 
205 2; 206 1; 207 2; 208 1; 209 1; 
210 1; 211 1; 212 1; 213 1; 214 3; 
215 2; 216 1; 217 1; 218 1; 219 1; 
220 1; 221 1; 222 1; 223 15; 224 8; 
225 15; 226 7; 227 1; 228 1; 229 1; 
230 1; 231 1; 232 1; 233 1; 234 1; 
235 1; 236 1; 237 1; 238 1; 239 1; 
240 1; 241 1; 242 4; 243 1; 244 1; 
245 1; 246 1; 247 1; 248 1; 249 1; 
250 1; 251 4; 252 1; 253 764; 254 131; 
255 13; 256 1; 257 1; 258 1; 259 1; 
260 1; 261 1; 262 1; 263 1; 264 1; 
265 1; 266 5; 267 9; 268 4; 269 16; 
270 2; 271 1; 272 1; 273 1; 274 25; 
275 4; 276 1; 277 1; 278 1; 279 1; 
280 1; 281 2; 282 1; 283 1; 284 1; 
285 1; 286 1; 287 1; 288 1; 289 1; 
290 1; 291 1; 292 1; 293 1; 294 1; 
295 1; 296 1; 297 1; 298 1; 299 1; 
300 1; 301 1; 302 1; 303 1; 304 1; 
305 1; 306 1; 307 1; 308 1; 309 8; 
310 1; 311 9; 312 2; 313 1; 314 1; 
315 1; 316 1; 317 1; 318 1; 319 1; 
320 1; 321 1; 322 1; 324 280; 325 64; 
326 8; 327 1; 328 1; 329 1; 330 1; 
331 1; 332 1; 333 1; 334 1; 335 1; 
336 1; 337 1; 338 1; 339 1; 340 1; 
341 55; 342 11; 343 1; 344 1; 345 1; 
346 1; 347 1; 348 1; 349 1; 350 1; 
351 4; 352 3; 353 1; 354 1; 355 1; 
356 1; 357 1; 358 1; 359 1; 360 1; 
361 1; 362 1; 363 1; 364 1; 365 1; 
366 1; 367 1; 368 1; 369 1; 370 1; 
371 1; 372 1; 373 1; 374 1; 375 1; 
376 1; 377 1; 378 1; 379 1; 380 1; 
381 1; 382 1; 383 18; 384 4; 385 1; 
