Name: Myclobutanil
InChIKey: HZJKXKUJVSEEFU-UHFFFAOYSA-N
Synon: RH 3866
Synon: .alpha.-Butyl-.alpha.-(4-chlorophenyl)-1H-1,2,4-triazole-1-propanenitrile
Formula: C15H17ClN4
MW: 288
ExactMass: 288.114174
CASNO: 88671890
ID: 4930
Comment: Provided by www.caymanchem.com/app/template/landing%2CForensic.vm / Item#24100 Batch#0520423
Num Peaks: 248
40 32; 41 155; 42 18; 43 91; 44 3; 
45 1; 47 1; 48 1; 49 2; 50 19; 
51 29; 52 10; 53 18; 54 16; 55 275; 
56 38; 57 6; 58 1; 59 1; 60 1; 
61 4; 62 10; 63 28; 64 10; 65 11; 
66 7; 67 16; 68 6; 69 10; 70 16; 
71 1; 72 1; 73 11; 74 18; 75 68; 
76 24; 77 53; 78 8; 79 5; 80 2; 
81 5; 82 401; 83 122; 84 8; 85 6; 
86 6; 87 14; 88 18; 89 35; 90 16; 
91 7; 92 1; 93 1; 94 3; 95 1; 
96 1; 97 4; 98 3; 99 19; 100 16; 
101 103; 102 76; 103 19; 104 3; 105 1; 
106 1; 107 1; 108 1; 109 1; 110 4; 
111 16; 112 22; 113 21; 114 64; 115 103; 
116 39; 117 14; 118 2; 119 1; 120 1; 
121 1; 122 1; 123 29; 124 8; 125 157; 
126 29; 127 97; 128 183; 129 42; 130 7; 
131 1; 132 1; 133 1; 134 1; 135 3; 
136 35; 137 159; 138 32; 139 63; 140 59; 
141 39; 142 28; 143 23; 144 23; 145 5; 
146 1; 147 1; 148 2; 149 29; 150 511; 
151 77; 152 275; 153 40; 154 45; 155 12; 
156 7; 157 3; 158 1; 159 1; 160 1; 
161 2; 162 18; 163 222; 164 128; 165 87; 
166 43; 167 9; 168 5; 169 3; 170 6; 
171 17; 172 2; 173 1; 174 2; 175 2; 
176 17; 177 17; 178 13; 179 999; 180 108; 
181 312; 182 34; 183 3; 184 7; 185 1; 
186 1; 187 1; 188 1; 189 2; 190 5; 
191 6; 192 10; 193 4; 194 3; 195 1; 
196 1; 197 3; 198 1; 199 1; 200 1; 
201 1; 202 1; 203 1; 204 7; 205 1; 
206 223; 207 33; 208 73; 209 11; 210 2; 
211 1; 212 1; 213 1; 214 1; 215 1; 
216 1; 217 1; 218 5; 219 21; 220 7; 
221 8; 222 2; 223 1; 224 1; 225 1; 
226 1; 227 1; 229 3; 230 1; 231 5; 
232 2; 233 1; 234 2; 235 1; 236 1; 
237 1; 238 1; 239 1; 240 1; 241 1; 
242 1; 243 1; 244 1; 245 155; 246 23; 
247 53; 248 8; 249 1; 250 1; 251 1; 
252 1; 253 3; 254 1; 255 1; 256 1; 
257 1; 258 1; 259 1; 260 1; 261 1; 
262 1; 263 1; 264 1; 265 1; 266 1; 
267 1; 268 1; 269 1; 270 1; 271 1; 
272 1; 273 1; 274 1; 275 1; 276 1; 
278 1; 280 1; 281 1; 282 1; 283 1; 
284 1; 285 1; 286 1; 288 137; 289 26; 
290 48; 291 8; 292 1; 
