Name: Benzoylpiperazine
InChIKey: VUNXBQRNMNVUMV-UHFFFAOYSA-N
Synon: Phenyl-1-piperazinyl-methanone
Formula: C11H14N2O
MW: 190
ExactMass: 190.110613
CASNO: 13754386
ID: 4931
Comment: Provided by www.caymanchem.com/app/template/landing%2CForensic.vm / Item#24016 Batch#0520601
Num Peaks: 150
40 7; 41 33; 42 111; 43 59; 44 51; 
45 1; 46 1; 47 1; 48 1; 49 4; 
50 82; 51 240; 52 21; 53 7; 54 40; 
55 54; 56 595; 57 90; 58 101; 59 4; 
60 1; 61 1; 62 4; 63 7; 64 2; 
65 6; 66 1; 67 1; 68 52; 69 803; 
70 40; 71 3; 72 1; 73 4; 74 35; 
75 28; 76 55; 77 847; 78 69; 79 7; 
80 1; 81 6; 82 3; 83 21; 84 8; 
85 481; 86 25; 87 2; 88 1; 89 5; 
90 4; 91 29; 92 4; 93 1; 94 1; 
95 1; 96 1; 97 1; 98 1; 99 3; 
100 1; 101 1; 102 1; 103 5; 104 15; 
105 999; 106 76; 107 5; 108 1; 109 1; 
111 1; 112 1; 113 1; 114 1; 115 1; 
116 2; 117 4; 118 10; 119 7; 120 6; 
121 2; 122 128; 123 10; 124 1; 125 1; 
126 1; 127 1; 128 1; 129 1; 130 1; 
131 1; 132 8; 133 4; 134 207; 135 40; 
136 37; 137 3; 138 1; 139 1; 140 1; 
141 1; 142 1; 143 1; 144 1; 145 1; 
146 10; 147 17; 148 18; 149 3; 150 1; 
151 1; 153 1; 154 1; 155 1; 156 1; 
157 1; 158 1; 159 1; 160 83; 161 15; 
162 26; 163 3; 164 1; 165 1; 167 1; 
168 1; 169 1; 170 1; 171 1; 172 1; 
173 2; 174 1; 175 1; 176 1; 177 1; 
178 1; 179 1; 180 1; 181 1; 182 1; 
183 1; 184 1; 185 1; 186 1; 187 1; 
188 7; 189 15; 190 105; 191 17; 192 1; 
