Name: AZEFUBIM
InChIKey: NIRUFXPSGVSZBK-UHFFFAOYSA-N
Synon: AZE-FUBICA
Synon: Azetidine-FUBICA
Synon: Azetidin-1-yl(1-(4-fluorobenzyl)-1H-indol-3-yl)methanone
Formula: C19H17FN2O
MW: 308
ExactMass: 308.132492
CASNO: 0
ID: 4932
Comment: Provided by www.caymanchem.com/app/template/landing%2CForensic.vm / Item#23653 Batch#0520970
Num Peaks: 271
40 1; 41 5; 42 3; 43 1; 44 1; 
45 1; 46 1; 47 1; 48 1; 49 1; 
50 3; 51 6; 52 2; 53 1; 54 3; 
55 2; 56 9; 57 11; 58 1; 59 6; 
60 1; 61 1; 62 9; 63 17; 64 3; 
65 2; 66 1; 67 1; 68 1; 69 1; 
70 1; 71 1; 72 1; 73 3; 74 4; 
75 12; 76 5; 77 5; 78 1; 79 1; 
80 1; 81 5; 82 2; 83 103; 84 7; 
85 1; 86 2; 87 7; 88 21; 89 26; 
90 4; 91 1; 92 1; 93 1; 94 1; 
95 2; 96 3; 97 1; 98 1; 99 1; 
100 1; 101 8; 102 10; 103 2; 104 1; 
105 1; 106 1; 107 16; 108 8; 109 999; 
110 75; 111 6; 112 1; 113 1; 114 19; 
115 52; 116 16; 117 2; 118 1; 119 1; 
120 1; 121 1; 122 1; 123 1; 124 1; 
125 1; 126 1; 127 1; 128 5; 129 5; 
130 3; 131 1; 132 1; 133 1; 134 1; 
135 1; 136 1; 137 1; 138 1; 139 1; 
140 1; 141 1; 142 2; 143 56; 144 11; 
145 1; 146 1; 147 1; 148 1; 149 1; 
150 1; 151 1; 152 1; 153 1; 154 1; 
155 1; 156 2; 157 1; 158 1; 159 1; 
160 1; 161 1; 162 1; 163 1; 164 1; 
165 1; 166 1; 167 1; 168 1; 169 2; 
170 3; 171 27; 172 5; 173 1; 174 1; 
175 2; 176 2; 177 1; 178 1; 179 1; 
180 1; 181 1; 182 1; 183 1; 184 1; 
185 1; 186 1; 187 1; 188 1; 189 1; 
190 1; 191 1; 192 1; 193 1; 194 4; 
195 2; 196 3; 197 1; 198 1; 199 1; 
200 1; 201 1; 202 1; 203 1; 204 2; 
205 1; 206 1; 207 5; 208 1; 209 1; 
210 1; 211 1; 212 1; 213 1; 214 1; 
215 1; 216 1; 217 1; 218 1; 219 1; 
220 1; 221 5; 222 22; 223 6; 224 19; 
225 7; 226 1; 227 1; 228 1; 229 1; 
230 1; 231 1; 232 1; 233 1; 234 1; 
235 1; 236 1; 237 1; 238 1; 239 1; 
240 1; 241 1; 242 1; 243 1; 244 1; 
245 1; 246 1; 247 1; 248 1; 249 1; 
250 6; 251 1; 252 472; 253 88; 254 9; 
255 1; 256 1; 257 1; 258 1; 259 1; 
260 1; 261 1; 262 1; 263 1; 264 2; 
265 1; 266 1; 267 3; 268 1; 269 1; 
270 1; 271 1; 273 1; 274 1; 275 1; 
276 1; 277 1; 278 1; 279 1; 280 4; 
281 3; 282 1; 283 1; 284 1; 285 1; 
286 1; 287 1; 288 1; 289 1; 290 1; 
291 1; 292 1; 293 1; 294 1; 295 1; 
296 1; 297 1; 298 1; 299 1; 300 1; 
301 1; 302 1; 303 1; 304 1; 305 1; 
306 1; 307 1; 308 247; 309 52; 310 6; 
311 1; 
