Name: Heroin-d9 (Not certified by NIST)
InChIKey: GVGLGOZIDCSQPN-GQALSZNTSA-N
Synon: Acetomorphine-d9
Synon: 3,6-Diacetylmorphine-d9
Synon: Diamorphine-d9
Synon: (5.alpha.,6.alpha.)-7,8-didehydro-4,5-epoxy-17-(methyl-d3)-morphinan-3,6-diol 3,6-di(acetate-2,2,2-d3)
Formula: C21H14D9NO5
MW: 378
ExactMass: 378.214113
CASNO: 1338713497
ID: 4933
Comment: Note: Spectrum not certified by NIST / Provided by www.caymanchem.com/app/template/landing%2CForensic.vm / Item#18417 Batch#0518721
Num Peaks: 340
40 4; 41 7; 42 10; 43 10; 44 43; 
45 182; 46 999; 47 78; 48 16; 49 1; 
50 5; 51 15; 52 7; 53 18; 54 6; 
55 20; 56 6; 57 3; 58 10; 59 9; 
60 16; 61 38; 62 56; 63 24; 64 9; 
65 22; 66 9; 67 10; 68 8; 69 8; 
70 7; 71 9; 72 7; 73 89; 74 15; 
75 13; 76 10; 77 53; 78 31; 79 23; 
80 12; 81 122; 82 42; 83 13; 84 19; 
85 32; 86 14; 87 9; 88 5; 89 23; 
90 11; 91 42; 92 25; 93 12; 94 7; 
95 8; 96 15; 97 105; 98 22; 99 19; 
100 13; 101 10; 102 20; 103 30; 104 23; 
105 40; 106 11; 107 7; 108 9; 109 11; 
110 20; 111 21; 112 15; 113 12; 114 12; 
115 104; 116 59; 117 30; 118 21; 119 11; 
120 10; 121 18; 122 9; 123 14; 124 8; 
125 13; 126 18; 127 72; 128 133; 129 56; 
130 25; 131 18; 132 29; 133 23; 134 25; 
135 21; 136 11; 137 36; 138 17; 139 42; 
140 24; 141 40; 142 36; 143 19; 144 12; 
145 26; 146 24; 147 56; 148 35; 149 132; 
150 33; 151 38; 152 99; 153 87; 154 47; 
155 31; 156 16; 157 12; 158 20; 159 13; 
160 15; 161 19; 162 36; 163 35; 164 24; 
165 100; 166 138; 167 58; 168 52; 169 34; 
170 28; 171 34; 172 52; 173 30; 174 36; 
175 91; 176 45; 177 42; 178 33; 179 40; 
180 38; 181 50; 182 54; 183 29; 184 24; 
185 38; 186 28; 187 21; 188 15; 189 14; 
190 12; 191 13; 192 12; 193 22; 194 18; 
195 21; 196 18; 197 25; 198 44; 199 41; 
200 30; 201 22; 202 17; 203 12; 204 29; 
205 17; 206 35; 207 37; 208 26; 209 60; 
210 314; 211 97; 212 83; 213 43; 214 22; 
215 12; 216 10; 217 29; 218 54; 219 294; 
220 61; 221 15; 222 9; 223 15; 224 24; 
225 29; 226 34; 227 23; 228 50; 229 29; 
230 35; 231 14; 232 11; 233 5; 234 3; 
235 5; 236 8; 237 10; 238 14; 239 13; 
240 11; 241 29; 242 25; 243 17; 244 27; 
245 8; 246 3; 247 4; 248 2; 249 1; 
250 2; 251 6; 252 6; 253 21; 254 17; 
255 16; 256 50; 257 17; 258 10; 259 5; 
260 6; 261 6; 262 6; 263 12; 264 8; 
265 2; 266 1; 267 2; 268 4; 269 71; 
270 113; 271 117; 272 449; 273 109; 274 26; 
275 7; 276 3; 277 1; 278 1; 279 1; 
280 1; 281 1; 282 1; 283 1; 284 1; 
285 2; 286 6; 287 8; 288 56; 289 26; 
290 12; 291 5; 292 1; 293 1; 294 1; 
295 1; 296 1; 297 1; 298 2; 299 1; 
300 2; 301 1; 302 1; 303 1; 304 3; 
305 3; 306 3; 307 1; 308 1; 309 1; 
310 1; 311 1; 312 1; 313 1; 314 25; 
315 62; 316 486; 317 132; 318 21; 319 5; 
320 1; 321 1; 322 1; 323 1; 324 1; 
325 1; 326 1; 327 1; 328 1; 329 1; 
330 2; 331 2; 332 69; 333 108; 334 582; 
335 145; 336 23; 337 2; 338 1; 339 1; 
340 1; 341 1; 342 1; 343 1; 344 1; 
346 1; 348 1; 349 1; 350 1; 351 1; 
352 1; 353 1; 354 1; 355 1; 356 1; 
357 1; 358 1; 359 1; 360 1; 361 1; 
362 1; 363 1; 364 1; 365 1; 366 1; 
367 1; 368 1; 369 1; 370 1; 371 1; 
372 1; 373 1; 374 1; 375 1; 377 70; 
378 416; 379 114; 380 19; 381 2; 382 1; 
