Name: Venlafaxine-d6 (Not certified by NIST)
InChIKey: PNVNVHUZROJLTJ-WFGJKAKNSA-N
Synon: 1-[2-[Di(methyl-d3)amino]-1-(4-methoxyphenyl)ethyl]-cyclohexanol
Formula: C17H21D6NO2
MW: 283
ExactMass: 283.24184
CASNO: 1062606125
ID: 4935
Comment: Note: Spectrum not certified by NIST / Provided by www.caymanchem.com/app/template/landing%2CForensic.vm / Item#15863 Batch#0522982
Num Peaks: 243
40 2; 41 23; 42 10; 43 11; 44 6; 
45 15; 46 8; 47 3; 48 2; 49 12; 
50 2; 51 13; 52 3; 53 8; 54 2; 
55 31; 56 3; 57 7; 58 1; 59 1; 
60 2; 61 2; 62 4; 63 24; 64 999; 
65 50; 66 5; 67 4; 68 1; 69 8; 
70 4; 71 1; 72 1; 73 1; 74 1; 
75 3; 76 3; 77 28; 78 15; 79 22; 
80 4; 81 38; 82 3; 83 3; 84 1; 
85 1; 86 1; 87 1; 88 1; 89 9; 
90 6; 91 56; 92 11; 93 5; 94 5; 
95 1; 96 1; 97 1; 98 4; 99 13; 
100 1; 101 1; 102 5; 103 11; 104 6; 
105 7; 106 3; 107 3; 108 3; 109 5; 
110 1; 111 1; 112 1; 113 1; 114 1; 
115 10; 116 4; 117 4; 118 3; 119 44; 
120 11; 121 37; 122 6; 123 4; 124 1; 
125 2; 126 1; 127 3; 128 5; 129 4; 
130 2; 131 5; 132 4; 133 9; 134 288; 
135 33; 136 5; 137 8; 138 1; 139 1; 
140 4; 141 3; 142 1; 143 1; 144 3; 
145 4; 146 3; 147 6; 148 5; 149 3; 
150 1; 151 10; 152 4; 153 4; 154 1; 
155 1; 156 1; 157 1; 158 2; 159 5; 
160 2; 161 2; 162 3; 163 1; 164 1; 
165 2; 166 9; 167 2; 168 17; 169 4; 
170 1; 171 2; 172 1; 173 2; 174 1; 
175 1; 176 1; 177 1; 178 1; 179 1; 
180 1; 181 1; 182 1; 183 8; 184 19; 
185 36; 186 4; 187 1; 188 1; 189 1; 
190 1; 191 1; 192 1; 193 1; 194 1; 
195 1; 196 1; 197 1; 198 1; 199 1; 
200 1; 201 1; 202 11; 203 1; 204 1; 
205 1; 206 1; 207 1; 208 1; 209 1; 
210 1; 211 1; 212 1; 213 1; 214 1; 
215 1; 216 1; 217 1; 218 1; 219 1; 
220 1; 221 1; 222 1; 223 1; 224 1; 
225 1; 226 1; 227 1; 228 1; 229 1; 
230 1; 231 1; 232 1; 233 1; 234 1; 
235 1; 236 1; 237 1; 238 1; 239 1; 
240 1; 241 1; 242 1; 243 1; 244 1; 
245 1; 246 1; 247 1; 248 1; 249 1; 
250 1; 251 1; 252 1; 253 1; 254 1; 
255 1; 256 1; 257 1; 258 1; 259 1; 
260 1; 261 1; 262 1; 263 1; 264 1; 
265 1; 266 1; 267 1; 268 1; 269 1; 
270 1; 272 1; 273 1; 274 1; 275 1; 
277 1; 278 1; 279 1; 280 1; 281 1; 
282 1; 283 1; 284 1; 
