Name: p-Cymene
InChIKey: HFPZCAJZSCWRBC-UHFFFAOYSA-N
Synon: 4-Cymene
Synon: para-Cymene
Synon: NSC 4162
Synon: 1-Methyl-4-(1-methylethyl)-benzene
Formula: C10H14
MW: 134
ExactMass: 134.10955
CASNO: 99876
ID: 4936
Comment: Provided by www.caymanchem.com/app/template/landing%2CForensic.vm / Item#23159 Batch#0522283
Num Peaks: 96
40 5; 41 44; 42 3; 43 4; 44 1; 
45 1; 46 1; 47 1; 48 1; 49 1; 
50 18; 51 39; 52 13; 53 13; 54 1; 
55 1; 56 1; 58 14; 59 2; 61 3; 
62 14; 63 48; 64 14; 65 83; 66 12; 
67 2; 68 1; 69 1; 70 1; 71 1; 
72 1; 73 1; 74 10; 75 10; 76 10; 
77 105; 78 40; 79 37; 80 3; 81 1; 
82 1; 83 1; 84 1; 85 1; 86 4; 
87 7; 88 2; 89 38; 90 10; 91 356; 
92 39; 93 33; 94 2; 95 1; 96 1; 
97 1; 98 1; 99 1; 100 1; 101 3; 
102 21; 103 63; 104 43; 105 55; 106 5; 
107 1; 108 1; 109 1; 110 1; 111 1; 
112 1; 113 1; 114 1; 115 104; 116 24; 
117 187; 118 37; 119 999; 120 123; 121 5; 
122 1; 123 1; 124 1; 125 1; 126 1; 
127 2; 128 3; 129 2; 130 1; 131 2; 
132 2; 133 8; 134 367; 135 38; 136 2; 
137 1; 
