Name: Cyclopropyl norfentanyl
InChIKey: MFGRYVBZTFUIQB-UHFFFAOYSA-N
Synon: Norcyclopropyl fentanyl
Synon: N-phenyl-N-4-piperidinyl-cyclopropanecarboxamide
Formula: C15H20N2O
MW: 244
ExactMass: 244.157563
CASNO: 802543926
ID: 4938
Comment: Provided by www.caymanchem.com/app/template/landing%2CForensic.vm / Item#24061 Batch#0522965
Num Peaks: 206
40 26; 41 514; 42 170; 43 44; 44 24; 
45 2; 46 1; 47 1; 48 1; 49 1; 
50 19; 51 86; 52 22; 53 46; 54 56; 
55 224; 56 290; 57 154; 58 12; 59 1; 
60 1; 61 1; 62 4; 63 22; 64 27; 
65 61; 66 28; 67 34; 68 365; 69 645; 
70 45; 71 7; 72 2; 73 1; 74 5; 
75 7; 76 17; 77 327; 78 47; 79 22; 
80 60; 81 36; 82 776; 83 999; 84 367; 
85 25; 86 11; 87 2; 88 1; 89 15; 
90 17; 91 115; 92 49; 93 471; 94 82; 
95 14; 96 10; 97 7; 98 4; 99 1; 
100 1; 101 1; 102 4; 103 18; 104 83; 
105 22; 106 56; 107 11; 108 3; 109 2; 
110 5; 111 5; 112 3; 113 1; 114 1; 
115 18; 116 14; 117 76; 118 225; 119 111; 
120 389; 121 37; 122 4; 123 3; 124 6; 
125 3; 126 1; 127 2; 128 7; 129 5; 
130 79; 131 36; 132 159; 133 69; 134 29; 
135 6; 136 2; 137 1; 138 1; 139 23; 
140 4; 141 1; 142 16; 143 9; 144 44; 
145 22; 146 121; 147 58; 148 14; 149 2; 
150 1; 151 1; 152 2; 153 12; 154 2; 
155 1; 156 5; 157 7; 158 50; 159 332; 
160 66; 161 68; 162 251; 163 31; 164 2; 
165 1; 166 1; 167 1; 168 1; 169 1; 
170 1; 171 2; 172 44; 173 24; 174 8; 
175 693; 176 92; 177 6; 178 1; 179 1; 
180 1; 181 1; 182 1; 183 1; 184 1; 
185 1; 186 9; 187 3; 188 11; 189 2; 
190 1; 191 1; 192 1; 193 1; 194 1; 
195 1; 196 1; 197 1; 198 1; 199 1; 
200 7; 201 15; 202 5; 203 1; 204 1; 
205 1; 206 1; 207 3; 208 1; 209 1; 
210 1; 211 1; 212 1; 213 1; 214 3; 
215 17; 216 5; 217 1; 218 1; 219 1; 
220 1; 221 1; 222 1; 223 1; 224 1; 
225 1; 226 1; 227 1; 228 1; 229 1; 
230 1; 231 1; 233 1; 234 1; 236 1; 
237 1; 238 1; 239 1; 240 1; 241 1; 
242 1; 243 1; 244 61; 245 15; 246 2; 
247 1; 
