Name: N-Benzyl phenyl norfentanyl
InChIKey: TVPYSIMEYHFHLN-UHFFFAOYSA-N
Synon: Benzylbenzoyl fentanyl
Synon: Phenylbenzyl fentanyl
Synon: N-phenyl-N-[1-(phenylmethyl)-4-piperidinyl]-benzamide
Formula: C25H26N2O
MW: 370
ExactMass: 370.204514
CASNO: 95869866
ID: 4939
Comment: Provided by www.caymanchem.com/app/template/landing%2CForensic.vm / Item#24249 Batch#0522385
Num Peaks: 322
40 2; 41 12; 42 30; 43 4; 44 2; 
45 1; 46 1; 47 1; 48 1; 49 1; 
50 15; 51 60; 52 11; 53 7; 54 7; 
55 23; 56 17; 57 2; 58 1; 59 1; 
60 1; 61 1; 62 2; 63 13; 64 6; 
65 79; 66 4; 67 3; 68 6; 69 6; 
70 2; 71 1; 72 1; 73 3; 74 3; 
75 7; 76 17; 77 444; 78 43; 79 12; 
80 14; 81 5; 82 519; 83 32; 84 2; 
85 1; 86 1; 87 1; 88 1; 89 19; 
90 16; 91 999; 92 99; 93 15; 94 3; 
95 1; 96 40; 97 2; 98 1; 99 1; 
100 1; 101 1; 102 1; 103 7; 104 30; 
105 517; 106 55; 107 4; 108 1; 109 1; 
110 1; 111 1; 112 1; 113 1; 114 1; 
115 6; 116 2; 117 28; 118 69; 119 36; 
120 20; 121 1; 122 1; 123 1; 124 1; 
125 1; 126 1; 127 1; 128 1; 129 3; 
130 21; 131 13; 132 64; 133 11; 134 17; 
135 2; 136 1; 137 1; 138 1; 139 2; 
140 1; 141 1; 142 1; 143 3; 144 32; 
145 29; 146 189; 147 21; 148 3; 149 1; 
150 1; 151 2; 152 4; 153 2; 154 1; 
155 1; 156 1; 157 1; 158 46; 159 7; 
160 2; 161 1; 162 1; 163 1; 164 1; 
165 1; 166 2; 167 4; 168 2; 169 1; 
170 12; 171 10; 172 235; 173 214; 174 60; 
175 8; 176 1; 177 1; 178 1; 179 1; 
180 6; 181 6; 182 1; 183 1; 184 1; 
185 1; 186 1; 187 1; 188 1; 189 1; 
190 1; 191 1; 192 1; 193 1; 194 1; 
195 1; 196 1; 197 26; 198 31; 199 4; 
200 1; 201 1; 202 1; 203 1; 204 1; 
205 1; 206 1; 207 3; 208 3; 209 1; 
210 1; 211 1; 212 1; 213 1; 214 1; 
215 1; 216 1; 217 1; 218 1; 219 1; 
220 1; 221 2; 222 2; 223 1; 224 2; 
225 1; 226 1; 227 1; 228 1; 230 1; 
231 1; 232 1; 233 1; 234 1; 235 1; 
236 3; 237 4; 238 15; 239 4; 240 1; 
241 1; 242 1; 243 1; 244 1; 245 1; 
246 1; 247 1; 248 3; 249 29; 250 4; 
251 1; 252 1; 253 2; 254 1; 255 1; 
256 1; 257 1; 258 1; 259 1; 260 1; 
261 1; 262 1; 263 3; 264 1; 265 455; 
266 96; 267 9; 268 1; 269 1; 270 1; 
271 1; 272 1; 273 1; 274 1; 275 1; 
276 1; 277 1; 278 1; 279 4; 280 1; 
281 1; 282 1; 283 1; 284 1; 285 1; 
286 1; 287 1; 289 1; 290 1; 291 1; 
292 1; 293 1; 294 1; 295 1; 296 1; 
297 1; 298 1; 299 1; 301 1; 302 1; 
303 1; 305 1; 307 1; 309 1; 310 1; 
311 1; 312 1; 313 1; 314 1; 315 1; 
316 1; 317 1; 319 1; 321 1; 323 1; 
324 1; 325 1; 326 1; 327 1; 328 1; 
329 1; 330 1; 331 1; 332 1; 333 1; 
334 1; 335 1; 336 1; 337 1; 338 1; 
339 1; 340 1; 341 1; 342 1; 343 1; 
344 1; 345 1; 346 1; 347 1; 348 1; 
350 1; 351 1; 352 1; 353 1; 354 1; 
355 1; 356 1; 357 1; 358 1; 359 1; 
360 1; 361 1; 362 1; 363 1; 365 1; 
366 1; 367 1; 368 1; 369 1; 370 12; 
371 3; 372 1; 
