Name: Isopropyl U-47700
InChIKey: LGYQSYWASFBSHJ-TZHYSIJRSA-N
Synon: trans-3,4-Dichloro-N-2-(dimethylamino)cyclohexyl)-N-isopropylbenzamide
Formula: C18H26Cl2N2O
MW: 356
ExactMass: 356.14222
CASNO: 0
ID: 4940
Comment: Provided by www.caymanchem.com/app/template/landing%2CForensic.vm / Item#24263 Batch#0521835 / SWGDRUG Monograph available
Num Peaks: 322
40 4; 41 65; 42 100; 43 76; 44 43; 
45 16; 46 15; 47 1; 48 1; 49 1; 
50 3; 51 3; 52 2; 53 12; 54 14; 
55 27; 56 72; 57 11; 58 184; 59 7; 
60 1; 61 1; 62 1; 63 2; 64 1; 
65 4; 66 3; 67 15; 68 35; 69 17; 
70 110; 71 183; 72 36; 73 8; 74 21; 
75 37; 76 3; 77 10; 78 3; 79 48; 
80 10; 81 43; 82 74; 83 29; 84 999; 
85 99; 86 9; 87 3; 88 1; 89 1; 
90 1; 91 2; 92 1; 93 3; 94 17; 
95 9; 96 54; 97 57; 98 67; 99 8; 
100 2; 101 1; 102 1; 103 3; 104 1; 
105 1; 106 1; 107 1; 108 9; 109 67; 
110 83; 111 42; 112 100; 113 11; 114 3; 
115 2; 116 1; 117 1; 118 1; 119 1; 
120 1; 121 1; 122 8; 123 5; 124 330; 
125 309; 126 76; 127 13; 128 2; 129 1; 
130 1; 131 1; 132 1; 133 1; 134 1; 
135 1; 136 2; 137 4; 138 162; 139 33; 
140 12; 141 13; 142 2; 143 1; 144 2; 
145 178; 146 18; 147 115; 148 11; 149 20; 
150 2; 151 1; 152 3; 153 1; 154 1; 
155 1; 156 1; 157 1; 158 1; 159 3; 
160 1; 161 2; 162 1; 163 1; 164 1; 
165 1; 166 1; 167 4; 168 1; 169 13; 
170 2; 171 2; 172 3; 173 268; 174 25; 
175 172; 176 14; 177 28; 178 2; 179 1; 
180 1; 181 6; 182 1; 183 138; 184 18; 
185 1; 186 1; 187 1; 188 1; 189 1; 
190 2; 191 1; 192 2; 193 1; 194 1; 
195 1; 196 1; 197 1; 198 1; 199 1; 
200 2; 201 1; 202 1; 203 1; 204 1; 
205 1; 206 1; 207 2; 208 1; 209 1; 
210 1; 211 1; 212 1; 213 1; 214 2; 
215 1; 216 3; 217 1; 218 1; 219 1; 
220 1; 221 1; 222 1; 223 1; 224 1; 
225 1; 226 1; 227 1; 228 4; 229 1; 
230 7; 231 7; 232 3; 233 4; 234 2; 
235 1; 236 1; 237 1; 238 1; 239 1; 
240 2; 241 1; 242 4; 243 1; 244 9; 
245 2; 246 5; 247 1; 248 1; 249 1; 
250 1; 251 1; 252 1; 253 1; 254 1; 
255 1; 256 2; 257 1; 258 1; 259 1; 
260 1; 261 1; 262 1; 263 1; 264 1; 
265 1; 266 1; 267 2; 268 6; 269 4; 
270 7; 271 4; 272 4; 273 2; 274 1; 
275 1; 276 1; 277 1; 278 1; 279 1; 
280 1; 281 1; 282 1; 283 2; 284 6; 
285 3; 286 4; 287 1; 288 1; 289 1; 
290 1; 291 1; 292 1; 293 1; 294 1; 
295 1; 296 1; 297 1; 298 1; 299 1; 
300 1; 301 1; 302 1; 303 1; 304 1; 
305 1; 306 1; 307 1; 308 1; 309 1; 
310 1; 311 2; 312 10; 313 13; 314 8; 
315 8; 316 2; 317 1; 318 1; 319 1; 
320 1; 321 1; 322 1; 323 1; 324 1; 
325 1; 326 1; 327 1; 328 1; 329 1; 
330 1; 331 1; 332 1; 333 1; 334 1; 
335 1; 336 1; 337 1; 338 1; 339 1; 
340 1; 341 6; 342 1; 343 4; 344 1; 
345 1; 346 1; 347 1; 348 1; 349 1; 
350 1; 351 1; 352 1; 353 1; 354 1; 
355 19; 356 51; 357 22; 358 34; 359 9; 
360 6; 361 1; 
