Name: N-methyl Cyclopropyl norfentanyl
InChIKey: QCCRFOCZMVDDGA-UHFFFAOYSA-N
Synon: N-methyl Norcyclopropyl fentanyl
Synon: N-(1-methylpiperidin-4-yl)-N-phenylcyclopropanecarboxamide
Formula: C16H22N2O
MW: 258
ExactMass: 258.173214
CASNO: 0
ID: 4941
Comment: Provided by www.caymanchem.com/app/template/landing%2CForensic.vm / Item#24278 Batch0521836
Num Peaks: 218
40 19; 41 306; 42 264; 43 122; 44 131; 
45 5; 46 1; 47 1; 48 1; 49 1; 
50 8; 51 44; 52 10; 53 24; 54 24; 
55 158; 56 33; 57 39; 58 63; 59 4; 
60 1; 61 1; 62 2; 63 12; 64 15; 
65 27; 66 12; 67 17; 68 60; 69 310; 
70 441; 71 107; 72 9; 73 1; 74 2; 
75 4; 76 10; 77 202; 78 29; 79 15; 
80 16; 81 25; 82 314; 83 29; 84 10; 
85 2; 86 3; 87 1; 88 1; 89 7; 
90 9; 91 64; 92 18; 93 67; 94 70; 
95 25; 96 999; 97 689; 98 273; 99 20; 
100 1; 101 1; 102 2; 103 11; 104 50; 
105 14; 106 15; 107 2; 108 1; 109 3; 
110 6; 111 6; 112 2; 113 1; 114 1; 
115 10; 116 7; 117 40; 118 92; 119 52; 
120 41; 121 4; 122 2; 123 1; 124 4; 
125 2; 126 2; 127 1; 128 4; 129 2; 
130 42; 131 16; 132 78; 133 26; 134 8; 
135 3; 136 1; 137 2; 138 3; 139 7; 
140 1; 141 1; 142 2; 143 5; 144 23; 
145 11; 146 95; 147 17; 148 4; 149 1; 
150 1; 151 1; 152 1; 153 17; 154 3; 
155 1; 156 2; 157 3; 158 14; 159 9; 
160 6; 161 26; 162 22; 163 2; 164 1; 
165 1; 166 1; 167 10; 168 1; 169 1; 
170 2; 171 2; 172 86; 173 164; 174 26; 
175 3; 176 1; 177 1; 178 1; 179 1; 
180 1; 181 1; 182 1; 183 1; 184 1; 
185 1; 186 9; 187 12; 188 1; 189 737; 
190 109; 191 7; 192 1; 193 1; 194 1; 
195 1; 196 1; 197 1; 198 7; 199 8; 
200 6; 201 4; 202 2; 203 1; 204 1; 
205 1; 206 1; 207 1; 208 1; 209 1; 
210 1; 211 1; 212 1; 213 1; 214 3; 
215 3; 216 1; 217 2; 218 1; 220 1; 
221 1; 222 1; 223 1; 225 1; 226 1; 
227 1; 228 1; 229 5; 230 3; 231 1; 
232 1; 233 1; 234 1; 235 1; 236 1; 
237 1; 238 1; 239 1; 240 1; 241 1; 
242 1; 243 1; 244 1; 245 1; 247 1; 
249 1; 250 1; 251 1; 252 1; 253 1; 
254 1; 255 1; 256 1; 257 1; 258 89; 
259 19; 260 2; 261 1; 
