Name: Despropionyl ortho-Methylfentanyl
InChIKey: UQFMMFWGILFTGJ-UHFFFAOYSA-N
Synon: Despropionyl 2-Methylfentanyl
Synon: Despropionyl o-Methylfentanyl
Synon: N-(2-methylphenyl)-1-(2-phenylethyl)-4-piperidinamine
Formula: C20H26N2
MW: 294
ExactMass: 294.209599
CASNO: 28456180
ID: 4942
Comment: Provided by www.caymanchem.com/app/template/landing%2CForensic.vm / Item#24279 Batch#0521837 / SWGDRUG Monograph available
Num Peaks: 251
40 2; 41 30; 42 140; 43 14; 44 146; 
45 4; 46 1; 47 1; 48 1; 49 1; 
50 6; 51 19; 52 10; 53 11; 54 12; 
55 19; 56 22; 57 19; 58 3; 59 1; 
60 1; 61 1; 62 3; 63 15; 64 6; 
65 82; 66 8; 67 9; 68 21; 69 14; 
70 50; 71 4; 72 1; 73 1; 74 2; 
75 3; 76 5; 77 93; 78 35; 79 66; 
80 14; 81 4; 82 16; 83 3; 84 4; 
85 1; 86 1; 87 1; 88 1; 89 26; 
90 16; 91 300; 92 29; 93 5; 94 9; 
95 4; 96 183; 97 26; 98 4; 99 1; 
100 1; 102 51; 103 46; 104 35; 105 149; 
106 73; 107 32; 108 9; 109 1; 110 1; 
111 1; 112 1; 113 1; 114 1; 115 13; 
116 6; 117 59; 118 140; 119 17; 120 20; 
121 2; 122 1; 123 1; 124 1; 125 1; 
126 1; 127 2; 128 4; 129 4; 130 62; 
131 37; 132 75; 133 12; 134 16; 135 2; 
136 1; 137 1; 139 1; 140 1; 141 1; 
142 2; 143 8; 144 47; 145 50; 146 85; 
147 10; 148 2; 149 1; 150 1; 151 1; 
152 1; 153 1; 154 1; 155 1; 156 2; 
157 2; 158 12; 159 7; 160 999; 161 126; 
162 15; 163 1; 164 1; 165 1; 166 1; 
167 1; 168 1; 169 1; 170 1; 171 1; 
172 3; 173 4; 174 4; 175 1; 176 1; 
177 1; 178 1; 179 1; 180 1; 181 1; 
182 1; 183 1; 184 3; 185 3; 186 6; 
187 7; 188 6; 189 1; 190 1; 191 1; 
192 1; 193 1; 194 1; 195 1; 196 1; 
197 1; 198 1; 199 1; 200 1; 201 9; 
202 1; 203 749; 204 109; 205 8; 206 1; 
207 2; 208 1; 209 1; 210 1; 211 1; 
212 1; 213 1; 214 1; 215 1; 216 1; 
217 1; 218 1; 219 1; 220 1; 221 1; 
222 1; 223 1; 224 1; 225 1; 226 1; 
227 1; 229 1; 230 1; 231 1; 232 1; 
233 1; 234 1; 235 1; 236 1; 237 1; 
238 1; 239 1; 240 1; 241 1; 243 1; 
244 1; 245 1; 246 1; 247 1; 248 1; 
249 1; 250 1; 251 1; 252 1; 253 1; 
254 1; 255 1; 256 1; 257 1; 258 1; 
260 1; 262 1; 263 1; 264 1; 265 1; 
266 1; 267 1; 268 1; 269 1; 270 1; 
271 1; 273 1; 274 1; 275 1; 276 1; 
277 1; 278 1; 279 1; 280 1; 281 1; 
282 1; 283 1; 284 1; 285 1; 286 1; 
287 1; 288 1; 289 1; 290 1; 291 1; 
292 2; 293 1; 294 75; 295 17; 296 2; 
297 1; 
