Name: N-methyl U-47931E
InChIKey: XQCGUPNNNXRBDG-HUUCEWRRSA-N
Synon: trans-4-Bromo-N-[2-(dimethylamino)cyclohexyl]-N-methyl-benzamide
Formula: C16H23BrN2O
MW: 338
ExactMass: 338.099375
CASNO: 75570386
ID: 4943
Comment: Provided by www.caymanchem.com/app/template/landing%2CForensic.vm / Item#24286 Batch#0521838
Num Peaks: 300
40 1; 41 29; 42 135; 43 19; 44 48; 
45 9; 46 4; 47 1; 48 1; 49 1; 
50 28; 51 9; 52 3; 53 10; 54 10; 
55 29; 56 65; 57 15; 58 145; 59 6; 
60 1; 61 1; 62 1; 63 2; 64 1; 
65 4; 66 4; 67 14; 68 38; 69 14; 
70 78; 71 192; 72 17; 73 6; 74 18; 
75 68; 76 102; 77 29; 78 5; 79 32; 
80 12; 81 30; 82 67; 83 32; 84 999; 
85 69; 86 3; 87 1; 88 1; 89 2; 
90 2; 91 4; 92 1; 93 2; 94 17; 
95 12; 96 32; 97 48; 98 65; 99 16; 
100 2; 101 1; 102 1; 103 4; 104 30; 
105 17; 106 3; 107 2; 108 9; 109 8; 
110 131; 111 17; 112 46; 113 7; 114 1; 
115 1; 116 1; 117 3; 118 1; 119 1; 
120 1; 121 1; 122 5; 123 4; 124 155; 
125 821; 126 78; 127 4; 128 1; 129 3; 
130 1; 131 3; 132 1; 133 3; 134 1; 
135 1; 136 1; 137 1; 138 1; 139 5; 
140 1; 141 1; 142 1; 143 1; 144 1; 
145 1; 146 1; 147 1; 148 1; 149 1; 
150 1; 151 1; 152 1; 153 7; 154 1; 
155 157; 156 15; 157 135; 158 9; 159 1; 
160 1; 161 1; 162 1; 163 1; 164 1; 
165 1; 166 1; 167 1; 168 1; 169 6; 
170 1; 171 2; 172 1; 173 1; 174 1; 
175 1; 176 1; 177 1; 178 1; 179 1; 
180 1; 181 1; 182 1; 183 149; 184 14; 
185 144; 186 12; 187 1; 188 1; 189 1; 
190 1; 191 1; 192 1; 193 1; 194 1; 
195 1; 196 6; 197 1; 198 5; 199 1; 
200 1; 201 1; 202 1; 203 1; 204 1; 
205 1; 206 1; 207 4; 208 3; 209 1; 
210 1; 211 1; 212 2; 213 1; 214 4; 
215 1; 216 2; 217 1; 218 1; 219 1; 
220 1; 221 1; 222 1; 223 1; 224 1; 
225 1; 226 6; 227 1; 228 5; 229 1; 
230 1; 231 1; 233 1; 234 1; 235 1; 
236 1; 237 1; 238 1; 239 1; 240 2; 
241 1; 242 1; 243 1; 244 1; 245 1; 
246 1; 247 1; 248 1; 249 1; 250 1; 
251 1; 252 1; 253 2; 254 1; 255 1; 
256 1; 257 1; 258 1; 259 1; 260 1; 
261 1; 262 1; 263 1; 264 1; 265 1; 
266 4; 267 1; 268 3; 269 1; 270 1; 
271 1; 272 1; 273 1; 274 1; 275 1; 
276 1; 277 1; 278 1; 279 1; 280 1; 
281 3; 282 1; 283 1; 284 1; 285 1; 
286 1; 287 1; 289 1; 290 1; 291 1; 
292 1; 293 1; 294 7; 295 2; 296 5; 
297 1; 298 1; 299 1; 300 1; 301 1; 
302 1; 303 1; 304 1; 305 1; 306 1; 
307 1; 308 1; 309 1; 310 1; 311 1; 
312 1; 313 1; 314 1; 315 1; 316 1; 
317 1; 318 1; 319 1; 320 1; 321 1; 
322 1; 323 2; 324 1; 325 2; 326 1; 
327 1; 328 1; 329 1; 330 1; 331 1; 
332 1; 333 1; 334 1; 335 1; 336 1; 
337 9; 338 4; 339 8; 340 4; 341 1; 
