Name: Brivaracetam
InChIKey: MSYKRHVOOPPJKU-BDAKNGLRSA-N
Synon: .alpha.S-ethyl-2-oxo-4R-propyl-1-pyrrolidineacetamide
Formula: C11H20N2O2
MW: 212
ExactMass: 212.152478
CASNO: 357336200
ID: 4945
Comment: Provided by www.caymanchem.com/app/template/landing%2CForensic.vm / Item#23873 Batch#0519430
Num Peaks: 171
41 125; 42 44; 43 24; 44 77; 45 6; 
46 1; 47 1; 48 1; 49 1; 50 1; 
51 2; 52 2; 53 12; 54 16; 55 196; 
56 44; 57 7; 58 30; 59 2; 60 1; 
61 1; 62 1; 63 1; 64 1; 65 4; 
66 3; 67 17; 68 31; 69 48; 70 55; 
71 15; 72 26; 73 1; 74 1; 75 1; 
76 1; 77 3; 78 1; 79 5; 80 7; 
81 11; 82 13; 83 42; 84 22; 85 3; 
86 5; 87 9; 88 1; 89 1; 90 1; 
91 1; 92 1; 93 3; 94 5; 95 4; 
96 23; 97 7; 98 5; 99 1; 100 1; 
101 1; 102 1; 103 1; 104 1; 105 1; 
106 1; 107 1; 108 2; 109 2; 110 8; 
111 28; 112 7; 113 1; 114 1; 115 1; 
116 1; 117 1; 118 1; 119 1; 120 1; 
121 1; 122 1; 123 1; 124 22; 125 4; 
126 42; 127 4; 128 3; 129 1; 130 1; 
131 1; 132 1; 133 1; 134 1; 135 1; 
136 1; 137 1; 138 8; 139 5; 140 32; 
141 4; 142 1; 143 1; 144 1; 145 1; 
146 1; 147 1; 148 1; 149 1; 150 1; 
151 1; 152 5; 153 1; 154 16; 155 3; 
156 1; 157 1; 159 1; 160 1; 161 1; 
162 1; 163 1; 164 1; 165 7; 166 12; 
167 8; 168 999; 169 136; 170 10; 171 1; 
172 1; 174 1; 175 1; 176 1; 177 1; 
178 1; 179 1; 180 1; 181 1; 182 1; 
183 1; 184 1; 185 1; 186 1; 187 1; 
188 1; 189 1; 190 1; 191 1; 192 1; 
193 1; 194 1; 195 1; 196 1; 197 2; 
198 1; 200 1; 201 1; 202 1; 203 1; 
204 1; 205 1; 206 1; 207 1; 208 1; 
209 1; 210 1; 211 1; 212 12; 213 2; 
214 1; 
