Name: Ziprasidone
InChIKey: MVWVFYHBGMAFLY-UHFFFAOYSA-N
Synon: 5-[2-[4-(1,2-Benzisothiazol-3-yl)-1-piperazinyl]ethyl]-6-chloro-1,3-dihydro-2H-indol-2-one
Formula: C21H21ClN4OS
MW: 412
ExactMass: 412.11246
CASNO: 146939277
ID: 4946
Comment: Provided by www.caymanchem.com/app/template/landing%2CForensic.vm / Item#15031 Batch#0446332
Num Peaks: 375
40 1; 41 22; 42 103; 43 17; 44 27; 
45 28; 46 3; 47 4; 48 2; 49 6; 
50 23; 51 23; 52 14; 53 10; 54 29; 
55 18; 56 118; 57 29; 58 16; 59 7; 
60 3; 61 7; 62 13; 63 58; 64 29; 
65 22; 66 3; 67 9; 68 20; 69 91; 
70 83; 71 10; 72 3; 73 87; 74 23; 
75 58; 76 49; 77 76; 78 31; 79 4; 
80 23; 81 28; 82 168; 83 48; 84 23; 
85 7; 86 3; 87 7; 88 6; 89 65; 
90 61; 91 170; 92 10; 93 8; 94 12; 
95 11; 96 16; 97 65; 98 77; 99 42; 
100 6; 101 9; 102 22; 103 98; 104 30; 
105 14; 106 5; 107 16; 108 112; 109 49; 
110 9; 111 3; 112 2; 113 2; 114 2; 
115 18; 116 36; 117 102; 118 21; 119 8; 
120 5; 121 20; 122 8; 123 8; 124 3; 
125 47; 126 4; 127 12; 128 8; 129 6; 
130 56; 131 23; 132 6; 133 28; 134 147; 
135 579; 136 78; 137 21; 138 6; 139 5; 
140 4; 141 2; 142 5; 143 4; 144 13; 
145 6; 146 6; 147 30; 148 37; 149 34; 
150 21; 151 117; 152 191; 153 29; 154 52; 
155 8; 156 7; 157 8; 158 12; 159 26; 
160 18; 161 52; 162 59; 163 93; 164 33; 
165 21; 166 35; 167 7; 168 12; 169 4; 
170 2; 171 9; 172 7; 173 4; 174 10; 
175 63; 176 28; 177 390; 178 41; 179 17; 
180 226; 181 27; 182 49; 183 5; 184 2; 
185 8; 186 2; 187 13; 188 5; 189 71; 
190 6; 191 32; 192 6; 193 31; 194 36; 
195 25; 196 13; 197 9; 198 2; 199 4; 
200 6; 201 19; 202 17; 203 98; 204 16; 
205 5; 206 2; 207 115; 208 23; 209 24; 
210 7; 211 2; 212 2; 213 1; 214 2; 
215 11; 216 4; 217 44; 218 10; 219 5; 
220 2; 221 4; 222 2; 223 2; 224 1; 
225 3; 226 1; 227 3; 228 2; 229 1; 
230 34; 231 4; 232 999; 233 348; 234 70; 
235 7; 236 1; 237 2; 238 2; 239 1; 
240 2; 241 1; 242 1; 243 2; 244 1; 
245 1; 246 1; 247 1; 248 1; 249 13; 
250 3; 251 7; 252 2; 253 57; 254 10; 
255 7; 256 2; 257 1; 258 1; 259 1; 
260 1; 261 1; 262 1; 263 1; 264 1; 
265 3; 266 1; 267 4; 268 2; 269 7; 
270 2; 271 1; 272 1; 273 1; 274 1; 
275 1; 276 3; 277 1; 278 2; 279 1; 
280 1; 281 45; 282 9; 283 6; 284 1; 
285 1; 286 2; 287 1; 288 1; 289 1; 
290 1; 291 1; 292 1; 293 1; 294 1; 
295 2; 296 1; 297 1; 298 1; 299 1; 
300 1; 301 1; 303 1; 304 1; 305 1; 
306 1; 307 1; 308 1; 309 1; 310 1; 
311 2; 312 1; 313 3; 314 1; 315 3; 
316 1; 317 1; 318 1; 319 1; 320 1; 
321 1; 323 2; 324 1; 325 3; 326 2; 
327 10; 328 5; 329 4; 330 2; 331 5; 
332 2; 333 2; 334 1; 335 1; 336 2; 
337 1; 338 1; 339 1; 340 1; 341 12; 
342 5; 343 2; 344 1; 345 1; 346 3; 
347 2; 348 1; 349 1; 350 1; 351 1; 
352 1; 353 2; 354 1; 355 7; 356 1; 
357 2; 358 1; 359 1; 360 1; 361 1; 
362 1; 363 1; 364 1; 365 1; 366 1; 
367 1; 368 1; 369 1; 370 2; 371 1; 
372 1; 373 2; 374 1; 375 1; 376 1; 
377 1; 378 1; 379 1; 380 1; 381 1; 
382 1; 383 1; 384 1; 385 1; 386 1; 
387 2; 388 1; 389 1; 390 1; 391 1; 
392 1; 393 1; 394 1; 395 1; 396 1; 
397 1; 398 1; 399 1; 400 1; 401 2; 
402 1; 403 2; 404 1; 405 3; 406 1; 
407 1; 408 1; 409 1; 410 2; 411 2; 
412 2; 413 1; 414 1; 415 1; 416 1; 
