Name: N-methyl Norfentanyl
InChIKey: PCMUWYHREXSXFM-UHFFFAOYSA-N
Synon: N-(1-methyl-4-piperidinyl)-N-phenyl-propanamide
Formula: C15H22N2O
MW: 246
ExactMass: 246.173213
CASNO: 22261990
ID: 4947
Comment: Provided by www.caymanchem.com/app/template/landing%2CForensic.vm / Item#24446 Batch#0524407 / SWGDRUG Monograph available
Num Peaks: 206
40 2; 41 36; 42 267; 43 127; 44 139; 
45 6; 46 1; 47 1; 48 1; 49 1; 
50 11; 51 50; 52 13; 53 25; 54 27; 
55 158; 56 39; 57 225; 58 73; 59 4; 
60 1; 61 1; 62 3; 63 15; 64 16; 
65 35; 66 16; 67 17; 68 54; 69 28; 
70 419; 71 107; 72 10; 73 2; 74 6; 
75 4; 76 10; 77 222; 78 32; 79 18; 
80 18; 81 25; 82 362; 83 28; 84 9; 
85 3; 86 1; 87 1; 88 1; 89 6; 
90 9; 91 73; 92 22; 93 93; 94 82; 
95 25; 96 999; 97 765; 98 298; 99 22; 
100 1; 101 1; 102 2; 103 11; 104 57; 
105 18; 106 19; 107 3; 108 1; 109 1; 
110 1; 111 2; 112 2; 113 2; 114 1; 
115 6; 116 6; 117 41; 118 108; 119 57; 
120 46; 121 5; 122 1; 123 1; 124 1; 
125 1; 126 1; 127 1; 128 3; 129 2; 
130 39; 131 18; 132 74; 133 27; 134 8; 
135 1; 136 1; 137 1; 138 1; 139 10; 
140 2; 141 23; 142 8; 143 4; 144 15; 
145 7; 146 95; 147 16; 148 5; 149 17; 
150 18; 151 2; 152 1; 153 1; 154 1; 
155 10; 156 2; 157 1; 158 13; 159 6; 
160 7; 161 13; 162 2; 163 1; 164 1; 
165 1; 166 1; 167 1; 168 1; 169 1; 
170 2; 171 1; 172 19; 173 117; 174 25; 
175 4; 176 1; 177 1; 178 1; 179 1; 
180 1; 181 1; 182 1; 183 1; 184 1; 
185 1; 186 1; 187 4; 188 6; 189 536; 
190 81; 191 6; 192 1; 193 1; 194 1; 
195 1; 196 1; 197 1; 198 1; 199 1; 
200 1; 201 1; 202 2; 203 1; 204 1; 
205 1; 206 1; 207 1; 208 1; 209 1; 
210 1; 211 1; 213 1; 214 1; 215 1; 
216 1; 217 11; 218 3; 219 1; 220 1; 
221 1; 222 1; 223 1; 224 1; 225 1; 
226 1; 227 1; 228 1; 229 1; 230 1; 
231 1; 232 1; 233 1; 234 1; 235 1; 
236 1; 238 1; 239 1; 241 1; 242 1; 
243 1; 244 1; 245 1; 246 56; 247 10; 
248 1; 
