Name: 1-Benzyl-2-methylpiperazine
InChIKey: JGEODYUVEMNPPY-UHFFFAOYSA-N
Synon: 2-Methyl-1-(phenylmethyl)-piperazine
Formula: C12H18N2
MW: 190
ExactMass: 190.146998
CASNO: 29906545
ID: 4948
Comment: Provided by www.caymanchem.com/app/template/landing%2CForensic.vm / Item#23708 Batch#0523509
Num Peaks: 146
41 57; 42 85; 43 28; 44 26; 45 3; 
46 1; 47 1; 48 1; 49 1; 50 9; 
51 22; 52 8; 53 2; 54 24; 55 17; 
56 134; 57 32; 58 33; 59 1; 60 1; 
61 1; 62 6; 63 29; 64 9; 65 149; 
66 11; 67 4; 68 19; 69 16; 70 112; 
71 29; 72 13; 73 2; 74 4; 75 4; 
76 3; 77 21; 78 11; 79 6; 80 1; 
81 4; 82 13; 83 18; 84 21; 85 15; 
86 2; 87 1; 88 1; 89 44; 90 24; 
91 999; 92 115; 93 6; 94 3; 95 3; 
96 1; 97 9; 98 6; 99 120; 100 8; 
101 1; 102 1; 103 7; 104 40; 105 25; 
106 4; 107 1; 108 1; 109 1; 110 1; 
111 1; 112 1; 113 6; 114 1; 115 2; 
116 1; 117 17; 118 38; 119 28; 120 50; 
121 6; 122 1; 123 1; 125 1; 127 1; 
128 1; 129 1; 130 8; 131 36; 132 62; 
133 17; 134 117; 135 12; 136 1; 137 1; 
138 1; 139 1; 141 1; 142 1; 143 1; 
144 5; 145 12; 146 95; 147 72; 148 308; 
149 35; 150 1; 151 1; 152 1; 153 1; 
154 1; 155 1; 156 1; 157 1; 158 3; 
159 3; 160 54; 161 24; 162 3; 163 1; 
164 1; 165 1; 166 1; 167 1; 168 1; 
169 1; 170 1; 171 1; 172 1; 173 5; 
174 2; 175 110; 176 15; 177 1; 179 1; 
181 1; 183 1; 184 1; 185 1; 186 2; 
187 1; 188 2; 189 11; 190 81; 191 14; 
192 1; 
