Name: 3-Fluoro-.alpha.-Pyrrolidinopentiophenone
InChIKey: GPAALPLKXRJJDE-UHFFFAOYSA-N
Synon: 3-Fluoro-.alpha.-PVP
Synon: 3-Fluoro-.alpha.-Pyrovalerone
Synon: 3-Fluoro-.alpha.-Pyrrolidinovalerophenone
Synon: 3-Fluoro-2-(1-pyrrolidinyl)-Valerophenone
Synon: 1-(3-Fluorophenyl)-2-(1-pyrrolidinyl)-1-pentanone
Formula: C15H20FNO
MW: 249
ExactMass: 249.152892
CASNO: 0
ID: 4949
Comment: Provided by www.caymanchem.com/app/template/landing%2CForensic.vm / Item#24496 Batch#0524408
Num Peaks: 211
40 2; 41 45; 42 50; 43 13; 44 3; 
45 1; 46 1; 47 1; 48 1; 49 1; 
50 5; 51 5; 52 1; 53 8; 54 23; 
55 51; 56 18; 57 6; 58 1; 59 1; 
60 1; 61 1; 62 1; 63 2; 64 1; 
65 1; 66 1; 67 6; 68 22; 69 48; 
70 31; 71 3; 72 3; 73 1; 74 5; 
75 58; 76 6; 77 3; 78 1; 79 1; 
80 7; 81 4; 82 9; 83 6; 84 54; 
85 3; 86 1; 87 1; 88 1; 89 1; 
90 1; 91 1; 92 1; 93 3; 94 16; 
95 173; 96 75; 97 47; 98 19; 99 1; 
100 1; 101 2; 102 1; 103 1; 104 1; 
105 1; 106 1; 107 3; 108 3; 109 14; 
110 20; 111 2; 112 1; 113 1; 114 1; 
115 1; 116 1; 117 1; 118 1; 119 1; 
120 2; 121 2; 122 6; 123 73; 124 36; 
125 7; 126 999; 127 100; 128 4; 129 1; 
130 1; 131 1; 132 1; 133 5; 134 2; 
135 3; 136 1; 137 1; 138 5; 139 1; 
140 1; 141 1; 142 1; 143 1; 144 1; 
145 1; 146 2; 147 1; 148 1; 149 2; 
150 1; 151 2; 152 1; 153 1; 154 1; 
155 1; 156 1; 157 1; 158 1; 159 1; 
160 1; 161 1; 162 1; 163 1; 164 1; 
165 1; 166 1; 167 1; 168 1; 169 1; 
170 1; 171 1; 172 1; 173 1; 174 1; 
175 1; 176 1; 177 1; 178 2; 179 1; 
180 1; 181 1; 182 1; 183 1; 184 1; 
185 1; 186 1; 187 1; 188 1; 189 1; 
190 1; 191 1; 192 1; 193 1; 194 1; 
195 1; 196 1; 197 1; 198 1; 199 1; 
200 1; 201 1; 202 1; 203 1; 204 2; 
205 1; 206 9; 207 1; 208 1; 209 1; 
210 1; 211 1; 212 1; 213 1; 214 1; 
215 1; 216 1; 217 1; 218 2; 219 1; 
220 1; 221 1; 222 1; 223 1; 224 1; 
225 1; 226 1; 227 1; 228 1; 229 1; 
230 1; 231 1; 232 1; 233 1; 234 1; 
235 1; 236 1; 237 1; 238 1; 239 1; 
240 1; 241 1; 242 1; 243 1; 244 1; 
245 1; 246 1; 247 2; 248 2; 249 1; 
250 1; 
