Name: meta-Methyl Acetyl fentanyl
InChIKey: SZZZZTBKJBQTDR-UHFFFAOYSA-N
Synon: 3-Methyl Acetyl fentanyl
Synon: N-(3-methylphenyl)-N-[1-(2-phenylethyl)-4-piperidinyl]-acetamide
Formula: C22H28N2O
MW: 336
ExactMass: 336.220163
CASNO: 1640104
ID: 4950
Comment: Provided by www.caymanchem.com/app/template/landing%2CForensic.vm / Item#23997 Batch#0522955
Num Peaks: 297
40 1; 41 46; 42 190; 43 287; 44 83; 
45 3; 46 1; 47 1; 48 1; 49 1; 
50 11; 51 18; 52 12; 53 9; 54 15; 
55 25; 56 20; 57 15; 58 2; 59 1; 
60 1; 61 1; 62 3; 63 18; 64 7; 
65 100; 66 10; 67 19; 68 31; 69 31; 
70 48; 71 5; 72 1; 73 6; 74 3; 
75 4; 76 7; 77 106; 78 45; 79 86; 
80 22; 81 8; 82 28; 83 5; 84 8; 
85 1; 86 1; 87 1; 88 1; 89 26; 
90 18; 91 408; 92 42; 93 12; 94 26; 
95 23; 96 158; 97 13; 98 7; 99 1; 
100 1; 101 1; 102 10; 103 61; 104 53; 
105 206; 106 66; 107 77; 108 23; 109 1; 
110 1; 111 1; 112 1; 113 1; 114 1; 
115 10; 116 7; 117 38; 118 57; 119 21; 
120 27; 121 1; 122 1; 123 1; 124 1; 
125 1; 126 1; 127 1; 128 4; 129 5; 
130 60; 131 41; 132 119; 133 26; 134 17; 
135 2; 136 1; 137 1; 138 1; 139 3; 
140 1; 141 1; 142 2; 143 4; 144 62; 
145 51; 146 94; 147 13; 148 4; 149 19; 
150 4; 151 1; 152 1; 153 1; 154 1; 
155 1; 156 4; 157 4; 158 18; 159 11; 
160 625; 161 82; 162 8; 163 1; 164 1; 
165 1; 166 1; 167 1; 168 1; 169 1; 
170 3; 171 2; 172 113; 173 20; 174 7; 
175 1; 176 1; 177 1; 178 1; 179 1; 
180 1; 181 1; 182 3; 183 1; 184 14; 
185 9; 186 33; 187 9; 188 3; 189 2; 
190 1; 191 1; 192 1; 193 1; 194 1; 
195 1; 196 1; 197 1; 198 1; 199 1; 
200 1; 201 7; 202 341; 203 173; 204 22; 
205 1; 206 1; 207 8; 208 2; 209 3; 
210 1; 211 1; 212 1; 213 1; 214 1; 
215 1; 216 6; 217 1; 218 1; 219 1; 
220 1; 221 1; 222 1; 223 1; 224 1; 
225 1; 226 1; 227 1; 228 1; 229 1; 
230 1; 231 1; 232 1; 233 1; 234 1; 
235 1; 236 1; 237 1; 238 1; 239 1; 
240 1; 241 1; 242 1; 243 2; 244 1; 
245 999; 246 166; 247 16; 248 1; 249 1; 
250 1; 251 1; 252 1; 253 2; 254 1; 
255 1; 256 1; 257 1; 258 1; 259 1; 
260 1; 261 1; 262 1; 263 1; 264 1; 
265 1; 266 1; 267 1; 268 1; 269 1; 
270 1; 271 1; 272 1; 273 1; 274 1; 
275 1; 276 1; 277 1; 278 1; 279 1; 
280 1; 281 1; 282 3; 283 1; 284 1; 
285 1; 286 1; 287 1; 288 1; 289 1; 
290 1; 291 1; 292 1; 293 1; 294 1; 
295 1; 296 1; 297 1; 298 1; 299 1; 
300 1; 301 1; 302 1; 303 1; 304 1; 
305 1; 307 1; 308 1; 309 1; 310 1; 
311 1; 312 1; 313 1; 314 1; 315 1; 
316 1; 317 1; 318 1; 319 1; 320 1; 
321 1; 322 1; 323 1; 324 1; 325 1; 
326 1; 327 1; 328 1; 329 1; 330 1; 
331 1; 332 1; 333 1; 334 4; 335 1; 
336 1; 337 1; 
