Name: .alpha.-Humulene
InChIKey: FAMPSKZZVDUYOS-HRGUGZIWSA-N
Synon: .alpha.-Caryophyllene
Synon: 2,6,6,9-tetramethyl-1E,4E,8E-cycloundecatriene
Formula: C15H24
MW: 204
ExactMass: 204.1878
CASNO: 6753986
ID: 4951
Comment: Provided by www.caymanchem.com/app/template/landing%2CForensic.vm / Item#21574 Batch#0523472
Num Peaks: 163
40 15; 41 203; 42 22; 43 50; 44 2; 
45 1; 46 1; 47 1; 48 1; 49 1; 
50 7; 51 31; 52 17; 53 135; 54 17; 
55 97; 56 8; 57 4; 58 1; 59 1; 
60 1; 61 1; 62 2; 63 11; 64 4; 
65 71; 66 27; 67 241; 68 86; 69 41; 
70 4; 71 1; 72 1; 73 1; 74 1; 
75 2; 76 3; 77 201; 78 40; 79 231; 
80 344; 81 82; 82 59; 83 8; 84 1; 
85 1; 86 1; 87 1; 88 1; 89 4; 
90 2; 91 243; 92 182; 93 999; 94 132; 
95 69; 96 8; 97 2; 98 1; 99 1; 
100 1; 101 1; 102 3; 103 20; 104 7; 
105 129; 106 36; 107 157; 108 41; 109 91; 
110 10; 111 4; 112 1; 113 1; 114 1; 
115 17; 116 5; 117 15; 118 3; 119 77; 
120 18; 121 270; 122 75; 123 22; 124 2; 
125 1; 126 1; 127 2; 128 5; 129 6; 
130 2; 131 8; 132 2; 133 27; 134 22; 
135 20; 136 30; 137 2; 138 1; 139 1; 
140 1; 141 2; 142 1; 143 1; 144 1; 
145 4; 146 9; 147 161; 148 36; 149 6; 
150 1; 151 1; 152 1; 153 1; 154 1; 
155 1; 156 1; 157 1; 158 1; 159 1; 
160 1; 161 31; 162 9; 163 1; 164 1; 
165 1; 166 1; 167 1; 169 1; 170 1; 
171 1; 172 1; 173 1; 174 1; 175 5; 
176 1; 177 1; 180 1; 181 1; 182 1; 
183 1; 184 1; 185 1; 186 1; 187 1; 
188 1; 189 22; 190 4; 191 1; 192 1; 
193 1; 194 1; 195 1; 197 1; 198 1; 
199 1; 200 1; 201 1; 202 1; 203 1; 
204 53; 205 9; 206 1; 
