Name: .beta.-Caryophyllene
InChIKey: NPNUFJAVOOONJE-GFUGXAQUSA-N
Synon: NSC 11906
Synon: trans-Caryophyllene
Synon: (1R,4E,9S)-4,11,11-trimethyl-8-methylene-bicyclo[7.2.0]undec-4-ene
Formula: C15H24
MW: 204
ExactMass: 204.1878
CASNO: 87445
ID: 4952
Comment: Provided by www.caymanchem.com/app/template/landing%2CForensic.vm / Item#21572 Batch#0523467
Num Peaks: 164
40 86; 41 999; 42 67; 43 92; 44 3; 
46 1; 47 1; 48 1; 49 1; 50 23; 
51 90; 52 68; 53 328; 54 49; 55 327; 
56 171; 57 49; 58 5; 59 2; 60 1; 
61 1; 62 4; 63 34; 64 14; 65 247; 
66 84; 67 541; 68 146; 69 813; 70 50; 
71 28; 72 3; 73 1; 74 4; 75 6; 
76 8; 77 598; 78 160; 79 935; 80 213; 
81 387; 82 109; 83 32; 84 5; 85 1; 
86 1; 87 1; 88 1; 89 15; 90 6; 
91 992; 92 264; 93 973; 94 197; 95 196; 
96 28; 97 10; 98 1; 99 1; 100 1; 
101 1; 102 7; 103 62; 104 31; 105 607; 
106 301; 107 421; 108 105; 109 165; 110 25; 
111 28; 112 3; 113 1; 114 1; 115 63; 
116 24; 117 76; 118 21; 119 347; 120 380; 
121 249; 122 74; 123 49; 124 6; 125 1; 
126 1; 127 7; 128 20; 129 19; 130 6; 
131 44; 132 14; 133 825; 134 213; 135 119; 
136 56; 137 16; 138 1; 139 1; 140 1; 
141 4; 142 1; 143 2; 144 3; 145 16; 
146 12; 147 241; 148 218; 149 59; 150 8; 
151 1; 152 1; 153 1; 154 1; 155 1; 
156 1; 157 1; 158 1; 159 6; 160 10; 
161 282; 162 83; 163 24; 164 2; 165 1; 
166 1; 167 1; 168 1; 169 1; 170 1; 
171 1; 172 1; 173 1; 174 2; 175 85; 
176 59; 177 7; 178 1; 179 1; 180 1; 
181 1; 182 1; 184 1; 186 1; 187 1; 
188 1; 189 148; 190 24; 191 3; 192 1; 
193 1; 194 1; 195 1; 196 1; 197 1; 
198 1; 199 1; 200 1; 201 1; 202 1; 
203 1; 204 53; 205 9; 206 1; 
