Name: 4-Chloro-N,N-Dimethylcathinone
InChIKey: XMBDJBGDUKIOFM-UHFFFAOYSA-N
Synon: 4-Chloro-N,N-DMC
Synon: 1-(4-Chlorophenyl)-2-(dimethylamino)propan-1-one
Formula: C11H14ClNO
MW: 211
ExactMass: 211.076392
CASNO: 1157667292
ID: 4953
Comment: Provided by www.caymanchem.com/app/template/landing%2CForensic.vm / Item#24432 Batch#0523448
Num Peaks: 169
41 10; 42 84; 43 9; 44 43; 45 2; 
46 1; 47 1; 48 1; 49 1; 50 26; 
51 12; 52 2; 53 2; 54 7; 55 12; 
56 61; 57 22; 58 3; 59 1; 60 1; 
61 3; 62 2; 63 5; 64 1; 65 1; 
66 1; 67 1; 68 1; 69 1; 70 52; 
71 18; 72 999; 73 58; 74 29; 75 109; 
76 24; 77 14; 78 2; 79 1; 80 1; 
81 1; 82 1; 83 1; 84 3; 85 13; 
86 3; 87 5; 88 1; 89 4; 90 1; 
91 1; 92 1; 93 1; 94 1; 95 1; 
96 1; 97 1; 98 1; 99 1; 100 1; 
101 2; 102 3; 103 7; 104 2; 105 1; 
106 1; 107 1; 108 1; 109 1; 110 3; 
111 109; 112 11; 113 35; 114 3; 115 3; 
116 1; 117 1; 118 1; 119 1; 120 1; 
121 1; 122 1; 123 1; 124 1; 125 5; 
126 1; 127 2; 128 1; 129 1; 130 1; 
131 2; 132 1; 133 2; 134 1; 135 1; 
136 1; 137 1; 138 1; 139 38; 140 3; 
141 12; 142 1; 143 1; 144 1; 145 2; 
146 1; 147 1; 148 1; 149 1; 150 1; 
151 1; 152 1; 153 1; 154 1; 155 1; 
156 1; 157 1; 158 1; 159 1; 160 2; 
161 1; 162 1; 163 1; 164 1; 165 1; 
166 2; 167 1; 168 3; 169 1; 170 1; 
171 1; 172 1; 173 1; 174 1; 175 1; 
176 1; 177 1; 178 1; 179 1; 180 2; 
181 1; 182 1; 183 1; 184 1; 185 1; 
186 1; 187 1; 188 1; 189 1; 190 1; 
191 1; 192 1; 193 1; 194 2; 195 1; 
196 3; 197 1; 198 1; 199 1; 200 1; 
201 1; 202 1; 204 1; 205 1; 206 1; 
208 1; 209 1; 210 1; 211 1; 
