Name: U-48800
InChIKey: FKUWIGXXBMULOI-HOTGVXAUSA-N
Synon: trans-2-(2,4-Dichlorophenyl)-N-2-(dimethylamino)cyclohexyl)-N-methylacetamide
Formula: C17H24Cl2N2O
MW: 342
ExactMass: 342.126568
CASNO: 0
ID: 4954
Comment: Provided by www.caymanchem.com/app/template/landing%2CForensic.vm / Item#22278 Batch#0525563 / SWGDRUG Monograph available
Num Peaks: 266
41 28; 42 132; 43 18; 44 46; 45 8; 
46 5; 47 1; 48 1; 49 1; 50 3; 
51 4; 52 1; 53 10; 54 9; 55 28; 
56 56; 57 18; 58 137; 59 5; 60 1; 
61 2; 62 9; 63 21; 64 2; 65 3; 
66 3; 67 14; 68 38; 69 14; 70 77; 
71 208; 72 18; 73 11; 74 4; 75 4; 
76 1; 77 10; 78 3; 79 29; 80 9; 
81 32; 82 59; 83 33; 84 999; 85 77; 
86 8; 87 7; 88 3; 89 63; 90 6; 
91 1; 92 1; 93 2; 94 14; 95 10; 
96 20; 97 60; 98 56; 99 24; 100 5; 
101 4; 102 1; 106 1; 107 2; 108 9; 
109 9; 110 107; 111 21; 112 60; 113 6; 
114 2; 117 2; 118 1; 120 4; 121 1; 
122 1; 123 76; 124 135; 125 701; 126 80; 
127 8; 128 2; 129 1; 130 1; 131 2; 
134 1; 135 7; 136 1; 137 3; 138 4; 
139 6; 140 4; 141 1; 142 1; 143 1; 
144 1; 145 1; 146 2; 148 1; 150 1; 
151 1; 152 3; 153 8; 154 4; 155 8; 
156 8; 157 1; 158 4; 159 205; 160 22; 
161 125; 162 13; 163 21; 164 2; 165 1; 
166 2; 167 3; 168 1; 169 1; 170 1; 
171 1; 172 1; 173 1; 174 1; 175 1; 
178 1; 180 2; 181 6; 182 4; 183 5; 
184 2; 186 10; 187 1; 188 7; 194 2; 
196 4; 197 1; 198 2; 199 1; 200 2; 
201 1; 202 2; 204 1; 210 2; 211 3; 
212 1; 213 1; 214 1; 215 1; 216 1; 
217 1; 218 3; 219 1; 220 3; 221 1; 
222 1; 223 1; 224 1; 225 1; 226 1; 
227 1; 228 1; 229 1; 230 1; 231 1; 
232 1; 233 1; 234 1; 235 1; 236 1; 
237 1; 238 1; 239 1; 240 1; 241 1; 
242 1; 243 1; 244 1; 245 1; 246 1; 
247 1; 250 1; 251 1; 252 1; 253 3; 
254 1; 255 1; 256 1; 257 1; 258 1; 
259 1; 260 1; 261 1; 262 1; 263 1; 
264 2; 266 1; 268 1; 269 1; 270 1; 
271 1; 272 1; 273 1; 274 1; 275 1; 
276 1; 277 1; 278 1; 279 1; 280 1; 
283 1; 284 1; 285 1; 286 1; 287 1; 
288 1; 289 1; 290 1; 291 1; 292 1; 
293 1; 295 3; 296 1; 297 1; 298 2; 
299 2; 300 3; 301 1; 302 1; 303 1; 
304 1; 305 1; 306 1; 307 3; 308 1; 
309 2; 310 1; 311 1; 312 1; 313 1; 
315 1; 317 1; 318 1; 319 1; 320 1; 
322 1; 323 1; 324 1; 325 1; 326 1; 
327 4; 328 1; 329 2; 331 3; 333 1; 
334 1; 335 1; 336 1; 337 1; 338 1; 
340 1; 341 1; 342 9; 343 2; 344 4; 
345 1; 
