Name: 2'-Fluoro ortho-Fluorofentanyl
InChIKey: AUXYZYMWQUXVDV-UHFFFAOYSA-N
Synon: 2'-ortho-Difluorofentanyl
Synon: 2'-Fluoro ortho-FF
Synon: 2'-Fluoro 2-Fluorofentanyl
Synon: 2'-fFuoro o-Fluorofentanyl
Synon: ortho-Fluoro 2'-Fluorofentanyl
Synon: N-(1-(2-fluorophenethyl)piperidin-4-yl)-N-(2-fluorophenyl)propionamide
Formula: C22H26F2N2O
MW: 372
ExactMass: 372.20132
CASNO: 0
ID: 4955
Comment: Provided by www.caymanchem.com/app/template/landing%2CForensic.vm / Item#23400 Batch#0520613
Num Peaks: 328
40 1; 41 25; 42 116; 43 17; 44 69; 
45 2; 46 1; 47 1; 48 1; 49 1; 
50 3; 51 5; 52 2; 53 6; 54 9; 
55 26; 56 21; 57 169; 58 7; 59 2; 
60 1; 61 1; 62 2; 63 6; 64 2; 
65 4; 66 1; 67 17; 68 23; 69 25; 
70 41; 71 4; 72 1; 74 2; 75 20; 
76 4; 77 35; 78 4; 79 2; 80 7; 
81 6; 82 22; 83 38; 84 11; 85 1; 
86 1; 87 1; 88 1; 89 7; 90 5; 
91 4; 92 2; 93 2; 94 14; 95 56; 
96 97; 97 26; 98 6; 99 1; 100 1; 
101 14; 102 15; 103 87; 104 9; 105 1; 
106 1; 107 8; 108 7; 109 145; 110 22; 
111 22; 112 10; 113 1; 114 1; 115 3; 
116 2; 117 5; 118 5; 119 1; 120 2; 
121 13; 122 74; 123 110; 124 24; 125 2; 
126 1; 127 1; 128 2; 129 2; 130 14; 
131 3; 132 4; 133 3; 134 3; 135 21; 
136 57; 137 20; 138 8; 139 9; 140 1; 
141 1; 142 1; 143 2; 144 7; 145 1; 
146 2; 147 2; 148 44; 149 43; 150 81; 
151 12; 152 9; 153 1; 154 1; 155 1; 
156 1; 157 1; 158 1; 159 2; 160 1; 
161 1; 162 8; 163 8; 164 517; 165 57; 
166 9; 167 2; 168 3; 169 1; 170 1; 
171 2; 172 1; 173 1; 174 1; 175 1; 
176 23; 177 8; 178 23; 179 4; 180 1; 
181 1; 182 1; 183 1; 184 1; 185 2; 
186 2; 187 1; 188 1; 189 1; 190 1; 
191 3; 192 1; 193 1; 194 1; 195 1; 
196 1; 197 1; 198 1; 199 1; 200 1; 
201 1; 202 4; 203 4; 204 24; 205 16; 
207 367; 208 48; 209 3; 210 1; 211 1; 
212 1; 213 1; 214 1; 215 1; 216 1; 
217 1; 218 1; 220 64; 221 9; 222 1; 
223 1; 224 1; 225 1; 226 1; 227 1; 
228 1; 229 1; 230 1; 231 1; 232 1; 
233 1; 234 4; 235 1; 236 1; 237 1; 
238 1; 239 1; 240 1; 241 1; 242 1; 
243 1; 244 1; 245 1; 246 1; 247 2; 
248 1; 249 1; 250 1; 251 1; 253 7; 
254 2; 255 1; 256 1; 257 1; 258 1; 
259 1; 260 1; 261 2; 263 999; 264 171; 
265 15; 266 1; 267 1; 268 1; 269 1; 
270 1; 271 1; 272 1; 273 1; 274 1; 
275 1; 276 1; 277 1; 278 1; 279 1; 
281 6; 282 2; 283 1; 284 1; 285 1; 
286 1; 287 1; 288 1; 289 1; 290 1; 
291 1; 292 1; 293 1; 294 1; 295 1; 
296 1; 297 1; 298 1; 299 1; 300 1; 
301 1; 302 1; 303 1; 304 1; 305 1; 
306 1; 307 1; 308 1; 309 1; 310 1; 
311 1; 312 1; 313 1; 314 1; 315 3; 
316 1; 317 1; 318 1; 319 1; 320 1; 
321 1; 322 1; 323 1; 324 1; 325 1; 
326 1; 327 1; 328 1; 329 1; 330 1; 
331 2; 332 1; 333 1; 334 1; 335 1; 
336 1; 337 1; 338 1; 339 1; 340 1; 
341 1; 342 1; 343 1; 344 1; 345 1; 
346 1; 347 1; 348 1; 349 1; 350 1; 
351 1; 352 1; 353 1; 354 1; 355 1; 
356 1; 357 1; 358 1; 359 1; 360 1; 
361 1; 362 1; 363 1; 364 1; 365 1; 
366 1; 367 1; 368 1; 369 1; 370 1; 
371 1; 372 1; 373 1; 
