Name: MFUBINAC
InChIKey: UUCUVSWGJOQWCA-UHFFFAOYSA-N
Synon: 1-[(4-fluorophenyl)methyl]-1H-indazole-3-carboxylic acid, methyl ester
Synon: Methyl 1-(4-fluorobenzyl)-1H-indazole-3-carboxylate
Formula: C16H13FN2O2
MW: 284
ExactMass: 284.096106
CASNO: 1185287506
ID: 4956
Comment: Provided by www.caymanchem.com/app/template/landing%2CForensic.vm / Item#24855 Batch#0526254
Num Peaks: 241
41 1; 42 1; 43 1; 44 1; 45 1; 
46 1; 47 1; 48 1; 49 1; 50 13; 
51 18; 52 4; 53 1; 54 1; 55 1; 
56 1; 57 20; 58 1; 59 30; 60 1; 
61 4; 62 27; 63 29; 64 8; 65 5; 
66 1; 67 1; 68 2; 69 4; 70 5; 
71 1; 72 1; 73 1; 74 8; 75 42; 
76 43; 77 18; 78 3; 79 1; 80 1; 
81 10; 82 4; 83 166; 84 9; 85 3; 
86 6; 87 13; 88 78; 89 43; 90 12; 
91 5; 92 1; 93 1; 94 5; 95 21; 
96 14; 97 2; 98 1; 99 1; 100 1; 
101 2; 102 56; 103 20; 104 17; 105 6; 
106 1; 107 33; 108 12; 109 999; 110 94; 
111 4; 112 6; 114 1; 115 1; 116 3; 
117 4; 118 2; 119 7; 120 2; 121 4; 
122 8; 123 1; 124 1; 125 1; 126 16; 
127 1; 128 1; 129 30; 130 4; 131 7; 
132 1; 133 1; 134 1; 135 1; 136 1; 
137 1; 138 1; 139 5; 140 1; 141 1; 
142 1; 143 1; 144 6; 145 11; 146 2; 
147 3; 148 1; 149 1; 150 1; 151 2; 
152 1; 153 1; 154 1; 155 1; 156 1; 
157 1; 158 1; 159 1; 160 1; 161 1; 
162 1; 163 1; 164 1; 165 1; 166 1; 
167 1; 168 2; 169 5; 170 7; 171 2; 
172 1; 173 1; 174 1; 175 2; 176 4; 
177 5; 178 2; 179 1; 180 1; 181 1; 
182 1; 183 2; 184 1; 185 1; 186 1; 
187 1; 188 1; 189 17; 190 2; 191 1; 
192 1; 193 1; 194 3; 195 6; 196 13; 
197 10; 198 8; 199 1; 200 1; 201 1; 
202 1; 203 1; 204 1; 205 4; 206 1; 
208 1; 209 1; 210 2; 211 1; 212 1; 
213 1; 214 1; 215 1; 216 1; 217 1; 
218 1; 219 1; 220 1; 221 1; 222 1; 
223 82; 224 35; 225 271; 226 47; 227 4; 
228 1; 229 1; 230 1; 231 1; 232 1; 
233 1; 234 1; 235 1; 236 1; 237 1; 
238 1; 239 1; 240 1; 241 1; 242 1; 
243 1; 244 1; 245 1; 246 1; 248 1; 
249 1; 250 1; 251 29; 252 37; 253 72; 
254 12; 255 1; 256 1; 257 1; 258 1; 
260 1; 262 1; 263 1; 264 1; 265 1; 
266 1; 267 1; 268 1; 269 23; 270 4; 
271 1; 272 1; 273 1; 274 1; 275 1; 
276 1; 277 1; 278 1; 279 1; 280 1; 
281 1; 283 38; 284 593; 285 105; 286 11; 
287 1; 
