Name: Despropionyl 2'-fluoro ortho-Fluorofentanyl
InChIKey: UBBYFFKICFYDHU-UHFFFAOYSA-N
Synon: 2'-Fluoro ortho fluoro ANPP
Synon: Despropionyl 2'-fluoro 2-FF
Synon: Despropionyl 2'-fluoro o-FF
Synon: Despropionyl 2'-fluoro ortho-FF
Synon: Despropionyl 2'-fluoro 2-Fluorofentanyl
Synon: Despropionyl 2'-fluoro o-Fluorofentanyl
Synon: 1-(2-Fluorophenethyl)-N-(2-fluorophenyl)piperidin-4-amine
Formula: C19H22F2N2
MW: 316
ExactMass: 316.175106
CASNO: 0
ID: 4957
Comment: Provided by www.caymanchem.com/app/template/landing%2CForensic.vm / Item#24736 Batch#0524729
Num Peaks: 270
41 31; 42 168; 43 16; 44 215; 45 6; 
46 1; 47 1; 48 1; 49 1; 50 5; 
51 10; 52 5; 53 8; 54 14; 55 21; 
56 23; 57 33; 58 3; 59 4; 60 1; 
61 1; 62 4; 63 15; 64 8; 65 7; 
66 2; 67 9; 68 23; 69 16; 70 65; 
71 4; 72 2; 73 1; 74 4; 75 29; 
76 6; 77 60; 78 7; 79 3; 80 7; 
81 10; 82 19; 83 109; 84 21; 85 2; 
86 1; 87 1; 88 1; 89 17; 90 7; 
91 11; 92 3; 93 3; 94 13; 95 48; 
96 134; 97 32; 98 4; 99 1; 100 1; 
101 22; 102 18; 103 103; 105 2; 106 1; 
107 16; 108 10; 109 262; 110 45; 111 35; 
112 9; 113 1; 114 1; 115 4; 116 7; 
117 11; 118 15; 119 1; 120 3; 121 16; 
122 76; 123 98; 124 44; 125 3; 126 1; 
127 1; 128 3; 129 2; 130 18; 131 3; 
132 3; 133 6; 134 3; 135 32; 136 162; 
137 42; 138 10; 139 1; 140 1; 141 1; 
142 1; 143 3; 144 14; 145 2; 146 3; 
147 2; 148 36; 149 27; 150 118; 151 14; 
152 8; 153 1; 154 1; 155 1; 156 1; 
157 1; 158 1; 159 1; 160 1; 161 2; 
162 11; 163 9; 164 999; 165 116; 166 19; 
167 2; 168 1; 169 1; 170 1; 171 1; 
172 1; 173 1; 174 1; 175 1; 176 4; 
177 3; 178 37; 179 5; 180 1; 181 1; 
182 1; 183 1; 184 1; 185 1; 186 1; 
187 1; 188 1; 189 1; 190 1; 191 1; 
192 1; 193 1; 194 1; 195 1; 196 1; 
197 1; 198 1; 199 1; 200 1; 201 1; 
202 3; 203 3; 204 7; 205 11; 207 889; 
208 123; 209 7; 210 1; 211 1; 212 1; 
213 1; 214 1; 215 1; 216 1; 217 1; 
218 1; 219 1; 220 1; 221 1; 222 1; 
223 1; 224 1; 225 1; 226 1; 227 1; 
228 1; 229 1; 230 1; 231 1; 232 1; 
233 1; 234 1; 235 1; 236 1; 237 1; 
238 1; 239 1; 240 1; 241 1; 242 1; 
243 1; 244 1; 245 1; 246 1; 247 1; 
249 1; 250 1; 251 1; 252 1; 253 1; 
254 1; 255 1; 256 1; 257 1; 258 1; 
259 1; 260 1; 261 1; 262 1; 263 1; 
264 1; 265 1; 266 1; 267 1; 268 1; 
269 1; 270 1; 271 1; 272 1; 273 1; 
274 1; 275 1; 276 1; 278 1; 279 1; 
281 1; 282 1; 283 1; 284 1; 285 1; 
286 1; 287 1; 288 1; 289 1; 291 1; 
292 1; 293 1; 294 1; 295 1; 296 1; 
297 1; 298 1; 299 1; 301 1; 302 1; 
304 1; 305 1; 306 1; 307 1; 308 1; 
309 1; 310 1; 311 1; 312 1; 313 1; 
314 3; 315 1; 316 36; 317 9; 318 1; 
