Name: 4-Cyano CUMYL-BUT7AICA
InChIKey: DYPZVGXELGJCHD-UHFFFAOYSA-N
Synon: 1-(4-cyanobutyl)-N-(1-methyl-1-phenylethyl)-1H-pyrrolo[2,3-b]pyridine-3-carboxamide
Synon: 4CN-CUMYL-B7AICA
Synon: 4CN-CUMYL-BUT7AICA
Synon: CUMYL-4CN-B7AICA
Formula: C22H24N4O
MW: 360
ExactMass: 360.195011
CASNO: 2147483647
ID: 4959
Comment: Provided by www.caymanchem.com/app/template/landing%2CForensic.vm / Item#22818 Batch#0524035
Num Peaks: 320
41 66; 42 23; 43 7; 44 1; 45 1; 
46 1; 47 1; 48 1; 49 1; 50 19; 
51 57; 52 10; 53 13; 54 6; 55 23; 
56 3; 57 2; 58 10; 59 1; 60 1; 
61 4; 62 9; 63 43; 64 14; 65 30; 
66 7; 67 2; 68 1; 69 1; 70 1; 
71 1; 72 1; 73 11; 74 12; 75 23; 
76 41; 77 165; 78 110; 79 42; 80 3; 
81 2; 82 8; 83 1; 84 1; 85 1; 
86 3; 87 5; 88 9; 89 38; 90 55; 
91 199; 92 23; 93 1; 94 2; 95 8; 
96 4; 97 1; 98 1; 99 1; 100 1; 
101 5; 102 48; 103 213; 104 113; 105 75; 
106 6; 107 14; 108 1; 109 1; 110 1; 
111 1; 112 1; 113 1; 114 3; 115 81; 
116 46; 117 306; 118 255; 119 103; 120 43; 
121 6; 122 1; 123 1; 124 2; 125 1; 
126 1; 127 3; 128 2; 129 20; 130 64; 
131 51; 132 24; 133 7; 134 10; 135 5; 
136 1; 137 1; 138 1; 139 4; 140 1; 
141 2; 142 4; 143 78; 144 50; 145 497; 
146 45; 147 9; 148 1; 149 1; 150 1; 
151 1; 152 1; 153 3; 154 2; 155 5; 
156 105; 157 49; 158 10; 159 9; 160 3; 
161 39; 162 2; 163 1; 164 1; 165 2; 
166 1; 167 1; 168 2; 169 7; 170 7; 
171 15; 172 4; 173 3; 174 69; 175 126; 
176 13; 177 2; 178 1; 179 1; 180 2; 
181 2; 182 6; 183 2; 184 50; 185 16; 
186 3; 187 1; 188 7; 189 7; 190 1; 
191 9; 192 1; 193 4; 194 2; 195 4; 
196 2; 197 5; 198 6; 199 4; 200 7; 
201 3; 202 169; 203 14; 204 1; 205 1; 
206 1; 207 14; 208 10; 209 7; 210 1; 
211 1; 212 1; 213 1; 214 1; 215 2; 
216 1; 217 1; 218 1; 219 1; 220 1; 
221 1; 222 2; 223 2; 224 25; 225 1; 
226 999; 227 148; 228 13; 229 1; 230 1; 
231 1; 232 1; 233 1; 234 1; 235 2; 
236 1; 237 1; 238 1; 239 1; 240 3; 
241 3; 242 192; 243 32; 244 2; 245 1; 
246 1; 247 1; 248 1; 249 1; 250 1; 
251 1; 252 1; 253 10; 254 1; 255 20; 
256 3; 257 1; 258 1; 259 1; 260 1; 
261 1; 262 1; 263 1; 264 1; 265 1; 
266 1; 267 1; 268 1; 269 5; 270 1; 
271 1; 272 1; 273 1; 274 1; 275 1; 
276 1; 277 1; 278 1; 279 1; 280 1; 
281 6; 282 2; 283 2; 284 1; 285 1; 
287 1; 288 1; 289 1; 290 1; 291 1; 
292 6; 293 2; 294 1; 295 1; 296 1; 
297 1; 298 1; 299 1; 300 1; 301 1; 
302 1; 303 1; 304 1; 305 1; 306 1; 
307 1; 308 1; 309 1; 310 1; 311 1; 
312 1; 313 1; 314 1; 315 1; 316 1; 
317 1; 318 1; 319 1; 320 4; 321 1; 
322 1; 323 1; 324 1; 325 1; 326 1; 
327 2; 328 1; 329 1; 330 1; 331 2; 
332 1; 333 1; 334 1; 335 1; 336 1; 
337 1; 339 1; 340 1; 341 3; 342 1; 
343 6; 344 1; 345 29; 346 8; 347 2; 
348 1; 349 1; 350 1; 351 1; 353 1; 
354 1; 355 1; 356 1; 357 1; 358 1; 
359 1; 360 61; 361 12; 362 2; 363 1; 
