Name: 4-Chloro-.alpha.-Pyrrolidinohexanophenone
InChIKey: RRSPZEIKSCFOEE-UHFFFAOYSA-N
Synon: 1-(4-Chlorophenyl)-2-(pyrrolidin-1-yl)hexan-1-one
Synon: 4-Chloro-PHP
Synon: 4-Chloro-.alpha.-PHP
Synon: 4-Chloro-Pyrrolidinohexanophenone
Formula: C16H22ClNO
MW: 279
ExactMass: 279.138992
CASNO: 0
ID: 4960
Comment: Provided by www.caymanchem.com/app/template/landing%2CForensic.vm / Item#22490 Batch#0524957
Num Peaks: 235
41 45; 42 30; 43 12; 44 3; 45 1; 
46 1; 47 1; 48 1; 49 1; 50 9; 
51 5; 52 1; 53 6; 54 18; 55 27; 
56 17; 57 3; 58 1; 59 1; 60 1; 
61 1; 62 1; 63 1; 64 1; 65 1; 
66 1; 67 5; 68 16; 69 45; 70 20; 
71 2; 72 2; 73 1; 74 6; 75 49; 
76 13; 77 7; 78 1; 79 1; 80 5; 
81 4; 82 7; 83 3; 84 53; 85 7; 
86 1; 87 2; 88 1; 89 3; 90 1; 
91 1; 92 1; 93 1; 94 5; 95 2; 
96 51; 97 31; 98 19; 99 2; 100 1; 
101 1; 102 1; 103 2; 104 2; 105 1; 
106 1; 107 1; 108 3; 109 1; 110 25; 
111 104; 112 11; 113 32; 114 3; 115 3; 
116 1; 117 1; 118 1; 119 1; 120 1; 
121 1; 122 1; 123 1; 124 1; 125 7; 
126 1; 127 3; 128 1; 129 1; 130 1; 
131 1; 132 1; 133 1; 134 1; 135 1; 
136 4; 137 1; 138 19; 139 65; 140 999; 
141 123; 142 6; 143 1; 144 1; 145 1; 
146 1; 147 1; 148 1; 149 1; 150 1; 
151 1; 152 1; 153 1; 154 4; 155 1; 
156 1; 157 1; 158 1; 159 1; 160 1; 
161 1; 162 1; 163 1; 164 1; 165 1; 
166 1; 167 2; 168 1; 169 1; 170 1; 
171 1; 172 1; 173 1; 174 1; 175 1; 
176 1; 177 1; 178 1; 179 1; 180 1; 
181 1; 182 1; 183 1; 184 1; 185 1; 
186 1; 187 1; 188 1; 189 1; 190 1; 
191 1; 192 1; 193 1; 194 1; 195 1; 
196 1; 197 1; 198 1; 199 1; 200 1; 
201 1; 202 1; 203 1; 204 1; 205 1; 
206 1; 207 1; 208 1; 209 1; 210 1; 
211 1; 212 1; 213 1; 214 1; 215 1; 
216 1; 217 1; 218 1; 219 1; 220 2; 
221 1; 222 8; 223 1; 224 3; 225 1; 
226 1; 227 1; 228 1; 229 1; 230 1; 
231 1; 232 1; 234 1; 235 1; 236 1; 
237 1; 238 1; 239 1; 240 1; 241 1; 
242 1; 243 1; 244 1; 245 1; 246 1; 
247 1; 248 1; 249 1; 250 1; 251 1; 
252 1; 253 1; 254 1; 255 1; 256 1; 
257 1; 258 1; 259 1; 260 1; 261 1; 
262 1; 263 1; 264 1; 265 1; 266 1; 
268 1; 270 1; 272 1; 273 1; 274 1; 
275 1; 276 1; 277 1; 278 1; 279 1; 
