Name: 4'-Fluoro, para-fluoro-cis-3-methyl Fentanyl
InChIKey: YFIQNDQPFUSEGY-HTAPYJJXSA-N
Synon: cis-N-1-(4-fluorophenethyl)-3-methylpiperidin-4-yl)-N-(4-fluorophenyl)propionamide
Formula: C23H28F2N2O
MW: 386
ExactMass: 386.21697
CASNO: 0
ID: 4961
Comment: Provided by www.caymanchem.com/app/template/landing%2CForensic.vm / Item#24502 Batch#0522979
Num Peaks: 333
41 49; 42 123; 43 21; 44 82; 45 2; 
46 1; 47 1; 48 1; 49 1; 50 3; 
51 4; 52 2; 53 7; 54 7; 55 28; 
56 20; 57 218; 58 23; 59 3; 60 1; 
61 1; 62 2; 63 6; 64 2; 65 5; 
66 2; 67 15; 68 27; 69 31; 70 30; 
71 6; 72 1; 74 2; 75 23; 76 3; 
77 30; 78 4; 79 7; 80 6; 81 18; 
82 23; 83 47; 84 40; 85 3; 86 1; 
87 1; 88 1; 89 6; 90 2; 91 2; 
92 1; 93 3; 94 16; 95 84; 96 42; 
97 20; 98 7; 99 1; 100 1; 101 16; 
102 6; 103 96; 104 9; 105 1; 106 1; 
107 9; 108 14; 109 197; 110 110; 111 50; 
112 12; 113 1; 114 1; 115 2; 116 1; 
117 1; 118 1; 119 1; 120 3; 121 19; 
122 83; 123 137; 124 29; 125 2; 126 1; 
127 1; 128 1; 129 1; 130 7; 131 1; 
132 1; 133 4; 134 4; 135 29; 136 59; 
137 23; 138 9; 139 1; 140 1; 141 1; 
142 1; 143 1; 144 2; 145 1; 146 3; 
147 2; 148 50; 149 44; 150 110; 151 21; 
152 12; 153 7; 154 1; 155 1; 156 1; 
157 1; 158 1; 159 1; 160 1; 161 3; 
162 22; 163 20; 164 24; 165 4; 166 5; 
167 5; 168 3; 169 1; 170 1; 171 1; 
172 1; 173 1; 174 2; 175 2; 176 8; 
177 14; 178 398; 179 49; 180 6; 181 1; 
182 1; 183 1; 184 1; 185 1; 186 1; 
187 1; 188 2; 189 1; 190 45; 191 8; 
192 20; 193 2; 194 1; 195 1; 196 1; 
197 1; 198 1; 199 1; 200 1; 201 1; 
202 3; 203 1; 204 4; 205 3; 206 1; 
211 1; 212 1; 213 1; 214 1; 215 1; 
216 4; 217 3; 218 16; 219 14; 220 27; 
221 319; 222 47; 223 3; 224 1; 225 1; 
226 1; 227 1; 228 1; 229 1; 230 1; 
231 1; 232 1; 234 222; 235 34; 236 3; 
237 1; 238 1; 239 1; 240 1; 241 1; 
242 1; 243 1; 244 1; 245 1; 246 1; 
247 1; 248 3; 249 1; 250 1; 253 1; 
254 1; 255 1; 256 1; 257 1; 258 1; 
259 1; 260 1; 261 2; 262 1; 263 1; 
264 1; 265 1; 266 1; 267 1; 268 1; 
269 1; 270 1; 271 1; 272 1; 273 1; 
274 1; 275 3; 277 999; 278 177; 279 18; 
280 1; 281 1; 282 1; 283 1; 284 1; 
285 1; 286 1; 287 1; 288 1; 289 1; 
290 1; 291 1; 292 1; 293 1; 294 1; 
295 1; 296 1; 297 1; 298 1; 299 1; 
300 1; 301 1; 302 1; 303 1; 304 1; 
305 1; 307 1; 308 1; 309 1; 310 1; 
311 1; 312 1; 313 1; 314 1; 315 1; 
316 1; 317 1; 318 1; 319 1; 320 1; 
321 1; 322 1; 323 1; 324 1; 325 1; 
326 1; 327 1; 328 1; 329 3; 330 1; 
331 1; 332 1; 333 1; 334 1; 336 1; 
337 1; 338 1; 339 1; 340 1; 341 1; 
342 1; 343 1; 344 1; 345 1; 346 1; 
347 1; 348 1; 349 1; 350 1; 351 1; 
352 1; 353 1; 354 1; 355 1; 356 1; 
357 1; 358 1; 360 1; 361 1; 362 1; 
363 1; 364 1; 365 1; 366 1; 367 1; 
368 1; 369 1; 370 1; 371 1; 373 1; 
375 1; 376 1; 377 1; 378 1; 379 1; 
380 1; 381 1; 382 1; 383 1; 384 3; 
385 1; 386 1; 387 1; 
