Name: Flualprazolam
InChIKey: MPZVLJCMGPYWQQ-UHFFFAOYSA-N
Synon: 8-Chloro-6-(2-fluorophenyl)-1-methyl-4H-[1,2,4]triazolo[4,3-a][1,4]benzodiazepine
Formula: C17H12ClFN4
MW: 326
ExactMass: 326.073452
CASNO: 28910910
ID: 4962
Comment: Provided by www.caymanchem.com/app/template/landing%2CForensic.vm / Item#24481 Batch#0526790
Num Peaks: 292
41 24; 42 40; 43 2; 44 2; 45 3; 
46 4; 47 1; 48 1; 49 6; 50 35; 
51 36; 52 13; 53 10; 54 7; 55 2; 
56 3; 57 20; 58 1; 59 1; 60 2; 
61 11; 62 27; 63 39; 64 19; 65 7; 
66 11; 67 5; 68 10; 69 24; 70 14; 
71 2; 72 9; 73 33; 74 73; 75 260; 
76 51; 77 34; 78 9; 79 3; 80 3; 
81 25; 82 4; 83 23; 84 27; 85 30; 
86 21; 87 32; 88 38; 89 25; 90 6; 
91 6; 92 5; 93 12; 94 66; 95 140; 
96 25; 97 4; 98 58; 99 43; 100 85; 
101 69; 102 126; 103 21; 104 3; 105 8; 
106 7; 107 38; 108 17; 109 47; 110 56; 
111 99; 112 15; 113 29; 114 21; 115 45; 
116 18; 117 7; 118 10; 119 15; 120 26; 
121 86; 122 49; 123 26; 124 53; 125 16; 
126 26; 127 17; 128 5; 129 73; 130 18; 
131 12; 132 15; 133 15; 134 17; 135 18; 
136 85; 137 150; 138 57; 139 51; 140 22; 
141 14; 142 28; 143 5; 144 31; 145 17; 
146 9; 147 8; 148 7; 149 23; 150 29; 
151 23; 152 12; 153 5; 154 4; 155 12; 
156 13; 157 14; 158 9; 159 2; 160 3; 
161 10; 162 24; 163 65; 164 23; 165 24; 
166 7; 167 12; 168 38; 169 53; 170 40; 
171 8; 172 2; 173 2; 174 15; 175 33; 
176 51; 177 83; 178 17; 179 26; 180 14; 
181 59; 182 38; 183 18; 184 5; 185 3; 
186 2; 187 4; 188 7; 189 3; 190 15; 
191 6; 192 8; 193 15; 194 46; 195 106; 
196 48; 197 14; 198 4; 199 2; 200 8; 
201 30; 202 56; 203 36; 204 23; 205 17; 
206 12; 207 14; 208 21; 209 10; 210 8; 
211 6; 212 6; 213 4; 214 4; 215 3; 
216 7; 217 24; 218 5; 219 16; 220 26; 
221 118; 222 935; 223 269; 224 34; 225 3; 
226 1; 227 1; 228 2; 229 7; 230 20; 
231 23; 232 13; 233 8; 234 7; 235 5; 
236 13; 237 41; 238 33; 239 31; 240 14; 
241 10; 242 13; 243 6; 244 5; 245 5; 
246 2; 247 3; 248 4; 249 16; 250 27; 
251 9; 252 2; 253 5; 254 3; 255 3; 
256 106; 257 183; 258 86; 259 71; 260 21; 
261 14; 262 11; 263 66; 264 19; 265 9; 
266 12; 267 5; 268 4; 269 2; 270 3; 
271 19; 272 48; 273 16; 274 16; 275 3; 
276 1; 277 14; 278 7; 279 41; 280 9; 
281 15; 282 5; 283 12; 284 51; 285 13; 
286 21; 287 4; 288 1; 289 1; 290 1; 
291 71; 292 14; 293 1; 294 1; 295 5; 
296 1; 297 999; 298 251; 299 364; 300 85; 
301 9; 302 1; 303 1; 304 1; 305 1; 
306 6; 307 9; 308 5; 309 3; 310 1; 
311 5; 312 1; 313 2; 314 1; 315 1; 
316 1; 317 1; 318 1; 319 1; 320 1; 
321 1; 322 1; 323 1; 324 1; 325 3; 
326 454; 327 106; 328 151; 329 27; 330 3; 
331 2; 332 1; 
