Name: 6-Acetylmorphine-d6 (Not certified by NIST)
InChIKey: JJGYGPZNTOPXGV-WFGJKAKNSA-N
Synon: 6-AM-d6
Synon: 6-MAM-d6
Synon: 6-Monoacetylmorphine-d6
Synon: (5.alpha.,6.alpha.)-7,8-didehydro-4,5-epoxy-17-(methyl-d3)-morphinan-3,6-diol 6-(acetate-d3)
Synon: O6-Monoacetylmorphine-d6
Formula: C19H15D6NO4
MW: 333
ExactMass: 333.18472
CASNO: 152477902
ID: 4963
Comment: Note: Spectrum not certified by NIST / Provided by www.caymanchem.com/app/template/landing%2CForensic.vm / Item#15794 Batch#0521389
Num Peaks: 293
41 16; 42 16; 43 16; 44 47; 45 279; 
46 722; 47 103; 48 13; 49 1; 50 10; 
51 31; 52 14; 53 34; 54 10; 55 36; 
56 9; 57 6; 58 15; 59 13; 60 26; 
61 49; 62 83; 63 47; 64 30; 65 46; 
66 19; 67 16; 68 12; 69 13; 70 10; 
71 11; 72 9; 73 106; 74 20; 75 24; 
76 23; 77 95; 78 49; 79 33; 80 17; 
81 147; 82 39; 83 15; 84 29; 85 35; 
86 19; 87 14; 88 11; 89 43; 90 18; 
91 88; 92 35; 93 16; 94 13; 95 11; 
96 18; 97 140; 98 28; 99 34; 100 17; 
101 17; 102 38; 103 55; 104 49; 105 67; 
106 20; 107 15; 108 12; 109 14; 110 37; 
111 28; 112 32; 113 21; 114 19; 115 195; 
116 75; 117 46; 118 22; 119 13; 120 15; 
121 30; 122 11; 123 20; 124 9; 125 16; 
126 30; 127 128; 128 199; 129 67; 130 25; 
131 62; 132 31; 133 25; 134 28; 135 31; 
136 15; 137 56; 138 26; 139 67; 140 30; 
141 74; 142 34; 143 22; 144 40; 145 35; 
146 20; 147 74; 148 44; 149 239; 150 56; 
151 59; 152 162; 153 111; 154 47; 155 40; 
156 18; 157 31; 158 18; 159 19; 160 25; 
161 49; 162 32; 163 37; 164 34; 165 179; 
166 156; 167 96; 168 54; 169 47; 170 29; 
171 79; 172 52; 173 56; 174 122; 175 35; 
176 40; 177 34; 178 51; 179 80; 180 39; 
181 95; 182 57; 183 30; 184 46; 185 43; 
186 27; 187 29; 188 14; 189 19; 190 14; 
191 21; 192 16; 193 32; 194 24; 195 29; 
196 21; 197 91; 198 52; 199 47; 200 30; 
201 26; 202 17; 203 53; 204 19; 205 36; 
206 31; 207 33; 208 31; 209 63; 210 230; 
211 151; 212 48; 213 36; 214 28; 215 16; 
216 16; 217 88; 218 339; 219 89; 220 19; 
221 12; 222 9; 223 29; 224 37; 225 42; 
226 22; 227 69; 228 37; 229 57; 230 21; 
231 13; 232 8; 233 3; 234 4; 235 9; 
236 10; 237 19; 238 13; 239 11; 240 10; 
241 38; 242 33; 243 38; 244 13; 245 5; 
246 9; 247 2; 248 1; 249 1; 250 3; 
251 7; 252 12; 253 31; 254 15; 255 35; 
256 18; 257 14; 258 7; 259 9; 260 11; 
261 9; 262 2; 263 1; 264 1; 265 1; 
266 1; 267 4; 268 4; 269 200; 270 232; 
271 996; 272 272; 273 51; 274 12; 275 2; 
276 1; 277 1; 278 1; 279 1; 280 1; 
282 1; 283 1; 284 1; 285 4; 286 2; 
287 65; 288 61; 289 26; 290 6; 291 1; 
292 1; 293 1; 294 1; 295 1; 296 1; 
297 1; 298 1; 299 1; 300 1; 301 1; 
302 1; 303 1; 304 4; 305 6; 306 1; 
307 1; 311 1; 312 1; 313 1; 314 1; 
315 2; 316 4; 317 1; 318 3; 319 1; 
320 1; 321 1; 322 1; 323 1; 324 1; 
325 1; 326 1; 327 1; 328 1; 329 1; 
330 1; 331 7; 332 179; 333 999; 334 282; 
335 45; 336 6; 337 1; 
