Name: 5-Fluoro-ethylbenzyl-PICA
InChIKey: YLKKXELHYJFYLY-UHFFFAOYSA-N
Synon: 1-(5-fluoropentyl)-N-(1-phenylpropyl)-1H-indole-3-carboxamide
Formula: C23H27FN2O
MW: 366
ExactMass: 366.210741
CASNO: 0
ID: 4964
Comment: Provided by www.caymanchem.com/app/template/landing%2CForensic.vm / Item#24430 Batch#0523450
Num Peaks: 327
41 40; 42 3; 43 15; 44 1; 45 1; 
46 1; 47 9; 48 1; 49 1; 50 3; 
51 10; 52 3; 53 3; 54 1; 55 4; 
56 3; 57 1; 58 1; 59 4; 60 1; 
61 3; 62 3; 63 6; 64 1; 65 7; 
66 1; 67 3; 68 1; 69 11; 70 1; 
71 1; 72 1; 73 2; 74 3; 75 6; 
76 6; 77 47; 78 25; 79 14; 80 1; 
81 1; 82 1; 83 1; 84 1; 85 1; 
86 1; 87 3; 88 3; 89 26; 90 6; 
91 76; 92 7; 93 1; 94 1; 95 1; 
96 1; 97 1; 98 1; 99 1; 100 1; 
101 11; 102 26; 103 21; 104 81; 105 28; 
106 7; 107 4; 108 1; 109 1; 110 1; 
111 1; 112 1; 113 1; 114 10; 115 48; 
116 71; 117 34; 118 19; 119 8; 120 3; 
121 1; 122 1; 123 1; 124 1; 125 1; 
126 1; 127 2; 128 27; 129 41; 130 59; 
131 18; 132 18; 133 3; 134 24; 135 3; 
136 1; 137 1; 138 1; 139 1; 140 2; 
141 3; 142 7; 143 48; 144 200; 145 37; 
146 2; 147 1; 148 1; 149 1; 150 1; 
151 1; 152 1; 153 1; 154 5; 155 41; 
156 16; 157 12; 158 8; 159 1; 160 1; 
161 2; 162 1; 163 1; 164 1; 165 1; 
166 1; 167 2; 168 1; 169 4; 170 13; 
171 4; 172 1; 173 37; 174 12; 175 2; 
176 2; 177 1; 178 1; 179 1; 180 1; 
181 1; 182 2; 183 2; 184 7; 185 2; 
186 2; 187 1; 188 1; 189 1; 190 1; 
191 1; 192 1; 193 1; 194 1; 195 1; 
196 1; 197 1; 198 2; 199 1; 200 1; 
201 1; 202 1; 203 1; 204 9; 205 32; 
206 28; 207 7; 208 1; 209 1; 210 2; 
211 1; 212 15; 213 4; 214 2; 215 1; 
216 1; 217 1; 218 1; 219 1; 220 1; 
221 1; 222 1; 223 1; 224 1; 225 1; 
226 1; 227 1; 228 1; 229 1; 230 19; 
232 999; 233 160; 234 15; 235 1; 236 1; 
237 1; 238 1; 239 1; 240 1; 241 1; 
242 1; 243 1; 244 1; 245 1; 246 1; 
247 1; 248 143; 249 26; 250 3; 251 1; 
252 1; 253 2; 254 1; 255 1; 256 1; 
257 1; 258 1; 259 1; 260 1; 261 1; 
262 1; 263 1; 264 1; 265 1; 266 1; 
267 1; 268 1; 269 1; 270 1; 271 1; 
272 1; 273 1; 274 1; 275 1; 276 1; 
277 1; 278 1; 279 1; 281 2; 282 1; 
283 1; 284 1; 285 1; 286 1; 287 1; 
288 1; 289 1; 290 1; 291 7; 292 1; 
293 1; 294 1; 295 1; 296 1; 297 1; 
298 1; 299 1; 300 1; 301 1; 302 1; 
303 1; 304 1; 305 1; 306 1; 307 1; 
308 1; 309 1; 310 1; 311 1; 312 1; 
313 1; 314 1; 315 1; 316 1; 317 1; 
318 1; 319 1; 320 1; 321 1; 322 1; 
323 1; 324 1; 325 1; 326 1; 327 1; 
328 1; 329 1; 330 1; 331 1; 332 1; 
333 1; 334 1; 335 1; 336 1; 337 18; 
338 6; 339 1; 340 1; 341 1; 342 1; 
343 1; 344 1; 345 1; 346 1; 347 1; 
348 1; 349 1; 350 1; 351 1; 352 1; 
353 1; 354 1; 355 1; 356 1; 357 1; 
358 1; 359 1; 360 1; 361 1; 362 1; 
363 1; 364 1; 365 1; 366 90; 367 23; 
368 3; 369 1; 
