Name: para-Methyl Acrylfentanyl
InChIKey: PAGSZSGDIQRYHE-UHFFFAOYSA-N
Synon: N-(1-phenethylpiperidin-4-yl)-N-(p-tolyl)acrylamide
Synon: 4-Methyl Acrylfentanyl
Synon: p-Methyl Acrylfentanyl
Formula: C23H28N2O
MW: 348
ExactMass: 348.220163
CASNO: 0
ID: 4965
Comment: Provided by www.caymanchem.com/app/template/landing%2CForensic.vm / Item#23038 Batch#0512429
Num Peaks: 299
40 1; 41 30; 42 116; 43 15; 44 37; 
45 1; 46 1; 47 1; 48 1; 49 1; 
50 4; 51 13; 52 6; 53 10; 54 11; 
55 262; 56 24; 57 11; 58 2; 60 1; 
61 1; 62 2; 63 10; 64 4; 65 64; 
66 6; 67 19; 68 23; 69 25; 70 41; 
71 4; 72 1; 73 1; 74 1; 75 2; 
76 4; 77 64; 78 24; 79 56; 80 11; 
81 4; 82 19; 83 4; 84 6; 85 1; 
86 1; 87 1; 88 1; 89 18; 90 14; 
91 269; 92 25; 93 5; 94 12; 95 10; 
96 120; 97 14; 98 5; 99 1; 100 1; 
101 1; 102 5; 103 41; 104 29; 105 165; 
106 36; 107 35; 108 9; 109 1; 110 1; 
111 1; 112 1; 113 1; 114 1; 115 8; 
116 6; 117 28; 118 46; 119 16; 120 16; 
121 2; 122 1; 123 1; 124 1; 125 1; 
126 1; 127 1; 128 3; 129 5; 130 39; 
131 25; 132 61; 133 18; 134 13; 135 1; 
136 1; 137 1; 138 1; 139 5; 140 1; 
141 1; 142 3; 143 6; 144 70; 145 44; 
146 69; 147 10; 148 2; 149 1; 150 1; 
151 1; 152 1; 153 1; 154 1; 155 1; 
156 3; 157 4; 158 19; 159 11; 160 416; 
161 61; 162 10; 163 1; 164 1; 165 1; 
166 1; 167 1; 168 1; 169 1; 170 3; 
171 1; 172 128; 173 22; 174 6; 175 1; 
176 1; 177 1; 178 1; 179 1; 180 1; 
181 1; 182 1; 183 1; 184 8; 185 5; 
186 35; 187 8; 188 14; 189 2; 190 1; 
192 1; 193 1; 194 1; 195 1; 196 1; 
197 1; 198 1; 199 1; 200 1; 201 14; 
202 20; 203 93; 204 13; 205 1; 208 1; 
209 1; 210 1; 211 1; 212 1; 214 390; 
215 59; 216 6; 217 1; 218 1; 219 1; 
220 1; 221 1; 222 1; 223 1; 224 1; 
225 1; 226 1; 227 1; 228 4; 229 1; 
230 1; 231 1; 232 1; 234 1; 235 1; 
236 1; 237 1; 238 1; 239 1; 240 1; 
241 1; 242 1; 243 1; 244 1; 245 1; 
246 1; 247 1; 248 1; 249 1; 250 1; 
251 1; 252 1; 253 1; 254 1; 255 2; 
256 1; 257 999; 258 172; 259 19; 260 1; 
261 1; 262 1; 263 1; 264 1; 265 1; 
266 1; 267 1; 268 1; 269 1; 270 1; 
271 1; 272 1; 273 1; 274 1; 275 1; 
276 1; 277 1; 278 1; 279 1; 282 1; 
283 1; 284 1; 285 1; 286 1; 287 1; 
288 1; 289 1; 291 1; 292 1; 293 5; 
294 1; 295 1; 296 1; 297 1; 298 1; 
299 1; 300 1; 301 1; 303 1; 304 1; 
305 1; 306 1; 307 1; 308 1; 309 1; 
310 1; 311 1; 312 1; 313 1; 314 1; 
315 1; 316 1; 317 1; 318 1; 319 1; 
320 1; 321 1; 322 1; 323 1; 324 1; 
325 1; 326 1; 327 1; 328 1; 329 1; 
330 1; 331 1; 332 1; 333 1; 334 1; 
335 1; 336 1; 338 1; 339 1; 340 1; 
341 1; 342 1; 343 1; 344 1; 345 1; 
346 1; 347 1; 348 1; 349 1; 
