Name: para-Methyl Cyclopentyl fentanyl
InChIKey: YJYUFHRBRGOFJY-UHFFFAOYSA-N
Synon: N-(1-phenethylpiperidin-4-yl)-N-(p-tolyl)cyclopentanecarboxamide
Synon: 4-Methyl Cyclopentyl fentanyl
Synon: p-Methyl Cyclopentyl fentanyl
Formula: C26H34N2O
MW: 390
ExactMass: 390.267115
CASNO: 0
ID: 4966
Comment: Provided by www.caymanchem.com/app/template/landing%2CForensic.vm / Item#23041 Batch#0512438
Num Peaks: 348
40 5; 41 223; 42 125; 43 21; 44 40; 
45 1; 46 1; 47 1; 48 1; 49 1; 
50 7; 51 18; 52 9; 53 19; 54 13; 
55 49; 56 22; 57 15; 58 3; 59 1; 
60 1; 61 1; 62 4; 63 12; 64 5; 
65 73; 66 11; 67 71; 68 48; 69 781; 
70 120; 71 7; 72 1; 73 3; 74 3; 
75 3; 76 5; 77 79; 78 36; 79 75; 
80 18; 81 8; 82 29; 83 5; 84 15; 
85 2; 86 1; 87 1; 88 1; 89 17; 
90 15; 91 299; 92 32; 93 11; 94 25; 
95 24; 96 198; 97 94; 98 14; 99 1; 
100 1; 101 4; 102 7; 103 53; 104 50; 
105 283; 106 86; 107 193; 108 30; 109 1; 
110 1; 111 3; 112 1; 113 2; 114 1; 
115 11; 116 8; 117 34; 118 64; 119 25; 
120 20; 121 2; 122 1; 123 1; 124 1; 
125 1; 126 1; 127 2; 128 4; 129 7; 
130 54; 131 35; 132 84; 133 34; 134 21; 
135 3; 136 1; 137 1; 138 1; 139 13; 
140 2; 141 2; 142 4; 143 8; 144 68; 
145 64; 146 83; 147 15; 148 8; 149 1; 
150 1; 151 1; 152 1; 153 1; 154 2; 
155 1; 156 5; 157 5; 158 20; 159 16; 
160 573; 161 71; 162 14; 163 1; 164 1; 
165 1; 166 1; 167 2; 168 1; 169 1; 
170 3; 171 3; 172 19; 173 8; 174 5; 
175 2; 176 1; 177 1; 178 1; 179 1; 
180 1; 181 1; 182 3; 183 1; 184 19; 
185 17; 186 44; 187 16; 188 48; 189 8; 
190 1; 191 1; 192 1; 193 1; 194 1; 
195 1; 196 1; 197 1; 198 1; 199 1; 
200 1; 201 24; 202 26; 203 679; 204 104; 
205 8; 206 1; 207 7; 208 2; 209 3; 
210 1; 211 1; 212 1; 213 1; 214 1; 
215 1; 216 1; 217 1; 218 1; 219 1; 
220 1; 221 1; 222 1; 223 1; 224 1; 
225 1; 226 1; 227 1; 228 1; 229 1; 
230 1; 231 3; 232 1; 233 1; 234 1; 
235 1; 236 1; 237 1; 238 1; 239 1; 
240 1; 241 1; 242 1; 243 1; 244 1; 
245 1; 246 1; 247 1; 248 1; 249 1; 
250 1; 251 1; 252 1; 253 5; 254 1; 
255 1; 256 19; 257 5; 258 1; 259 1; 
260 1; 261 1; 262 1; 263 1; 264 1; 
265 1; 266 1; 267 1; 268 1; 269 1; 
270 3; 271 1; 272 1; 273 1; 274 1; 
275 1; 276 1; 277 1; 278 1; 279 1; 
280 1; 281 2; 282 1; 283 1; 284 1; 
285 1; 286 1; 287 1; 288 1; 289 1; 
290 1; 291 1; 292 1; 293 4; 294 2; 
295 1; 296 1; 297 4; 299 999; 300 213; 
301 23; 302 2; 303 1; 304 1; 305 1; 
306 1; 307 1; 308 1; 309 1; 310 1; 
311 1; 312 1; 313 1; 315 1; 316 1; 
317 1; 318 1; 319 1; 320 1; 321 1; 
322 1; 323 1; 324 1; 325 1; 326 1; 
327 1; 328 1; 329 1; 330 1; 331 1; 
332 1; 333 1; 334 1; 335 1; 336 1; 
337 1; 338 1; 339 1; 340 1; 341 1; 
342 1; 343 1; 344 1; 345 1; 346 1; 
347 1; 348 1; 349 1; 350 1; 351 1; 
352 1; 353 1; 354 1; 355 1; 356 1; 
357 1; 358 1; 359 1; 360 1; 361 1; 
362 1; 363 1; 364 1; 365 1; 366 1; 
367 1; 368 1; 369 1; 370 1; 371 1; 
372 1; 373 1; 374 1; 375 1; 376 1; 
377 1; 378 1; 379 1; 381 1; 382 1; 
383 1; 384 1; 385 1; 386 1; 387 1; 
388 4; 389 1; 390 1; 
