Name: para-Fluoro Cyclopentyl fentanyl
InChIKey: FHNWCPRXMDUFOQ-UHFFFAOYSA-N
Synon: N-(4-fluorophenyl)-N-(1-phenethylpiperidin-4-yl)cyclopentanecarboxamide
Synon: 4-Fluoro Cyclopentanoyl fentanyl
Synon: p-Fluoro Cyclopentanoyl fentanyl
Synon: para-Fluoro Cyclopentanoyl fentanyl
Synon: 4-Fluoro Cyclopentyl fentanyl
Synon: p-Fluoro Cyclopentyl fentanyl
Formula: C25H31FN2O
MW: 394
ExactMass: 394.242043
CASNO: 0
ID: 4967
Comment: Provided by www.caymanchem.com/app/template/landing%2CForensic.vm / Item#23114 Batch#0513020
Num Peaks: 355
40 9; 41 229; 42 106; 43 26; 44 56; 
45 1; 46 1; 47 1; 48 1; 49 1; 
50 8; 51 10; 52 6; 53 13; 54 13; 
55 48; 56 18; 57 17; 58 3; 59 1; 
60 1; 61 2; 62 3; 63 7; 64 4; 
65 47; 66 10; 67 63; 68 50; 69 934; 
70 115; 71 7; 72 1; 73 4; 74 2; 
75 19; 76 6; 77 32; 78 16; 79 59; 
80 7; 81 11; 82 24; 83 32; 84 25; 
85 2; 86 1; 87 1; 88 1; 89 8; 
90 3; 91 176; 92 20; 93 3; 94 15; 
95 90; 96 170; 97 130; 98 10; 99 1; 
100 1; 101 2; 102 6; 103 54; 104 39; 
105 225; 106 18; 107 4; 108 5; 109 21; 
110 25; 111 153; 112 16; 113 2; 114 1; 
115 5; 116 3; 117 10; 118 2; 119 2; 
120 2; 121 6; 122 44; 123 20; 124 14; 
125 1; 126 1; 127 1; 128 3; 129 2; 
130 19; 131 5; 132 11; 133 7; 134 7; 
135 28; 136 37; 137 29; 138 7; 139 12; 
140 1; 141 1; 142 1; 143 1; 144 3; 
145 1; 146 5; 147 2; 148 62; 149 60; 
150 65; 151 12; 152 3; 153 1; 154 1; 
155 1; 156 2; 157 1; 158 4; 159 1; 
160 19; 161 7; 162 10; 163 12; 164 317; 
165 37; 166 6; 167 2; 168 1; 169 1; 
170 1; 171 1; 172 1; 173 1; 174 2; 
175 2; 176 11; 177 11; 178 6; 179 1; 
180 1; 181 1; 182 1; 183 1; 184 9; 
185 10; 186 17; 187 4; 188 38; 189 8; 
190 4; 191 4; 192 2; 193 2; 194 1; 
195 1; 196 1; 197 1; 198 1; 199 1; 
200 1; 201 1; 202 1; 203 1; 204 1; 
205 21; 206 10; 207 479; 208 69; 209 5; 
210 1; 211 1; 212 1; 213 1; 214 1; 
215 1; 216 1; 217 1; 218 2; 219 1; 
220 1; 221 1; 222 1; 223 1; 224 1; 
225 1; 226 1; 227 1; 228 1; 229 1; 
230 1; 231 3; 232 1; 233 1; 234 1; 
235 1; 236 1; 237 1; 238 1; 239 1; 
240 1; 241 1; 242 1; 243 1; 244 1; 
245 1; 246 1; 247 1; 248 1; 249 1; 
250 1; 251 1; 252 1; 253 3; 254 2; 
255 1; 256 1; 257 1; 258 1; 259 1; 
260 10; 261 3; 262 1; 263 1; 264 1; 
265 1; 266 1; 267 1; 268 1; 269 2; 
270 1; 271 1; 272 1; 273 1; 274 2; 
275 1; 276 1; 277 1; 278 1; 279 1; 
281 3; 282 1; 283 1; 284 1; 285 1; 
286 1; 287 1; 288 1; 289 1; 290 1; 
291 1; 292 1; 293 1; 294 1; 295 1; 
296 1; 297 2; 298 1; 299 1; 300 1; 
301 2; 302 1; 303 999; 304 198; 305 21; 
306 1; 307 1; 308 1; 309 1; 310 1; 
311 1; 312 1; 313 1; 314 1; 315 1; 
316 1; 317 1; 318 1; 319 1; 320 1; 
321 1; 322 1; 323 1; 324 1; 325 1; 
326 1; 327 1; 328 1; 329 1; 330 1; 
331 1; 332 1; 333 1; 334 1; 335 1; 
336 1; 337 1; 338 1; 339 1; 340 1; 
341 1; 342 1; 343 1; 344 1; 345 1; 
346 1; 347 1; 348 1; 349 1; 350 1; 
351 1; 352 1; 353 1; 354 1; 355 1; 
356 1; 357 1; 358 1; 359 1; 360 1; 
361 1; 362 1; 363 1; 364 1; 365 1; 
366 1; 367 1; 368 1; 369 1; 370 1; 
371 1; 372 1; 373 1; 374 1; 375 1; 
376 1; 377 1; 378 1; 379 1; 380 1; 
381 1; 382 1; 383 1; 384 1; 385 1; 
386 1; 387 1; 388 1; 389 1; 390 1; 
391 1; 392 3; 393 1; 394 1; 395 1; 
