Name: AH 8532
InChIKey: JFSYYIJPVLTYHL-UHFFFAOYSA-N
Synon: 3-Chloro-N-[[1-(dimethylamino)cyclohexyl]methyl]-benzamide
Formula: C16H23ClN2O
MW: 294
ExactMass: 294.14989
CASNO: 786581553
ID: 4968
Comment: Provided by www.caymanchem.com/app/template/landing%2CForensic.vm / Item#19338 Batch#0485619
Num Peaks: 252
40 3; 41 30; 42 45; 43 9; 44 43; 
45 4; 46 15; 47 1; 48 1; 49 1; 
50 16; 51 11; 52 3; 53 15; 54 10; 
55 54; 56 30; 57 4; 58 73; 59 3; 
60 1; 61 2; 62 1; 63 2; 64 1; 
65 6; 66 4; 67 18; 68 41; 69 11; 
70 47; 71 12; 72 6; 73 2; 74 13; 
75 86; 76 32; 77 26; 78 4; 79 27; 
80 7; 81 47; 82 31; 83 13; 84 97; 
85 22; 86 3; 87 3; 88 1; 89 1; 
90 1; 91 5; 92 1; 93 5; 94 9; 
95 10; 96 47; 97 15; 98 5; 99 8; 
100 1; 101 1; 102 2; 103 1; 104 6; 
105 4; 106 1; 107 1; 108 6; 109 6; 
110 29; 111 224; 112 39; 113 72; 114 6; 
115 1; 116 1; 117 1; 118 1; 119 1; 
120 1; 121 1; 122 3; 123 2; 124 27; 
125 17; 126 999; 127 200; 128 8; 129 1; 
130 1; 131 1; 132 2; 133 1; 134 1; 
135 1; 136 1; 137 2; 138 5; 139 171; 
140 15; 141 55; 142 4; 143 1; 144 1; 
145 1; 146 1; 147 1; 148 1; 149 1; 
150 1; 151 2; 152 1; 153 13; 154 2; 
155 1; 156 5; 157 1; 158 2; 159 1; 
160 1; 161 1; 162 1; 163 1; 164 1; 
165 1; 166 1; 167 1; 168 3; 169 1; 
170 1; 171 1; 172 1; 173 1; 174 1; 
175 1; 176 1; 177 1; 178 1; 179 1; 
180 1; 181 1; 182 1; 183 1; 184 1; 
185 1; 186 1; 187 1; 188 1; 189 1; 
190 1; 191 1; 192 1; 193 1; 194 1; 
195 1; 196 1; 197 1; 198 1; 199 1; 
200 1; 201 1; 202 1; 203 1; 204 1; 
205 1; 206 1; 208 1; 209 1; 210 1; 
211 1; 212 1; 213 1; 214 1; 215 1; 
216 1; 217 1; 218 1; 219 1; 220 1; 
221 1; 222 1; 223 1; 224 1; 225 1; 
226 1; 227 1; 228 1; 229 1; 230 1; 
231 1; 232 1; 233 1; 234 1; 235 1; 
236 1; 237 1; 238 1; 239 1; 240 1; 
241 1; 242 1; 244 1; 245 1; 246 1; 
247 1; 248 1; 249 9; 250 3; 251 6; 
252 1; 253 1; 254 1; 255 1; 256 1; 
257 1; 258 1; 259 1; 260 1; 261 1; 
262 1; 263 1; 264 1; 265 1; 266 1; 
267 1; 268 1; 269 1; 271 1; 272 1; 
273 1; 274 1; 275 1; 276 1; 277 1; 
278 1; 279 1; 280 1; 281 1; 282 1; 
283 1; 284 1; 286 1; 287 1; 288 1; 
289 1; 290 1; 291 1; 292 7; 293 2; 
294 3; 295 1; 
