Name: ATHPINACA isomer 2
InChIKey: WFDRVDUEMGJILX-UHFFFAOYSA-N
Synon: Adamantyl-THPINACA
Synon: AD-THPINACA
Synon: N-(adamantan-2-yl)-1-((tetrahydro-2H-pyran-4-yl)methyl)-1H-indazole-3-carboxamide
Formula: C24H31N3O2
MW: 393
ExactMass: 393.241627
CASNO: 1400742484
ID: 4971
Comment: Provided by www.caymanchem.com/app/template/landing%2CForensic.vm / Item#19040 Batch#0491080
Num Peaks: 350
40 1; 41 77; 42 5; 43 22; 44 3; 
45 2; 46 1; 47 1; 48 1; 49 1; 
50 2; 51 4; 52 3; 53 16; 54 9; 
55 56; 56 18; 57 8; 58 1; 59 1; 
60 1; 61 1; 62 2; 63 1; 64 1; 
65 6; 66 6; 67 60; 68 10; 69 59; 
70 19; 71 2; 72 1; 73 3; 74 1; 
75 3; 76 7; 77 44; 78 13; 79 77; 
80 20; 81 52; 82 10; 83 8; 84 1; 
85 1; 86 1; 87 1; 88 11; 89 9; 
90 19; 91 67; 92 31; 93 45; 94 9; 
95 6; 96 4; 97 15; 98 2; 99 38; 
100 3; 101 1; 102 15; 103 49; 104 22; 
105 22; 106 13; 107 14; 108 7; 109 1; 
110 1; 111 1; 112 1; 113 1; 114 1; 
115 3; 116 3; 117 13; 118 7; 119 5; 
120 4; 121 2; 122 1; 123 1; 124 1; 
125 1; 126 1; 127 2; 128 5; 129 20; 
130 17; 131 119; 132 15; 133 14; 134 9; 
135 50; 136 10; 137 1; 138 1; 139 1; 
140 1; 141 1; 142 2; 143 2; 144 15; 
145 97; 146 8; 147 3; 148 3; 149 49; 
150 999; 151 121; 152 8; 153 1; 154 1; 
155 4; 156 5; 157 10; 158 8; 159 5; 
160 1; 161 12; 162 3; 163 1; 164 1; 
165 1; 166 1; 167 1; 168 1; 169 3; 
170 3; 171 8; 172 7; 173 3; 174 18; 
175 6; 176 1; 177 1; 178 1; 179 1; 
180 1; 181 1; 182 1; 183 2; 184 2; 
185 16; 186 4; 187 5; 188 2; 189 1; 
190 1; 191 1; 192 1; 193 1; 194 1; 
195 2; 196 1; 197 1; 198 1; 199 3; 
200 1; 201 1; 202 2; 203 1; 204 1; 
205 1; 206 1; 209 1; 210 1; 211 1; 
212 1; 213 2; 214 3; 215 24; 216 12; 
217 8; 218 1; 219 1; 220 1; 221 1; 
222 1; 223 1; 224 1; 225 1; 226 1; 
227 1; 228 1; 229 1; 230 3; 231 1; 
232 1; 233 1; 234 1; 235 1; 236 1; 
237 1; 238 1; 239 1; 240 1; 241 9; 
242 4; 243 48; 244 11; 245 2; 246 1; 
247 1; 248 1; 249 1; 250 3; 251 4; 
252 2; 253 3; 254 1; 255 1; 256 1; 
257 1; 258 3; 259 1; 260 1; 261 1; 
262 1; 263 6; 264 2; 265 6; 266 1; 
267 6; 268 2; 269 1; 270 1; 271 1; 
272 1; 273 1; 274 1; 275 1; 276 1; 
277 1; 278 1; 279 1; 280 10; 281 10; 
282 2; 283 1; 284 1; 285 1; 286 1; 
287 1; 288 1; 289 1; 290 1; 291 1; 
292 1; 293 1; 294 19; 295 9; 296 1; 
297 1; 298 1; 299 1; 300 1; 301 1; 
302 1; 303 1; 304 1; 305 1; 306 2; 
307 1; 308 14; 309 10; 310 2; 311 1; 
312 1; 313 1; 314 1; 315 1; 316 1; 
317 1; 318 1; 319 1; 320 1; 321 1; 
322 1; 323 1; 324 1; 325 1; 326 1; 
327 1; 328 1; 329 1; 330 1; 331 1; 
332 1; 333 1; 334 1; 335 1; 336 2; 
337 1; 338 1; 339 1; 340 1; 341 1; 
342 1; 343 1; 344 1; 345 1; 346 1; 
347 1; 348 3; 349 2; 350 3; 351 1; 
352 1; 353 1; 354 1; 355 1; 356 1; 
357 1; 358 1; 359 1; 360 1; 361 1; 
362 1; 363 1; 364 2; 365 2; 366 1; 
367 1; 368 1; 369 1; 370 1; 371 1; 
373 1; 374 1; 375 1; 376 3; 377 2; 
378 1; 379 1; 383 1; 384 1; 385 1; 
386 1; 387 1; 388 1; 389 1; 390 1; 
391 1; 392 1; 393 35; 394 9; 395 1; 
