Name: 5-Fluoro ADB metabolite 2
InChIKey: NSZKXPRDEZMVDK-KRWDZBQOSA-N
Synon: Methyl (S)-2-(1-(5-hydroxypentyl)-1H-indazole-3-carboxamido)-3,3-dimethylbutanoate
Synon: 5-Fluoro MDMB-PINACA metabolite 2
Formula: C20H29N3O4
MW: 375
ExactMass: 375.215807
CASNO: 0
ID: 4972
Comment: Provided by www.caymanchem.com/app/template/landing%2CForensic.vm / Item#20173 Batch#0526848
Num Peaks: 336
40 2; 41 347; 42 34; 43 50; 44 22; 
45 16; 46 2; 47 1; 48 1; 49 1; 
50 6; 51 12; 52 5; 53 11; 54 8; 
55 74; 56 26; 57 343; 58 17; 59 81; 
60 5; 61 2; 62 6; 63 16; 64 4; 
65 7; 66 2; 67 33; 68 9; 69 198; 
70 43; 71 11; 72 1; 73 51; 74 21; 
75 23; 76 36; 77 62; 78 12; 79 4; 
80 2; 81 2; 82 8; 83 17; 84 21; 
85 23; 86 25; 87 8; 88 118; 89 49; 
90 160; 91 27; 92 7; 93 1; 94 1; 
95 5; 96 3; 97 4; 98 4; 99 3; 
100 2; 101 7; 102 79; 103 234; 104 94; 
105 8; 106 3; 107 2; 108 1; 109 1; 
110 1; 111 1; 112 12; 113 3; 114 6; 
115 10; 116 29; 117 103; 118 64; 119 31; 
120 4; 121 2; 122 1; 123 1; 124 1; 
125 2; 126 1; 127 3; 128 13; 129 88; 
130 54; 131 615; 132 130; 133 20; 134 2; 
135 6; 136 1; 137 2; 138 1; 139 1; 
140 1; 141 2; 142 6; 143 32; 144 120; 
145 999; 146 88; 147 13; 148 2; 149 2; 
150 1; 151 1; 152 1; 153 1; 154 8; 
155 5; 156 18; 157 41; 158 23; 159 24; 
160 3; 161 4; 162 2; 163 1; 164 1; 
165 3; 166 1; 167 2; 168 2; 169 10; 
170 9; 171 89; 172 40; 173 14; 174 22; 
175 164; 176 18; 177 3; 178 1; 179 1; 
180 1; 181 2; 182 2; 183 4; 184 4; 
185 81; 186 37; 187 8; 188 3; 189 3; 
190 2; 191 12; 192 2; 193 3; 194 1; 
195 3; 196 1; 197 3; 198 6; 199 54; 
200 19; 201 249; 202 20; 203 11; 204 30; 
205 8; 206 1; 207 6; 208 21; 209 7; 
210 4; 211 4; 212 4; 213 973; 214 171; 
215 40; 216 11; 217 3; 218 1; 219 2; 
220 1; 221 2; 222 2; 223 5; 224 2; 
225 1; 226 12; 227 6; 228 11; 229 91; 
230 9; 231 903; 232 185; 233 30; 234 3; 
235 2; 236 1; 237 2; 238 1; 239 1; 
240 3; 241 3; 242 7; 243 4; 244 187; 
245 34; 246 38; 247 14; 248 5; 249 3; 
250 1; 251 2; 252 2; 253 3; 254 3; 
255 4; 256 3; 257 31; 258 12; 259 2; 
260 3; 261 2; 262 1; 263 2; 264 1; 
265 1; 266 1; 267 4; 268 4; 269 4; 
270 9; 271 4; 272 2; 273 2; 274 2; 
275 1; 276 33; 277 2; 278 1; 279 1; 
280 1; 281 1; 282 4; 283 2; 284 5; 
285 18; 286 3; 287 548; 288 100; 289 28; 
290 4; 291 1; 292 1; 293 1; 294 1; 
295 1; 296 1; 297 1; 298 2; 299 1; 
300 5; 301 6; 302 25; 303 8; 304 1; 
305 1; 306 1; 307 1; 308 1; 309 1; 
310 1; 311 1; 312 1; 313 2; 314 13; 
315 1; 316 329; 317 89; 318 3; 319 489; 
320 84; 321 14; 322 1; 323 1; 324 1; 
325 1; 326 1; 327 3; 328 9; 329 4; 
330 2; 331 1; 332 1; 333 1; 334 1; 
336 1; 337 1; 339 1; 340 1; 341 2; 
342 1; 343 4; 344 5; 345 21; 346 5; 
347 2; 348 1; 349 1; 350 1; 351 1; 
352 1; 353 1; 354 1; 355 2; 356 2; 
357 27; 358 6; 359 1; 360 8; 361 2; 
362 1; 363 1; 364 1; 365 1; 366 1; 
367 1; 368 1; 369 1; 370 1; 371 1; 
372 1; 373 1; 374 1; 375 22; 376 4; 
377 1; 
