Name: 5-Fluoro-7-APAICA
InChIKey: JYMCNFJJLBFSGH-UHFFFAOYSA-N
Synon: 5-Fluoro AKB48-7N
Synon: N-((3s,5s,7s)-adamantan-1-yl)-1-(5-fluoropentyl)-1H-pyrrolo[2,3-b]pyridine-3-carboxamide
Formula: C23H30FN3O
MW: 383
ExactMass: 383.237291
CASNO: 0
ID: 4974
Comment: Provided by www.caymanchem.com/app/template/landing%2CForensic.vm / Item#23021 Batch#0527042
Num Peaks: 345
40 1; 41 91; 42 15; 43 16; 44 3; 
45 1; 46 1; 47 9; 48 1; 49 1; 
50 1; 51 6; 52 3; 53 19; 54 6; 
55 40; 56 5; 57 5; 58 8; 59 8; 
60 1; 61 1; 62 3; 63 10; 64 2; 
65 12; 66 16; 67 51; 68 5; 69 16; 
70 2; 71 1; 72 1; 73 2; 74 1; 
75 2; 76 10; 77 66; 78 28; 79 80; 
80 21; 81 22; 82 5; 83 1; 84 1; 
85 1; 86 1; 87 1; 88 2; 89 8; 
90 39; 91 94; 92 83; 93 90; 94 54; 
95 11; 96 3; 97 1; 98 1; 99 1; 
100 1; 101 1; 102 14; 103 50; 104 17; 
105 14; 106 12; 107 17; 108 25; 109 3; 
110 1; 111 1; 112 1; 113 1; 114 1; 
115 3; 116 20; 117 135; 118 22; 119 40; 
120 15; 121 2; 122 1; 123 1; 124 1; 
125 1; 126 2; 127 1; 128 2; 129 10; 
130 61; 131 69; 132 22; 133 12; 134 8; 
135 56; 136 15; 137 1; 138 1; 139 1; 
140 1; 141 1; 142 2; 143 29; 144 43; 
145 834; 146 83; 147 7; 148 1; 149 3; 
150 8; 151 5; 152 2; 153 1; 154 2; 
155 3; 156 28; 157 23; 158 25; 159 21; 
160 2; 161 12; 162 3; 163 1; 164 1; 
165 1; 166 1; 167 1; 168 2; 169 5; 
170 2; 171 9; 172 2; 173 4; 174 94; 
175 34; 176 4; 177 4; 178 1; 179 1; 
180 1; 181 3; 182 3; 183 4; 184 2; 
185 11; 186 2; 187 1; 188 6; 189 1; 
190 1; 191 1; 192 1; 193 3; 194 1; 
195 1; 196 2; 197 1; 198 3; 199 2; 
200 1; 201 1; 202 6; 203 1; 204 4; 
205 22; 206 3; 207 15; 208 2; 209 1; 
210 1; 211 3; 212 2; 213 9; 214 3; 
215 2; 216 4; 217 1; 218 1; 219 4; 
220 7; 221 2; 222 1; 223 1; 224 1; 
225 1; 226 1; 227 1; 228 1; 229 1; 
230 3; 231 10; 233 999; 234 145; 235 13; 
236 1; 237 1; 238 6; 239 2; 240 1; 
241 1; 242 1; 243 1; 244 1; 245 1; 
246 1; 247 1; 248 25; 249 9; 250 8; 
251 4; 252 7; 253 2; 254 1; 255 1; 
256 1; 257 1; 258 1; 259 1; 260 1; 
261 2; 262 1; 263 1; 264 1; 265 12; 
266 8; 267 6; 268 1; 269 1; 270 1; 
271 1; 272 1; 273 1; 274 1; 275 1; 
276 1; 277 1; 278 1; 279 2; 280 10; 
281 19; 282 3; 283 1; 284 1; 285 1; 
286 1; 287 1; 288 1; 289 1; 290 1; 
291 1; 292 1; 293 1; 294 42; 295 46; 
296 8; 297 1; 298 1; 299 1; 300 1; 
301 1; 302 1; 303 1; 304 1; 305 1; 
306 2; 307 1; 308 290; 309 126; 310 21; 
311 1; 312 1; 313 1; 314 1; 315 1; 
316 1; 317 1; 318 1; 319 1; 320 2; 
321 1; 322 73; 323 18; 324 3; 326 60; 
327 14; 328 1; 329 1; 330 1; 331 1; 
332 1; 333 1; 334 1; 335 1; 336 13; 
337 2; 338 1; 339 3; 340 4; 341 1; 
342 1; 343 1; 344 1; 345 1; 346 1; 
347 1; 348 1; 349 1; 350 5; 351 1; 
352 1; 353 1; 354 2; 355 2; 356 1; 
357 1; 358 1; 359 1; 360 1; 361 1; 
362 1; 363 5; 364 1; 365 1; 366 3; 
367 2; 368 1; 369 1; 370 1; 371 1; 
372 1; 373 1; 374 1; 375 1; 376 1; 
377 1; 378 1; 379 1; 380 1; 381 1; 
382 6; 383 347; 384 85; 385 10; 386 1; 
