Name: Flutoprazepam
InChIKey: OFVXPDXXVSGEPX-UHFFFAOYSA-N
Synon: 7-Chloro-1-(cyclopropylmethyl)-5-(2-fluorophenyl)-1,3-dihydro-2H-1,4-benzodiazepin-2-one
Formula: C19H16ClFN2O
MW: 342
ExactMass: 342.09352
CASNO: 25967297
ID: 4975
Comment: Provided by www.caymanchem.com/app/template/landing%2CForensic.vm / Item#23543 Batch#0528894
Num Peaks: 308
40 5; 41 91; 42 28; 43 14; 44 1; 
45 1; 46 1; 47 1; 48 1; 49 5; 
50 31; 51 49; 52 21; 53 98; 54 38; 
55 569; 56 33; 57 33; 58 3; 59 6; 
60 1; 61 6; 62 21; 63 54; 64 16; 
65 12; 66 4; 67 4; 68 16; 69 25; 
70 13; 71 1; 72 3; 73 23; 74 40; 
75 189; 76 51; 77 33; 78 16; 79 2; 
80 8; 81 42; 82 9; 83 98; 84 15; 
85 14; 86 16; 87 27; 88 23; 89 88; 
90 32; 91 33; 92 2; 93 9; 94 41; 
95 83; 96 20; 97 11; 98 23; 99 41; 
100 40; 101 31; 102 173; 103 46; 104 12; 
105 19; 106 15; 107 84; 108 38; 109 665; 
110 88; 111 112; 112 39; 113 39; 114 30; 
115 34; 116 27; 117 43; 118 31; 119 11; 
120 24; 121 47; 122 48; 123 60; 124 40; 
125 53; 126 32; 127 27; 128 16; 129 23; 
130 22; 131 20; 132 21; 133 34; 134 79; 
135 69; 136 73; 137 68; 138 91; 139 38; 
140 37; 141 11; 142 20; 143 24; 144 32; 
145 23; 146 13; 147 8; 148 8; 149 36; 
150 72; 151 46; 152 41; 153 17; 154 20; 
155 26; 156 24; 157 46; 158 15; 159 3; 
160 2; 161 12; 162 24; 163 144; 164 78; 
165 56; 166 485; 167 62; 168 211; 169 110; 
170 81; 171 20; 172 3; 173 2; 174 11; 
175 30; 176 77; 177 115; 178 46; 179 25; 
180 26; 181 117; 182 96; 183 233; 184 51; 
185 12; 186 6; 187 4; 188 18; 189 21; 
190 43; 191 31; 192 21; 193 23; 194 28; 
195 121; 196 96; 197 50; 198 23; 199 10; 
200 4; 201 6; 202 17; 203 37; 204 25; 
205 80; 206 31; 207 37; 208 69; 209 43; 
210 45; 211 102; 212 30; 213 10; 214 9; 
215 9; 216 10; 217 48; 218 24; 219 37; 
220 18; 221 27; 222 42; 223 134; 224 62; 
225 44; 226 14; 227 3; 228 5; 229 5; 
230 11; 231 39; 232 40; 233 42; 234 29; 
235 28; 236 38; 237 25; 238 19; 239 66; 
240 26; 241 30; 242 14; 243 8; 244 19; 
245 197; 246 93; 247 87; 248 46; 249 23; 
250 21; 251 30; 252 54; 253 49; 254 13; 
255 8; 256 14; 257 75; 258 166; 259 551; 
260 305; 261 231; 262 87; 263 22; 264 11; 
265 7; 266 7; 267 10; 268 35; 269 218; 
270 62; 271 195; 272 80; 273 181; 274 52; 
275 53; 276 13; 277 7; 278 23; 279 22; 
280 4; 281 9; 282 10; 283 15; 284 9; 
285 374; 286 241; 287 695; 288 184; 289 196; 
290 38; 291 9; 292 2; 293 35; 294 11; 
295 44; 296 19; 297 31; 298 10; 299 173; 
300 43; 301 65; 302 10; 303 4; 304 1; 
305 3; 306 4; 307 26; 308 5; 309 4; 
310 1; 311 50; 312 30; 313 999; 314 497; 
315 381; 316 152; 317 26; 318 2; 319 1; 
320 1; 321 2; 322 3; 323 66; 324 20; 
325 36; 326 8; 327 46; 328 8; 329 15; 
330 2; 331 1; 332 1; 333 1; 334 1; 
335 1; 336 1; 337 1; 338 1; 339 1; 
340 1; 341 160; 342 424; 343 136; 344 142; 
345 28; 346 3; 347 1; 
