Name: ortho-Fluoro Furanyl fentanyl
InChIKey: QAURJPLHDYKGHY-UHFFFAOYSA-N
Synon: 2-Fluoro Fu-F
Synon: o-Fluoro Fu-F
Synon: ortho-Fluoro Fu-F
Synon: 2-Fluoro Furanyl fentanyl
Synon: o-Fluoro Furanyl fentanyl
Synon: N-(2-fluorophenyl)-N-[1-(2-phenylethyl)-4-piperidinyl]-2-furancarboxamide
Formula: C24H25FN2O2
MW: 392
ExactMass: 392.190006
CASNO: 101343731
ID: 4976
Comment: Provided by www.caymanchem.com/app/template/landing%2CForensic.vm / Item#23628 Batch#0518649
Num Peaks: 352
40 1; 41 35; 42 133; 43 19; 44 41; 
45 1; 46 1; 47 1; 48 1; 49 1; 
50 8; 51 19; 52 8; 53 11; 54 11; 
55 25; 56 17; 57 15; 58 2; 59 1; 
60 1; 61 1; 62 2; 63 12; 64 3; 
65 52; 66 9; 67 47; 68 29; 69 28; 
70 32; 71 2; 72 1; 73 2; 74 4; 
75 16; 76 3; 77 56; 78 24; 79 51; 
80 11; 81 18; 82 25; 83 19; 84 4; 
85 1; 86 1; 87 1; 88 1; 89 12; 
90 8; 91 219; 92 21; 93 7; 94 27; 
95 999; 96 193; 97 21; 98 17; 99 1; 
100 1; 101 3; 102 9; 103 42; 104 29; 
105 127; 106 12; 107 4; 108 3; 109 9; 
110 10; 111 7; 112 1; 113 1; 114 1; 
115 4; 116 3; 117 9; 118 5; 119 2; 
120 2; 121 7; 122 47; 123 13; 124 8; 
125 1; 126 2; 127 1; 128 2; 129 3; 
130 20; 131 7; 132 6; 133 10; 134 7; 
135 13; 136 26; 137 20; 138 11; 139 5; 
140 1; 141 1; 142 1; 143 2; 144 5; 
145 2; 146 5; 147 1; 148 42; 149 32; 
150 41; 151 6; 152 1; 153 1; 154 1; 
155 1; 156 2; 157 1; 158 4; 159 2; 
160 9; 161 3; 162 6; 163 5; 164 12; 
165 2; 166 1; 167 1; 168 1; 169 1; 
170 1; 171 1; 172 1; 173 1; 174 1; 
175 1; 176 98; 177 17; 178 2; 179 1; 
180 1; 181 1; 182 2; 183 1; 184 15; 
185 11; 186 19; 187 3; 188 58; 189 12; 
190 3; 191 2; 192 1; 193 1; 194 1; 
195 1; 196 1; 197 1; 198 1; 199 1; 
200 1; 201 1; 202 1; 203 1; 204 1; 
205 50; 206 18; 207 14; 208 1; 209 1; 
210 1; 211 1; 212 1; 213 1; 214 1; 
215 1; 216 1; 217 1; 218 1; 219 1; 
221 1; 222 1; 223 1; 224 1; 225 1; 
226 1; 227 1; 228 14; 229 1; 230 44; 
231 6; 232 1; 233 1; 234 1; 235 1; 
236 1; 237 1; 238 1; 239 1; 240 1; 
241 1; 242 1; 243 1; 244 1; 245 1; 
246 1; 247 1; 248 1; 249 1; 250 1; 
251 1; 252 1; 253 3; 254 1; 255 1; 
256 1; 257 1; 258 428; 259 70; 260 4; 
261 1; 262 1; 263 1; 264 1; 265 1; 
266 1; 267 1; 268 1; 269 1; 270 1; 
271 1; 272 1; 273 1; 274 1; 275 1; 
276 1; 277 1; 278 1; 279 1; 280 1; 
281 1; 282 1; 283 1; 284 1; 285 1; 
286 1; 287 1; 288 1; 289 1; 290 1; 
291 1; 292 1; 293 1; 294 1; 295 1; 
296 1; 297 4; 298 1; 299 1; 300 1; 
301 977; 302 183; 303 15; 304 1; 305 1; 
306 1; 307 1; 308 1; 309 1; 310 1; 
311 1; 312 1; 313 1; 314 1; 315 1; 
316 1; 317 1; 318 1; 319 1; 320 1; 
321 1; 322 1; 323 1; 324 1; 325 1; 
326 1; 327 1; 328 1; 329 1; 330 1; 
331 1; 332 1; 333 1; 334 1; 336 1; 
337 1; 338 1; 339 1; 340 1; 341 1; 
342 1; 343 1; 344 1; 345 1; 346 1; 
347 1; 348 1; 349 1; 350 1; 351 1; 
352 1; 353 1; 354 1; 355 1; 356 1; 
357 1; 358 1; 359 1; 360 1; 361 1; 
362 1; 363 1; 364 1; 365 1; 366 1; 
367 1; 368 1; 369 1; 370 1; 371 1; 
372 1; 373 1; 374 1; 375 1; 376 1; 
377 1; 378 1; 379 1; 380 1; 381 1; 
382 1; 383 1; 384 1; 385 1; 386 1; 
387 1; 388 1; 389 1; 390 2; 391 1; 
392 1; 393 1; 
