Name: 2-(p-Fluorophenyl)piperazine
InChIKey: NZAKSEMIIIZYEM-UHFFFAOYSA-N
Synon: 2-(4-Fluorophenyl)-piperazine
Synon: 2-(p-Fluorophenyl)piperazine
Synon: 2-(para-Fluorophenyl)piperazine
Formula: C10H13FN2
MW: 180
ExactMass: 180.1062765
CASNO: 65709333
ID: 4977
Comment: Provided by www.caymanchem.com/app/template/landing%2CForensic.vm / Item#24421 Batch#0524411
Num Peaks: 141
41 35; 42 96; 43 98; 44 459; 45 13; 
46 1; 47 1; 48 1; 49 2; 50 30; 
51 30; 52 12; 53 3; 54 21; 55 13; 
56 95; 57 94; 58 11; 59 37; 60 2; 
61 5; 62 16; 63 30; 64 6; 65 5; 
66 2; 67 1; 68 11; 69 23; 70 34; 
71 5; 72 1; 73 2; 74 30; 75 117; 
76 21; 77 38; 78 8; 79 1; 80 5; 
81 27; 82 8; 83 63; 84 7; 85 15; 
86 3; 87 8; 88 5; 89 11; 90 5; 
91 6; 92 5; 93 7; 94 34; 95 135; 
96 156; 97 77; 98 8; 99 4; 100 7; 
101 92; 102 25; 103 43; 104 11; 105 7; 
106 2; 107 102; 108 52; 109 255; 110 22; 
111 2; 112 1; 113 1; 114 1; 115 3; 
116 3; 117 7; 118 13; 119 4; 120 30; 
121 117; 122 999; 123 217; 124 228; 125 18; 
126 2; 127 1; 128 1; 129 1; 130 6; 
131 2; 132 7; 133 10; 134 9; 135 62; 
136 550; 137 853; 138 123; 139 7; 140 1; 
141 1; 142 1; 143 1; 144 1; 145 1; 
146 1; 147 1; 148 52; 149 19; 150 183; 
151 28; 152 2; 153 1; 154 1; 155 1; 
156 1; 157 1; 158 1; 160 1; 161 1; 
162 6; 163 2; 164 1; 165 5; 166 1; 
167 1; 168 1; 169 1; 170 1; 171 1; 
172 1; 173 1; 174 3; 175 3; 176 4; 
177 6; 178 9; 179 27; 180 116; 181 12; 
182 1; 
