Name: 4'-Fluoro, para-fluoro-trans-3-methyl Fentanyl
InChIKey: YFIQNDQPFUSEGY-VGOFRKELSA-N
Synon: trans-N-1-(4-fluorophenethyl)-3-methylpiperidin-4-yl)-N-(4-fluorophenyl)propionamide
Formula: C23H28F2N2O
MW: 386
ExactMass: 386.21697
CASNO: 0
ID: 4978
Comment: Provided by www.caymanchem.com/app/template/landing%2CForensic.vm / Item#24503 Batch#0522980
Num Peaks: 342
41 41; 42 111; 43 16; 44 36; 45 1; 
46 1; 47 1; 48 1; 49 1; 50 3; 
51 4; 52 1; 53 5; 54 5; 55 26; 
56 15; 57 160; 58 13; 59 2; 60 1; 
61 1; 62 2; 63 5; 64 2; 65 4; 
66 2; 67 12; 68 21; 69 26; 70 19; 
71 4; 72 1; 73 1; 74 2; 75 18; 
76 2; 77 22; 78 3; 79 8; 80 5; 
81 20; 82 19; 83 37; 84 21; 85 2; 
86 1; 87 1; 88 1; 89 5; 90 1; 
91 2; 92 2; 93 4; 94 13; 95 62; 
96 35; 97 15; 98 7; 99 1; 100 1; 
101 13; 102 4; 103 64; 104 6; 105 1; 
106 1; 107 7; 108 11; 109 159; 110 102; 
111 43; 112 12; 113 1; 114 1; 115 1; 
116 1; 117 1; 118 1; 119 1; 120 3; 
121 16; 122 65; 123 93; 124 22; 125 2; 
126 1; 127 1; 128 1; 129 1; 130 5; 
131 1; 132 1; 133 4; 134 3; 135 20; 
136 33; 137 16; 138 6; 139 1; 140 1; 
141 1; 142 1; 143 1; 144 1; 145 1; 
146 2; 147 1; 148 37; 149 33; 150 76; 
151 15; 152 7; 153 5; 154 1; 155 1; 
156 1; 157 1; 158 1; 159 1; 160 1; 
161 2; 162 14; 163 13; 164 21; 165 3; 
166 3; 167 4; 168 4; 169 1; 170 1; 
171 1; 172 1; 173 1; 174 2; 175 1; 
176 5; 177 10; 178 180; 179 22; 180 3; 
181 1; 182 1; 183 1; 184 1; 185 1; 
186 1; 187 1; 188 1; 189 1; 190 14; 
191 4; 192 12; 193 2; 194 1; 195 1; 
196 1; 197 1; 198 1; 199 1; 200 1; 
201 1; 202 2; 203 1; 204 3; 205 2; 
206 1; 207 2; 208 1; 209 1; 210 1; 
211 1; 212 1; 213 1; 214 1; 215 1; 
216 3; 217 2; 218 13; 219 9; 220 23; 
221 71; 222 10; 223 1; 224 1; 225 1; 
226 1; 227 1; 228 1; 229 1; 230 1; 
231 1; 232 1; 234 75; 235 11; 236 1; 
237 1; 238 1; 239 1; 240 1; 241 1; 
242 1; 243 1; 244 1; 245 1; 246 1; 
247 1; 248 5; 249 1; 250 1; 251 1; 
252 1; 253 1; 254 1; 255 1; 256 1; 
257 1; 258 1; 259 1; 260 1; 261 1; 
262 1; 263 1; 264 1; 265 1; 266 1; 
267 1; 268 1; 269 1; 270 1; 271 1; 
272 1; 273 1; 274 1; 275 2; 277 999; 
278 176; 279 17; 280 1; 281 1; 282 1; 
283 1; 284 1; 285 1; 286 1; 287 1; 
288 1; 289 1; 290 1; 291 1; 292 1; 
293 1; 294 1; 295 1; 297 1; 298 1; 
299 1; 300 1; 301 1; 302 1; 303 1; 
304 1; 305 1; 306 1; 307 1; 308 1; 
309 1; 310 1; 311 1; 312 1; 313 1; 
314 1; 315 1; 316 1; 317 1; 318 1; 
319 1; 320 1; 321 1; 322 1; 323 1; 
324 1; 325 1; 326 1; 327 1; 328 1; 
329 1; 330 1; 331 1; 332 1; 333 1; 
334 1; 335 1; 336 1; 338 1; 339 1; 
340 1; 341 1; 342 1; 343 1; 344 1; 
345 1; 346 1; 347 1; 348 1; 349 1; 
350 1; 351 1; 352 1; 353 1; 354 1; 
355 1; 356 1; 357 1; 358 1; 359 1; 
360 1; 361 1; 362 1; 363 1; 364 1; 
365 1; 366 1; 367 1; 368 1; 369 1; 
370 1; 371 1; 372 1; 373 1; 374 1; 
375 1; 376 1; 377 1; 378 1; 379 1; 
382 1; 383 1; 384 2; 385 1; 386 1; 
387 1; 388 1; 
