Name: 4-Methyldiethcathinone
InChIKey: SPARQPFHQXMJOR-UHFFFAOYSA-N
Synon: 4-MDEC
Synon: 2-(Diethylamino)-1-(4-methylphenyl)-1-propanone
Formula: C14H21NO
MW: 219
ExactMass: 219.162314
CASNO: 676316908
ID: 4979
Comment: Provided by www.caymanchem.com/app/template/landing%2CForensic.vm / Item#24799 Batch#0526368 / SWGDRUG Monograph available
Num Peaks: 174
41 12; 42 36; 43 4; 44 79; 45 3; 
47 1; 48 1; 49 1; 50 3; 51 7; 
52 3; 53 2; 54 5; 55 6; 56 39; 
57 7; 58 5; 59 1; 60 1; 61 1; 
62 3; 63 15; 64 4; 65 62; 66 4; 
67 1; 68 3; 69 1; 70 31; 71 7; 
72 75; 73 6; 74 1; 75 2; 76 2; 
77 7; 78 2; 79 1; 80 1; 81 1; 
82 1; 83 1; 84 5; 85 2; 86 1; 
87 1; 88 1; 89 22; 90 12; 91 112; 
92 11; 93 1; 94 1; 95 1; 96 1; 
98 8; 99 4; 100 999; 101 68; 102 3; 
103 3; 104 2; 105 7; 106 1; 107 1; 
108 1; 109 1; 110 1; 111 1; 112 1; 
113 1; 114 1; 115 5; 116 1; 117 5; 
118 2; 119 50; 120 5; 121 1; 122 1; 
123 1; 125 1; 126 1; 127 1; 128 2; 
129 1; 130 1; 131 2; 132 1; 133 2; 
134 1; 135 1; 137 1; 138 1; 139 1; 
140 1; 141 1; 142 1; 143 1; 144 1; 
145 1; 146 2; 147 1; 148 2; 149 1; 
150 1; 151 1; 152 1; 153 1; 154 1; 
155 1; 156 1; 157 1; 158 1; 159 1; 
160 1; 161 1; 162 1; 163 1; 164 1; 
166 1; 167 1; 168 1; 169 1; 170 1; 
171 1; 172 1; 173 1; 174 2; 175 1; 
176 1; 177 1; 178 1; 179 1; 180 1; 
181 1; 182 1; 183 1; 184 2; 185 1; 
186 1; 187 1; 188 1; 189 1; 190 1; 
191 1; 192 1; 193 1; 194 1; 195 1; 
196 1; 197 1; 198 4; 199 6; 200 1; 
201 1; 202 2; 203 1; 204 1; 205 1; 
206 1; 207 1; 208 1; 209 1; 210 1; 
211 1; 213 1; 214 1; 215 1; 216 1; 
217 1; 218 1; 219 1; 220 1; 
