Name: 3,4-Ethylenedioxy U-51754
InChIKey: XJOJZKGOCBYKGW-HOTGVXAUSA-N
Synon: 3,4-EDO U-51754
Synon: trans-2-(2,3-dihydrobenzo[b][1,4]dioxin-6-yl)-N-2-(dimethylamino)cyclohexyl)-N-methylacetamide
Formula: C19H28N2O3
MW: 332
ExactMass: 332.209993
CASNO: 0
ID: 4980
Comment: Provided by www.caymanchem.com/app/template/landing%2CForensic.vm / Item#23747 Batch#0528421
Num Peaks: 293
40 2; 41 19; 42 88; 43 15; 44 40; 
45 7; 46 5; 47 1; 48 1; 49 1; 
50 3; 51 19; 52 3; 53 9; 54 7; 
55 24; 56 51; 57 12; 58 128; 59 5; 
60 1; 61 1; 62 2; 63 11; 64 10; 
65 102; 66 19; 67 21; 68 34; 69 13; 
70 71; 71 207; 72 17; 73 3; 74 2; 
75 2; 76 3; 77 98; 78 15; 79 35; 
80 10; 81 37; 82 59; 83 35; 84 865; 
85 63; 86 5; 87 1; 88 1; 89 5; 
90 5; 91 18; 92 21; 93 18; 94 26; 
95 14; 96 29; 97 52; 98 62; 99 13; 
100 5; 101 1; 102 1; 103 8; 104 3; 
105 31; 106 7; 107 2; 108 10; 109 8; 
110 123; 111 30; 112 81; 113 9; 114 1; 
115 1; 116 1; 117 1; 118 1; 119 1; 
120 12; 121 12; 122 6; 123 67; 124 143; 
125 999; 126 101; 127 5; 128 1; 129 1; 
130 1; 131 11; 132 1; 133 1; 134 3; 
135 2; 136 2; 137 2; 138 5; 139 5; 
140 5; 141 3; 142 1; 143 1; 144 1; 
145 1; 146 1; 147 2; 148 18; 149 292; 
150 36; 151 4; 152 1; 153 10; 154 2; 
155 12; 156 2; 157 2; 158 1; 159 1; 
160 1; 161 1; 162 1; 163 2; 164 2; 
165 1; 166 1; 167 1; 168 1; 169 1; 
170 1; 171 1; 172 1; 173 1; 174 1; 
175 1; 176 51; 177 6; 178 2; 179 1; 
180 1; 181 1; 182 1; 183 15; 184 2; 
185 1; 186 1; 187 1; 188 1; 189 1; 
190 2; 191 1; 192 1; 193 1; 194 1; 
195 1; 196 1; 197 1; 198 1; 199 1; 
200 1; 201 1; 202 1; 203 1; 204 1; 
205 1; 206 1; 207 5; 208 4; 209 1; 
210 1; 211 1; 212 1; 213 1; 214 1; 
215 1; 216 1; 217 1; 218 1; 219 1; 
220 3; 221 2; 222 1; 223 1; 224 1; 
225 1; 226 1; 227 1; 228 1; 229 1; 
230 1; 231 1; 232 2; 233 1; 234 1; 
235 1; 236 1; 237 1; 238 1; 239 1; 
240 1; 241 1; 242 1; 243 1; 244 1; 
245 1; 246 1; 247 1; 248 1; 249 1; 
250 1; 251 1; 252 1; 253 1; 254 1; 
255 1; 256 1; 257 1; 258 1; 259 1; 
260 1; 261 1; 262 1; 263 1; 264 1; 
266 1; 267 1; 268 1; 269 1; 270 1; 
271 1; 272 1; 273 1; 274 1; 275 1; 
276 1; 277 1; 278 1; 279 1; 280 1; 
281 2; 282 1; 283 1; 284 1; 285 1; 
286 2; 287 4; 288 8; 289 2; 290 1; 
291 1; 292 1; 293 1; 294 1; 295 1; 
296 1; 297 1; 298 1; 299 1; 300 1; 
301 1; 302 1; 303 1; 304 1; 305 1; 
306 1; 307 1; 308 1; 309 1; 310 1; 
311 1; 312 1; 313 1; 314 1; 315 1; 
316 1; 317 1; 318 1; 319 1; 320 1; 
321 1; 322 1; 323 1; 325 1; 326 1; 
327 1; 328 1; 329 1; 330 1; 331 3; 
332 18; 333 3; 334 1; 
