Name: 3,4-Ethylenedioxy U-47700
InChIKey: KKMGSAIPMRCJFU-GICMACPYSA-N
Synon: trans-N-2-(dimethylamino)cyclohexyl)-N-methyl-2,3-dihydrobenzo[b][1,4]dioxine-6-carboxamide
Synon: 3,4-EDO U-47700
Formula: C18H26N2O3
MW: 318
ExactMass: 318.194344
CASNO: 0
ID: 4981
Comment: Provided by www.caymanchem.com/app/template/landing%2CForensic.vm / Item#23752 Batch#0527885
Num Peaks: 273
40 1; 41 21; 42 104; 43 15; 44 42; 
45 5; 46 4; 47 1; 48 1; 49 1; 
50 10; 51 50; 52 10; 53 14; 54 7; 
55 30; 56 52; 57 10; 58 118; 59 4; 
60 1; 61 1; 62 4; 63 17; 64 3; 
65 7; 66 4; 67 14; 68 36; 69 15; 
70 65; 71 157; 72 15; 73 1; 74 6; 
75 8; 76 6; 77 49; 78 11; 79 137; 
80 23; 81 36; 82 64; 83 30; 84 714; 
85 50; 86 2; 87 1; 88 1; 89 1; 
90 1; 91 12; 92 6; 93 4; 94 17; 
95 14; 96 29; 97 55; 98 65; 99 14; 
100 2; 101 1; 102 1; 103 1; 104 3; 
105 3; 106 3; 107 245; 108 30; 109 13; 
110 150; 111 18; 112 57; 113 6; 114 2; 
115 1; 116 1; 117 1; 118 1; 119 4; 
120 6; 121 3; 122 6; 123 4; 124 172; 
125 999; 126 94; 127 4; 128 1; 129 1; 
130 1; 131 1; 132 1; 133 2; 134 7; 
135 145; 136 17; 137 9; 138 1; 139 4; 
140 1; 141 1; 142 1; 143 1; 144 1; 
145 1; 146 1; 147 1; 148 1; 149 3; 
150 3; 151 1; 152 1; 153 7; 154 1; 
155 24; 156 3; 157 1; 158 1; 159 1; 
160 1; 161 3; 162 1; 163 393; 164 40; 
165 6; 166 1; 167 1; 168 1; 169 2; 
170 1; 171 1; 172 1; 173 1; 174 1; 
175 1; 176 9; 177 2; 178 3; 179 1; 
180 1; 181 1; 182 1; 183 1; 184 1; 
185 1; 186 1; 187 1; 188 1; 189 1; 
190 1; 191 1; 192 3; 193 4; 194 6; 
195 1; 197 1; 198 1; 199 1; 200 1; 
201 1; 202 1; 203 1; 204 3; 205 1; 
206 19; 210 1; 211 1; 212 1; 213 1; 
214 1; 215 1; 216 1; 217 1; 218 3; 
219 1; 220 5; 221 1; 222 1; 223 1; 
224 1; 225 1; 226 1; 227 1; 228 1; 
229 1; 230 1; 231 1; 232 1; 233 1; 
234 2; 235 1; 236 1; 237 1; 238 1; 
239 1; 240 1; 241 1; 242 1; 243 1; 
244 2; 245 2; 246 2; 247 1; 248 1; 
249 1; 250 1; 251 1; 252 1; 253 1; 
254 1; 255 1; 256 1; 257 1; 258 1; 
259 1; 260 1; 261 1; 262 1; 263 1; 
264 1; 265 1; 267 1; 268 1; 269 1; 
270 1; 271 1; 272 4; 273 1; 274 14; 
275 3; 276 1; 277 1; 279 1; 281 1; 
282 1; 283 1; 284 1; 285 1; 286 1; 
287 1; 288 1; 289 1; 290 1; 291 1; 
292 1; 293 1; 294 1; 295 1; 296 1; 
297 1; 298 1; 299 1; 300 1; 301 1; 
302 1; 303 1; 304 1; 305 1; 306 1; 
307 1; 308 1; 309 1; 310 1; 311 1; 
312 1; 313 1; 314 1; 315 1; 316 1; 
317 25; 318 7; 319 1; 
