Name: 4-Phenyl U-51754
InChIKey: JMDIMUCMZWADSC-VXKWHMMOSA-N
Synon: N-[2-(dimethylamino)cyclohexyl]-N-methyl-trans-[1,1'-biphenyl]-4-acetamide
Formula: C23H30N2O
MW: 350
ExactMass: 350.235813
CASNO: 760892646
ID: 4982
Comment: Provided by www.caymanchem.com/app/template/landing%2CForensic.vm / Item#24980 Batch#0527336
Num Peaks: 309
40 1; 41 18; 42 82; 43 14; 44 37; 
45 6; 46 5; 47 1; 48 1; 49 1; 
50 1; 51 4; 52 2; 53 4; 54 5; 
55 21; 56 50; 57 14; 58 124; 59 5; 
60 1; 61 1; 62 1; 63 6; 64 1; 
65 8; 66 3; 67 11; 68 31; 69 13; 
70 69; 71 205; 72 17; 73 5; 74 1; 
75 2; 76 2; 77 14; 78 4; 79 30; 
80 7; 81 34; 82 59; 83 36; 84 865; 
85 63; 86 4; 87 3; 88 2; 89 10; 
90 2; 91 7; 92 1; 93 2; 94 15; 
95 12; 96 30; 97 42; 98 62; 99 12; 
100 4; 101 1; 102 6; 103 2; 104 2; 
105 1; 106 1; 107 1; 108 9; 109 7; 
110 111; 111 23; 112 64; 113 11; 114 1; 
115 31; 116 3; 117 1; 118 1; 119 5; 
120 1; 121 1; 122 5; 123 4; 124 118; 
125 999; 126 106; 127 9; 128 21; 129 2; 
130 1; 131 1; 132 1; 133 1; 134 1; 
135 2; 136 1; 137 2; 138 4; 139 25; 
140 8; 141 12; 142 2; 143 1; 144 1; 
145 1; 147 1; 148 1; 149 1; 150 2; 
151 11; 152 94; 153 27; 154 5; 155 10; 
156 2; 157 1; 158 1; 159 1; 160 1; 
161 1; 162 1; 163 10; 164 20; 165 233; 
166 60; 167 309; 168 54; 169 3; 170 1; 
171 1; 172 1; 173 1; 174 1; 175 1; 
176 1; 177 1; 178 3; 179 3; 180 3; 
181 2; 182 1; 183 9; 184 1; 185 1; 
186 1; 187 1; 188 1; 189 1; 190 1; 
191 2; 192 1; 193 2; 194 25; 195 7; 
196 1; 197 1; 198 1; 199 1; 200 1; 
201 1; 202 1; 203 1; 204 1; 205 1; 
206 1; 207 4; 208 5; 209 1; 210 2; 
211 1; 212 1; 213 1; 214 1; 215 1; 
216 1; 217 1; 218 1; 219 1; 220 1; 
221 1; 222 1; 223 1; 224 2; 225 2; 
226 1; 227 1; 228 1; 229 1; 230 1; 
231 1; 232 1; 233 1; 234 1; 235 1; 
236 1; 237 1; 238 1; 239 1; 240 1; 
241 1; 242 1; 243 1; 244 1; 246 1; 
247 1; 248 1; 249 1; 250 2; 251 1; 
252 1; 253 7; 254 1; 255 1; 256 1; 
257 1; 258 1; 259 1; 260 1; 261 1; 
262 1; 263 1; 264 1; 265 1; 266 1; 
267 1; 268 1; 269 1; 270 1; 271 1; 
272 1; 273 1; 274 1; 275 1; 276 1; 
277 1; 278 1; 279 1; 280 1; 281 3; 
282 3; 283 1; 284 1; 285 1; 286 1; 
287 1; 288 1; 289 1; 290 1; 291 1; 
292 1; 293 1; 294 1; 295 1; 296 1; 
297 1; 298 1; 300 1; 301 1; 302 1; 
303 1; 304 1; 305 3; 306 9; 307 3; 
308 1; 309 1; 310 1; 311 1; 312 1; 
313 1; 314 1; 315 1; 316 1; 317 1; 
318 1; 319 1; 320 1; 321 1; 322 1; 
323 1; 324 1; 325 1; 326 1; 327 1; 
328 1; 329 1; 330 1; 331 2; 332 1; 
333 1; 334 1; 335 1; 336 1; 337 1; 
338 1; 339 1; 340 1; 341 1; 342 1; 
343 1; 344 1; 345 1; 346 1; 347 1; 
348 1; 349 2; 350 7; 351 1; 
