Name: ACHMINACA
InChIKey: ACFKPINHOINOFB-UHFFFAOYSA-N
Synon: Adamantyl-CHMINACA
Synon: 1-(cyclohexylmethyl)-N-tricyclo[3.3.1.1(3,7)]dec-1-yl-1H-indazole-3-carboxamide
Formula: C25H33N3O
MW: 391
ExactMass: 391.262363
CASNO: 1400742337
ID: 4985
Comment: Provided by www.caymanchem.com/app/template/landing%2CForensic.vm / Item#25006 Batch#0527214 / SWGDRUG Monograph available
Num Peaks: 354
40 1; 41 206; 42 21; 43 32; 44 7; 
45 1; 46 1; 47 1; 48 1; 49 1; 
50 3; 51 12; 52 7; 53 45; 54 31; 
55 434; 56 35; 57 18; 58 22; 59 1; 
60 1; 61 1; 62 3; 63 6; 64 3; 
65 31; 66 26; 67 152; 68 23; 69 39; 
70 10; 71 1; 72 1; 73 2; 74 2; 
75 8; 76 20; 77 154; 78 38; 79 205; 
80 39; 81 82; 82 20; 83 32; 84 5; 
85 1; 86 1; 87 1; 88 31; 89 33; 
90 68; 91 164; 92 144; 93 258; 94 158; 
95 47; 96 10; 97 41; 98 2; 99 1; 
100 1; 101 3; 102 42; 103 184; 104 77; 
105 55; 106 34; 107 70; 108 65; 109 25; 
110 4; 111 1; 112 1; 113 1; 114 1; 
115 9; 116 10; 117 51; 118 23; 119 36; 
120 24; 121 7; 122 3; 123 2; 124 1; 
125 1; 126 1; 127 4; 128 11; 129 57; 
130 57; 131 329; 132 70; 133 33; 134 27; 
135 529; 136 89; 137 6; 138 1; 139 1; 
140 1; 141 1; 142 3; 143 6; 144 42; 
145 919; 146 92; 147 11; 148 4; 149 13; 
150 371; 151 51; 152 3; 153 1; 154 2; 
155 8; 156 16; 157 25; 158 26; 159 21; 
160 3; 161 21; 162 4; 163 1; 164 1; 
165 2; 166 1; 167 2; 168 2; 169 15; 
170 6; 171 12; 172 2; 173 2; 174 88; 
175 34; 176 5; 177 2; 178 1; 179 1; 
180 1; 181 3; 182 3; 183 5; 184 5; 
185 15; 186 5; 187 2; 188 1; 189 1; 
190 1; 191 2; 192 1; 193 2; 194 2; 
195 4; 196 3; 197 3; 198 3; 199 7; 
200 3; 201 1; 202 1; 203 1; 204 1; 
205 1; 206 1; 207 4; 208 3; 209 5; 
210 11; 211 9; 212 15; 213 55; 214 14; 
215 31; 216 4; 217 1; 218 1; 219 1; 
220 1; 221 3; 222 3; 223 4; 224 3; 
225 3; 226 4; 227 2; 228 87; 229 15; 
230 1; 231 1; 232 1; 233 1; 234 1; 
235 1; 236 1; 237 1; 238 13; 239 35; 
240 1; 241 999; 242 167; 243 15; 244 1; 
245 1; 246 1; 247 1; 248 1; 249 5; 
250 24; 251 14; 252 14; 253 3; 254 1; 
255 7; 256 79; 257 17; 258 4; 259 1; 
260 1; 261 1; 262 1; 263 16; 264 9; 
265 91; 266 30; 267 12; 268 6; 269 6; 
270 2; 271 1; 272 1; 273 1; 274 1; 
275 1; 276 1; 277 1; 278 5; 279 2; 
280 30; 281 25; 282 6; 283 1; 284 1; 
285 1; 286 1; 287 1; 288 1; 289 1; 
290 1; 291 3; 292 4; 294 448; 295 103; 
296 21; 297 12; 298 8; 299 1; 300 1; 
301 1; 302 1; 303 2; 304 1; 305 1; 
306 177; 307 45; 308 63; 309 57; 310 10; 
311 1; 312 1; 313 1; 314 1; 315 1; 
316 1; 317 1; 318 1; 319 1; 320 6; 
321 2; 322 5; 323 1; 324 1; 325 1; 
326 1; 327 1; 328 1; 329 1; 330 1; 
331 1; 332 1; 333 1; 334 64; 335 14; 
336 4; 337 1; 338 1; 339 1; 340 1; 
341 1; 342 1; 343 1; 344 1; 345 1; 
346 180; 347 55; 348 27; 349 8; 350 3; 
351 1; 352 1; 353 1; 354 1; 355 1; 
356 1; 357 1; 358 1; 359 1; 360 1; 
361 1; 362 1; 363 386; 364 104; 365 8; 
366 1; 367 1; 368 1; 369 1; 370 1; 
371 1; 372 1; 373 1; 374 1; 375 1; 
376 1; 377 1; 378 1; 379 1; 380 1; 
381 1; 382 1; 383 1; 384 1; 385 1; 
386 1; 387 1; 388 1; 389 1; 390 1; 
391 273; 392 77; 393 6; 394 1; 
