Name: GBR 12909
InChIKey: NAUWTFJOPJWYOT-UHFFFAOYSA-N
Synon: 1-[2-[bis(4-fluorophenyl)methoxy]ethyl]-4-(3-phenylpropyl)-piperazine
Formula: C28H32F2N2O
MW: 450
ExactMass: 450.24827
CASNO: 67469696
ID: 4986
Comment: Provided by www.caymanchem.com/app/template/landing%2CForensic.vm / Item#15622 Batch#0460186
Num Peaks: 406
40 1; 41 22; 42 76; 43 61; 44 17; 
45 4; 46 1; 47 1; 48 1; 49 1; 
50 5; 51 8; 52 2; 53 1; 54 11; 
55 32; 56 68; 57 50; 58 38; 59 2; 
60 1; 61 1; 62 3; 63 22; 64 1; 
65 22; 66 2; 67 1; 68 15; 69 24; 
70 350; 71 38; 72 26; 73 4; 74 6; 
75 22; 76 4; 77 21; 78 13; 79 15; 
80 3; 81 9; 82 27; 83 28; 84 41; 
85 16; 86 23; 87 3; 88 1; 89 4; 
90 2; 91 255; 92 27; 93 2; 94 5; 
95 42; 96 16; 97 42; 98 48; 99 121; 
100 28; 101 3; 102 3; 103 19; 104 21; 
105 17; 106 3; 107 9; 108 6; 109 13; 
110 3; 111 31; 112 22; 113 34; 114 4; 
115 16; 116 3; 117 52; 118 18; 119 2; 
120 2; 121 1; 122 1; 123 65; 124 11; 
125 52; 126 10; 127 46; 128 7; 129 3; 
130 1; 131 2; 132 2; 133 8; 134 1; 
135 1; 136 1; 137 1; 138 1; 139 11; 
140 1; 141 13; 142 18; 143 6; 144 4; 
145 2; 146 8; 147 4; 148 13; 149 3; 
150 1; 151 6; 152 1; 153 1; 154 1; 
155 1; 156 1; 157 3; 158 2; 159 1; 
160 32; 161 13; 162 71; 163 15; 164 6; 
165 3; 166 1; 167 1; 168 1; 169 2; 
170 18; 171 5; 172 1; 173 3; 174 27; 
175 9; 176 51; 177 11; 178 1; 179 1; 
180 1; 181 14; 182 3; 183 272; 184 42; 
185 5; 186 2; 187 4; 188 18; 189 11; 
190 2; 191 1; 192 1; 193 1; 194 1; 
195 1; 196 1; 197 1; 198 1; 199 3; 
200 1; 201 185; 202 65; 203 472; 204 204; 
205 25; 206 1; 207 1; 208 1; 209 1; 
210 1; 211 1; 212 1; 213 1; 214 1; 
215 40; 216 1; 217 999; 218 161; 219 17; 
220 1; 221 1; 222 1; 223 1; 224 1; 
225 1; 226 1; 227 1; 228 1; 229 1; 
230 45; 231 95; 232 67; 233 11; 234 1; 
235 1; 236 1; 237 1; 238 1; 239 1; 
240 1; 241 1; 242 1; 243 1; 244 1; 
245 1; 246 11; 247 5; 248 1; 249 1; 
250 1; 251 1; 252 1; 253 2; 254 1; 
255 1; 256 1; 257 1; 258 1; 259 1; 
260 1; 261 1; 262 1; 263 1; 264 1; 
265 1; 266 1; 267 1; 268 1; 269 1; 
270 1; 271 1; 272 1; 273 1; 274 1; 
275 1; 276 1; 277 1; 278 1; 279 1; 
280 1; 281 1; 282 1; 283 1; 284 1; 
285 1; 286 1; 287 1; 288 1; 289 1; 
290 1; 291 1; 292 1; 293 1; 294 1; 
295 1; 296 1; 297 1; 298 1; 299 1; 
300 1; 301 1; 302 1; 303 1; 304 1; 
305 1; 306 1; 307 1; 308 1; 309 1; 
310 1; 311 1; 312 1; 313 1; 314 1; 
315 1; 316 1; 317 1; 318 1; 319 1; 
320 1; 321 1; 322 1; 323 1; 324 1; 
325 1; 326 1; 327 1; 328 1; 329 1; 
330 1; 331 1; 332 1; 333 1; 334 1; 
335 1; 336 1; 338 1; 339 1; 340 1; 
341 1; 342 1; 343 1; 344 1; 345 12; 
346 3; 347 1; 348 1; 349 1; 350 1; 
351 1; 352 1; 353 1; 354 1; 355 1; 
356 1; 357 1; 358 1; 359 2; 360 1; 
361 1; 362 1; 364 1; 365 1; 366 1; 
367 1; 368 1; 370 1; 371 1; 372 1; 
374 1; 375 1; 376 1; 377 1; 378 1; 
379 1; 380 1; 381 1; 382 1; 383 1; 
384 1; 385 1; 386 1; 387 1; 388 1; 
389 1; 390 1; 391 1; 392 1; 393 1; 
395 1; 396 1; 397 1; 398 1; 399 1; 
400 1; 401 1; 402 1; 403 1; 404 1; 
405 1; 406 1; 407 1; 408 1; 409 1; 
410 1; 411 1; 412 1; 413 1; 414 1; 
415 1; 416 1; 417 1; 418 1; 419 1; 
420 1; 421 1; 422 1; 423 1; 424 1; 
425 1; 426 1; 427 1; 428 1; 429 1; 
430 1; 431 1; 432 1; 433 1; 434 1; 
435 1; 436 1; 437 1; 438 1; 439 1; 
440 1; 442 1; 443 1; 444 1; 445 1; 
446 1; 447 1; 448 5; 449 3; 450 1; 
451 1; 
