Name: Bromadol
InChIKey: PRSUTWWKYIVBEU-HZCBDIJESA-N
Synon: trans-BDPC
Synon: trans-Bromadol
Synon: trans-4-(4-bromophenyl)-4-(dimethylamino)-1-(2-phenylethyl)-cyclohexanol
Formula: C22H28BrNO
MW: 401
ExactMass: 401.135427
CASNO: 77239986
ID: 4987
Comment: Provided by www.caymanchem.com/app/template/landing%2CForensic.vm / Item#15608 Batch#0522803
Num Peaks: 362
40 1; 41 22; 42 51; 43 31; 44 71; 
45 34; 46 51; 47 1; 48 1; 49 1; 
50 12; 51 29; 52 9; 53 10; 54 3; 
55 27; 56 26; 57 7; 58 14; 59 1; 
60 1; 61 1; 62 4; 63 17; 64 6; 
65 98; 66 10; 67 10; 68 10; 69 7; 
70 18; 71 7; 72 22; 73 3; 74 8; 
75 18; 76 25; 77 115; 78 69; 79 73; 
80 13; 81 8; 82 12; 83 5; 84 16; 
85 3; 86 1; 87 2; 88 3; 89 40; 
90 40; 91 919; 92 86; 93 9; 94 6; 
95 5; 96 15; 97 5; 98 4; 99 2; 
100 1; 101 12; 102 61; 103 79; 104 77; 
105 134; 106 7; 107 5; 108 11; 109 6; 
110 8; 111 2; 112 3; 113 4; 114 9; 
115 157; 116 129; 117 68; 118 11; 119 4; 
120 5; 121 5; 122 16; 123 17; 124 5; 
125 1; 126 14; 127 38; 128 124; 129 221; 
130 104; 131 55; 132 13; 133 44; 134 9; 
135 2; 136 13; 137 4; 138 7; 139 10; 
140 10; 141 62; 142 42; 143 73; 144 62; 
145 70; 146 32; 147 9; 148 3; 149 1; 
150 2; 151 2; 152 21; 153 32; 154 25; 
155 36; 156 26; 157 35; 158 35; 159 68; 
160 41; 161 8; 162 2; 163 7; 164 2; 
165 24; 166 7; 167 27; 168 6; 169 127; 
170 6; 171 103; 172 13; 173 3; 174 8; 
175 24; 176 2; 177 1; 178 2; 179 3; 
180 4; 181 17; 182 20; 183 45; 184 18; 
185 22; 186 4; 187 1; 188 1; 189 1; 
190 1; 191 1; 192 1; 193 6; 194 1; 
195 27; 196 30; 197 24; 198 33; 199 5; 
200 6; 201 1; 202 2; 203 1; 204 2; 
205 1; 206 1; 207 3; 208 6; 209 8; 
210 11; 211 6; 212 9; 213 2; 214 5; 
215 3; 216 1; 217 1; 218 1; 219 3; 
220 2; 221 20; 222 6; 223 17; 224 220; 
225 92; 226 216; 227 85; 228 66; 229 13; 
230 2; 231 1; 232 1; 233 1; 234 11; 
235 17; 236 16; 237 1; 238 919; 239 140; 
240 999; 241 144; 242 17; 243 1; 244 1; 
245 13; 246 92; 247 45; 248 8; 249 21; 
250 9; 251 11; 252 11; 253 12; 254 6; 
255 1; 256 1; 257 1; 258 1; 259 3; 
260 2; 261 4; 262 3; 263 2; 264 2; 
265 3; 266 3; 267 3; 268 2; 269 1; 
270 1; 271 1; 272 1; 273 1; 274 1; 
275 1; 276 1; 277 3; 278 6; 279 2; 
280 13; 281 4; 282 11; 283 3; 284 4; 
285 1; 286 1; 287 1; 288 1; 289 1; 
290 1; 291 1; 292 8; 293 1; 294 6; 
295 1; 296 4; 297 1; 298 4; 299 1; 
300 1; 301 1; 302 1; 303 1; 304 1; 
305 1; 306 1; 307 1; 308 1; 309 1; 
310 1; 311 1; 312 1; 313 1; 314 1; 
315 1; 316 1; 317 1; 318 1; 319 1; 
320 1; 321 1; 322 1; 323 1; 324 1; 
325 1; 326 1; 327 1; 328 1; 329 1; 
330 1; 331 1; 332 1; 333 1; 334 1; 
335 1; 336 2; 337 1; 338 7; 339 21; 
340 10; 341 20; 342 7; 343 1; 344 1; 
345 1; 346 1; 347 1; 348 1; 349 1; 
350 1; 351 1; 352 1; 353 1; 354 1; 
355 1; 356 6; 357 1; 358 8; 359 1; 
360 1; 361 1; 363 1; 364 1; 365 1; 
366 1; 367 1; 368 1; 369 1; 370 1; 
371 1; 372 3; 373 1; 374 3; 375 1; 
376 1; 379 1; 380 1; 381 1; 382 1; 
383 3; 384 1; 385 2; 386 1; 387 1; 
388 1; 389 1; 390 1; 391 1; 392 1; 
393 1; 394 1; 395 1; 397 1; 398 1; 
399 1; 400 1; 401 10; 402 5; 403 7; 
404 3; 405 1; 
