Name: 6.alpha.-Naltrexol
InChIKey: JLVNEHKORQFVQJ-SBCNTATESA-N
Synon: 17-(cyclopropylmethyl)-4,5.alpha.-epoxy-morphinan-3,6.alpha.,14-triol
Synon: 6.alpha.-Hydroxy Naltrexone
Formula: C20H25NO4
MW: 343
ExactMass: 343.178358
CASNO: 20410984
ID: 4988
Comment: Provided by www.caymanchem.com/app/template/landing%2CForensic.vm / Item#21975 Batch#0528283
Num Peaks: 307
40 2; 41 83; 42 82; 43 84; 44 55; 
45 4; 46 1; 47 1; 48 1; 49 1; 
50 7; 51 19; 52 10; 53 86; 54 50; 
55 915; 56 108; 57 72; 58 22; 59 1; 
60 2; 61 1; 62 3; 63 15; 64 9; 
65 41; 66 14; 67 33; 68 47; 69 38; 
70 37; 71 36; 72 13; 73 32; 74 3; 
75 8; 76 11; 77 95; 78 32; 79 35; 
80 31; 81 34; 82 82; 83 30; 84 177; 
85 45; 86 16; 87 3; 88 4; 89 28; 
90 12; 91 106; 92 14; 93 10; 94 26; 
95 16; 96 165; 97 60; 98 246; 99 39; 
100 8; 101 16; 102 36; 103 66; 104 19; 
105 36; 106 13; 107 23; 108 16; 109 11; 
110 390; 111 54; 112 29; 113 12; 114 16; 
115 212; 116 62; 117 56; 118 31; 119 21; 
120 14; 121 19; 122 12; 123 33; 124 20; 
125 6; 126 25; 127 86; 128 113; 129 63; 
130 32; 131 115; 132 32; 133 25; 134 29; 
135 12; 136 20; 137 10; 138 14; 139 38; 
140 9; 141 51; 142 27; 143 43; 144 60; 
145 66; 146 38; 147 88; 148 39; 149 16; 
150 11; 151 20; 152 43; 153 55; 154 29; 
155 37; 156 20; 157 67; 158 26; 159 41; 
160 61; 161 133; 162 52; 163 20; 164 18; 
165 29; 166 18; 167 20; 168 24; 169 20; 
170 27; 171 80; 172 39; 173 91; 174 75; 
175 80; 176 39; 177 15; 178 10; 179 7; 
180 14; 181 50; 182 36; 183 21; 184 57; 
185 82; 186 65; 187 137; 188 66; 189 63; 
190 25; 191 15; 192 11; 193 8; 194 7; 
195 17; 196 15; 197 47; 198 38; 199 81; 
200 98; 201 75; 202 140; 203 48; 204 25; 
205 18; 206 5; 207 5; 208 9; 209 14; 
210 16; 211 27; 212 18; 213 38; 214 52; 
215 34; 216 64; 217 30; 218 35; 219 12; 
220 64; 221 15; 222 5; 223 8; 224 17; 
225 21; 226 34; 227 33; 228 74; 229 36; 
230 34; 231 29; 232 27; 233 8; 234 4; 
235 5; 236 5; 237 11; 238 3; 239 5; 
240 17; 241 14; 242 61; 243 27; 244 43; 
245 15; 246 57; 247 20; 248 5; 249 2; 
250 3; 251 2; 252 17; 253 11; 254 53; 
255 28; 256 128; 257 25; 258 43; 259 15; 
260 25; 261 6; 262 1; 263 1; 264 1; 
265 2; 266 9; 267 8; 268 12; 269 14; 
270 60; 271 24; 272 53; 273 11; 274 5; 
275 1; 276 1; 277 1; 278 3; 279 2; 
280 6; 281 5; 282 24; 283 8; 284 46; 
285 6; 286 16; 287 2; 288 168; 289 31; 
290 4; 291 1; 292 1; 293 1; 294 1; 
295 1; 296 13; 297 13; 298 16; 299 13; 
300 16; 301 1; 302 341; 303 60; 304 6; 
305 1; 306 5; 307 7; 308 12; 309 2; 
310 7; 311 2; 312 1; 313 1; 314 10; 
315 19; 316 5; 317 1; 318 1; 319 1; 
320 1; 321 1; 322 1; 323 1; 324 59; 
325 30; 326 90; 327 19; 328 20; 329 3; 
330 1; 331 3; 332 1; 333 1; 334 1; 
335 1; 336 1; 337 1; 338 1; 340 1; 
341 6; 342 15; 343 999; 344 220; 345 27; 
346 3; 347 1; 
