Name: RCS-4-d9 (Not certified by NIST)
InChIKey: OZCYJKDWRUIFFE-KBUIAFKWSA-N
Synon: BTM-4-d9
Synon: E-4-d9
Synon: OBT-199-d9
Synon: SR-19-d9
Synon: (4-methoxyphenyl)(1-pentyl-d9-1H-indol-3-yl)methanone
Formula: C21H14D9NO2
MW: 330
ExactMass: 330.22937
CASNO: 0
ID: 4989
Comment: Note: Spectrum not certified by NIST / Provided by www.caymanchem.com/app/template/landing%2CForensic.vm / Item#10513 Batch#0529029
Num Peaks: 293
40 2; 41 4; 42 18; 43 2; 44 26; 
45 33; 46 69; 47 6; 48 82; 49 89; 
50 49; 51 15; 52 4; 53 6; 54 1; 
55 1; 56 2; 57 3; 58 2; 59 3; 
60 13; 61 14; 62 21; 63 51; 64 67; 
65 13; 66 6; 67 1; 68 1; 69 1; 
70 1; 71 1; 72 1; 73 5; 74 10; 
75 33; 76 54; 77 230; 78 41; 79 19; 
80 7; 81 2; 82 2; 83 3; 84 2; 
85 1; 86 3; 87 7; 88 22; 89 19; 
90 28; 91 12; 92 165; 93 13; 94 2; 
95 1; 96 7; 97 3; 98 2; 99 4; 
100 4; 101 37; 102 111; 103 50; 104 22; 
105 7; 106 10; 107 112; 108 18; 109 3; 
110 4; 111 4; 112 4; 113 4; 114 20; 
115 57; 116 48; 117 107; 118 21; 119 130; 
120 1; 121 6; 122 2; 123 1; 124 1; 
125 6; 126 10; 127 7; 128 81; 129 103; 
130 38; 131 69; 132 28; 133 8; 134 5; 
135 893; 136 78; 137 11; 138 3; 139 10; 
140 7; 141 4; 142 6; 143 22; 144 79; 
145 238; 146 30; 147 6; 148 1; 149 5; 
150 15; 151 47; 152 50; 153 29; 154 11; 
155 5; 156 12; 157 10; 158 4; 159 12; 
160 7; 161 4; 162 3; 163 24; 164 19; 
165 30; 166 9; 167 6; 168 3; 169 1; 
170 2; 171 5; 172 22; 173 5; 174 2; 
175 2; 176 11; 177 19; 178 43; 179 58; 
180 19; 181 15; 182 2; 183 1; 184 1; 
185 1; 186 1; 187 2; 188 6; 189 2; 
190 25; 191 31; 192 54; 193 41; 194 23; 
195 137; 196 23; 197 3; 198 1; 199 1; 
200 1; 201 1; 202 2; 203 5; 204 14; 
205 13; 206 19; 207 40; 208 25; 209 18; 
210 3; 211 1; 212 1; 213 1; 214 1; 
215 1; 216 1; 217 2; 218 2; 219 8; 
220 31; 221 27; 222 337; 223 719; 224 114; 
225 11; 226 1; 227 1; 229 1; 230 1; 
231 1; 232 3; 233 20; 234 10; 235 9; 
236 18; 237 12; 238 3; 239 1; 240 1; 
241 1; 242 1; 243 1; 244 1; 245 1; 
246 2; 247 2; 248 3; 249 15; 250 14; 
251 16; 252 17; 253 8; 254 1; 255 1; 
256 1; 257 1; 258 1; 259 1; 260 1; 
261 1; 262 2; 263 1; 264 674; 265 280; 
266 120; 267 31; 268 5; 269 1; 270 1; 
271 1; 272 1; 273 1; 274 1; 275 1; 
276 1; 277 1; 278 1; 279 1; 280 1; 
281 4; 282 4; 283 3; 284 1; 285 1; 
286 1; 287 12; 288 3; 289 1; 290 1; 
291 1; 292 1; 293 1; 294 1; 295 1; 
296 1; 297 2; 298 4; 299 36; 300 8; 
301 2; 302 1; 303 1; 304 1; 305 1; 
306 1; 307 1; 308 1; 309 2; 310 1; 
311 1; 312 38; 313 29; 314 7; 315 12; 
316 5; 317 1; 318 1; 319 1; 320 1; 
321 1; 322 1; 323 1; 324 1; 325 1; 
326 2; 327 7; 328 1; 330 999; 331 229; 
332 29; 333 2; 334 1; 
