Name: N-benzyl Furanyl norfentanyl
InChIKey: GDPJXHFICUEJBT-UHFFFAOYSA-N
Synon: N-Benzylfuranylfentanyl
Synon: Furanyl benzyl fentanyl
Synon: N-phenyl-N-[1-(phenylmethyl)-4-piperidinyl]-2-furancarboxamide
Formula: C23H24N2O2
MW: 360
ExactMass: 360.183779
CASNO: 497240218
ID: 4990
Comment: Provided by www.caymanchem.com/app/template/landing%2CForensic.vm / Item#25239 Batch#0531311 / SWGDRUG Monograph available
Num Peaks: 315
40 1; 41 14; 42 34; 43 4; 44 3; 
45 1; 46 1; 47 1; 48 1; 49 1; 
50 6; 51 23; 52 7; 53 9; 54 7; 
55 29; 56 19; 57 2; 58 1; 59 1; 
60 1; 61 1; 62 2; 63 14; 64 8; 
65 93; 66 12; 67 28; 68 9; 69 9; 
70 3; 71 1; 72 1; 73 1; 74 2; 
75 3; 76 5; 77 78; 78 14; 79 7; 
80 13; 81 6; 82 380; 83 24; 84 2; 
85 1; 86 1; 87 1; 88 1; 89 22; 
90 16; 91 999; 92 98; 93 17; 94 7; 
95 524; 96 67; 97 6; 98 1; 99 1; 
100 1; 101 1; 102 3; 103 9; 104 42; 
105 14; 106 13; 107 2; 108 1; 109 1; 
110 1; 111 1; 112 1; 113 1; 114 1; 
115 11; 116 5; 117 28; 118 60; 119 31; 
120 16; 121 2; 122 1; 123 1; 124 1; 
125 1; 126 1; 127 1; 128 4; 129 4; 
130 27; 131 14; 132 56; 133 10; 134 16; 
135 2; 136 1; 137 1; 138 2; 139 1; 
140 1; 141 1; 142 2; 143 4; 144 29; 
145 21; 146 195; 147 26; 148 3; 149 1; 
150 2; 151 1; 152 1; 153 1; 154 1; 
155 1; 156 4; 157 1; 158 41; 159 8; 
160 2; 161 1; 162 1; 163 1; 164 1; 
165 1; 166 1; 167 1; 168 1; 169 1; 
170 17; 171 8; 172 241; 173 182; 174 45; 
175 6; 176 1; 177 1; 178 1; 179 1; 
180 1; 181 1; 182 1; 183 1; 184 2; 
185 2; 186 1; 187 21; 188 25; 189 3; 
190 1; 191 1; 192 1; 193 1; 194 1; 
195 1; 196 1; 197 1; 198 2; 199 1; 
200 1; 201 1; 202 1; 203 1; 204 1; 
205 1; 206 1; 208 1; 209 1; 210 1; 
211 1; 212 3; 213 2; 214 5; 215 3; 
216 1; 217 1; 218 1; 219 1; 220 1; 
221 1; 222 1; 223 1; 224 1; 225 1; 
226 2; 227 1; 228 12; 229 4; 230 1; 
231 1; 232 1; 233 1; 234 1; 235 1; 
236 3; 237 8; 238 2; 239 1; 240 8; 
241 5; 242 1; 243 1; 244 1; 245 1; 
246 1; 247 1; 248 2; 249 14; 250 3; 
251 1; 252 1; 253 2; 254 1; 255 1; 
256 1; 257 1; 258 1; 259 1; 260 1; 
261 1; 262 1; 263 2; 265 598; 266 122; 
267 13; 268 1; 269 3; 270 1; 271 1; 
272 1; 273 1; 274 1; 275 1; 276 1; 
277 1; 278 1; 279 1; 280 1; 282 1; 
283 1; 284 1; 285 1; 286 1; 287 1; 
288 1; 289 1; 290 1; 291 1; 292 1; 
293 1; 294 1; 295 1; 296 1; 297 1; 
298 1; 299 1; 300 1; 301 1; 302 1; 
303 1; 304 1; 305 1; 306 1; 307 1; 
308 1; 309 1; 310 1; 311 1; 312 1; 
313 1; 314 1; 315 1; 316 1; 317 1; 
318 1; 319 1; 321 1; 322 1; 323 1; 
324 1; 325 1; 326 1; 327 1; 328 1; 
329 1; 330 1; 331 1; 332 1; 333 1; 
334 1; 337 1; 338 1; 339 1; 340 1; 
341 1; 342 1; 343 1; 344 1; 345 1; 
346 1; 347 1; 348 1; 349 1; 350 1; 
351 1; 352 1; 354 1; 355 1; 356 1; 
357 1; 359 1; 360 8; 361 2; 362 1; 
