Name: 2,2,3,3-Tetramethyl-Cyclopropyl fentanyl-d5 (Not certified by NIST)
InChIKey: BYCDHAVFKDTVAM-HKNPMVLWSA-N
Synon: 2,2,3,3-tetramethyl-N-(1-phenethylpiperidin-4-yl)-N-(phenyl-d5)cyclopropane-1-carboxamide
Formula: C27H31D5N2O
MW: 409
ExactMass: 409.314148
CASNO: 0
ID: 4991
Comment: Note: Spectrum not certified by NIST / Provided by www.caymanchem.com/app/template/landing%2CForensic.vm / Item#25133 Batch#0531828
Num Peaks: 361
40 1; 41 87; 42 86; 43 45; 44 17; 
45 1; 46 1; 47 1; 48 1; 49 1; 
50 4; 51 9; 52 6; 53 24; 54 19; 
55 222; 56 28; 57 94; 58 6; 59 1; 
60 1; 61 1; 62 2; 63 6; 64 2; 
65 32; 66 6; 67 48; 68 32; 69 108; 
70 51; 71 9; 72 1; 73 1; 74 1; 
75 1; 76 3; 77 43; 78 19; 79 68; 
80 16; 81 49; 82 111; 83 99; 84 24; 
85 3; 86 1; 87 1; 88 1; 89 7; 
90 4; 91 148; 92 16; 93 7; 94 17; 
95 45; 96 137; 97 112; 98 31; 99 6; 
100 1; 101 1; 102 4; 103 39; 104 27; 
105 218; 106 22; 107 5; 108 9; 109 54; 
110 31; 111 14; 112 2; 113 1; 114 1; 
115 3; 116 5; 117 7; 118 4; 119 4; 
120 5; 121 10; 122 21; 123 36; 124 23; 
125 999; 126 87; 127 6; 128 2; 129 2; 
130 10; 131 4; 132 10; 133 5; 134 48; 
135 30; 136 56; 137 55; 138 14; 139 31; 
140 2; 141 1; 142 1; 143 1; 144 4; 
145 1; 146 5; 147 4; 148 11; 149 9; 
150 20; 151 231; 153 4; 154 1; 155 1; 
156 2; 157 1; 158 4; 159 2; 160 22; 
161 5; 162 7; 163 36; 164 16; 165 6; 
166 1; 167 1; 168 1; 169 1; 170 1; 
171 1; 172 1; 173 1; 174 1; 175 1; 
176 2; 177 3; 178 6; 179 3; 180 2; 
181 1; 182 1; 183 1; 184 11; 185 9; 
186 36; 187 7; 188 43; 189 9; 190 3; 
191 11; 192 23; 193 27; 194 341; 195 48; 
196 2; 197 1; 198 1; 199 1; 200 1; 
201 1; 202 1; 203 1; 204 1; 205 6; 
206 1; 207 10; 208 2; 209 1; 210 1; 
211 1; 212 1; 213 1; 214 1; 215 1; 
216 1; 217 1; 218 1; 219 1; 220 1; 
221 1; 222 3; 223 3; 224 1; 225 1; 
226 1; 227 1; 228 1; 229 1; 230 1; 
231 3; 232 1; 233 1; 234 1; 235 1; 
236 1; 237 1; 238 1; 239 1; 240 1; 
241 1; 242 1; 243 1; 244 1; 245 1; 
246 1; 247 1; 248 1; 249 1; 250 1; 
251 1; 253 2; 254 1; 255 1; 256 1; 
257 1; 258 1; 259 1; 260 1; 261 1; 
262 1; 263 1; 264 1; 265 1; 266 1; 
267 1; 268 1; 269 1; 270 1; 271 1; 
272 1; 273 1; 274 1; 275 1; 276 2; 
277 1; 278 1; 279 1; 281 1; 282 1; 
283 2; 284 10; 285 4; 286 1; 287 1; 
288 1; 289 1; 290 1; 291 1; 293 1; 
294 1; 295 1; 296 1; 297 1; 298 1; 
299 1; 300 1; 301 1; 302 1; 303 1; 
304 1; 305 1; 306 1; 307 1; 308 1; 
309 1; 310 1; 311 1; 312 1; 313 1; 
314 1; 315 1; 316 1; 318 953; 319 211; 
320 25; 321 2; 322 1; 323 1; 324 1; 
325 1; 326 1; 327 1; 328 1; 329 1; 
330 1; 331 1; 332 1; 333 1; 334 1; 
335 1; 336 1; 337 1; 338 1; 339 1; 
340 1; 341 1; 342 1; 343 1; 344 1; 
345 1; 346 1; 347 1; 348 1; 349 1; 
350 1; 351 1; 352 1; 353 1; 354 1; 
355 1; 356 1; 357 1; 358 1; 359 1; 
360 1; 361 1; 362 1; 363 1; 364 1; 
365 1; 366 1; 367 1; 368 1; 369 1; 
370 1; 371 1; 373 1; 374 1; 375 1; 
376 1; 377 1; 378 1; 379 1; 380 1; 
382 1; 383 1; 386 1; 387 1; 388 1; 
389 1; 390 1; 391 1; 392 1; 393 1; 
394 1; 395 1; 396 1; 397 1; 398 1; 
399 1; 401 1; 402 1; 403 1; 404 1; 
405 1; 406 1; 407 3; 408 1; 409 1; 
410 1; 
