Name: Bromantane
InChIKey: LWJALJDRFBXHKX-UHFFFAOYSA-N
Synon: N-(4-bromophenyl)-tricyclo[3.3.1.13,7]decan-2-amine
Formula: C16H20BrN
MW: 305
ExactMass: 305.077911
CASNO: 87913266
ID: 4992
Comment: Provided by www.caymanchem.com/app/template/landing%2CForensic.vm / Item#24688 Batch#0531437
Num Peaks: 267
41 159; 42 16; 43 13; 44 1; 45 1; 
46 1; 47 1; 48 1; 49 1; 50 23; 
51 29; 52 19; 53 54; 54 28; 55 56; 
56 9; 57 3; 58 1; 59 1; 60 1; 
61 2; 62 7; 63 37; 64 23; 65 74; 
66 35; 67 237; 68 22; 69 23; 70 3; 
71 3; 72 1; 73 1; 74 11; 75 44; 
76 66; 77 206; 78 58; 79 318; 80 52; 
81 72; 82 12; 83 1; 84 4; 85 5; 
86 1; 87 1; 88 2; 89 14; 90 22; 
91 210; 92 67; 93 259; 94 28; 95 15; 
96 2; 97 1; 98 1; 99 3; 100 1; 
101 3; 102 17; 103 30; 104 39; 105 83; 
106 28; 107 111; 108 12; 109 1; 110 1; 
111 1; 112 1; 113 1; 114 2; 115 27; 
116 15; 117 45; 118 16; 119 17; 120 3; 
121 1; 122 1; 123 1; 124 1; 125 1; 
126 1; 127 7; 128 17; 129 23; 130 309; 
131 58; 132 15; 133 10; 134 7; 135 587; 
136 66; 137 1; 139 11; 140 12; 141 7; 
142 10; 143 42; 144 54; 145 23; 146 4; 
147 1; 148 1; 149 34; 150 6; 151 1; 
152 2; 153 3; 154 14; 155 75; 156 34; 
157 73; 158 9; 159 1; 160 1; 161 1; 
162 1; 163 1; 164 1; 165 2; 166 3; 
167 14; 168 21; 169 19; 170 11; 171 217; 
172 29; 173 209; 174 12; 175 1; 176 1; 
177 1; 178 1; 179 1; 180 6; 181 1; 
182 53; 183 1; 184 220; 185 25; 186 174; 
187 16; 188 1; 189 1; 190 1; 191 1; 
192 1; 193 2; 194 2; 195 4; 196 9; 
197 26; 198 8; 199 21; 200 3; 201 1; 
202 1; 203 1; 204 1; 205 1; 206 2; 
208 16; 209 1; 210 37; 211 10; 212 23; 
213 6; 214 1; 215 1; 216 1; 217 1; 
218 1; 219 1; 220 1; 221 2; 222 10; 
223 11; 224 30; 225 26; 226 33; 227 17; 
228 1; 229 1; 230 1; 231 1; 232 1; 
233 1; 234 8; 235 3; 236 15; 237 4; 
238 7; 239 2; 240 1; 241 1; 242 1; 
243 1; 244 1; 245 1; 246 1; 247 2; 
248 12; 249 5; 250 12; 251 3; 252 2; 
253 1; 254 1; 255 1; 256 1; 257 1; 
258 1; 259 1; 260 4; 261 1; 262 22; 
263 4; 264 24; 265 4; 266 7; 267 1; 
268 1; 269 1; 270 1; 271 1; 272 1; 
273 1; 274 1; 275 1; 276 8; 277 1; 
278 6; 279 1; 280 1; 282 1; 283 1; 
284 1; 285 1; 286 1; 287 1; 288 1; 
289 1; 290 2; 291 1; 292 1; 293 1; 
294 1; 295 1; 296 1; 297 1; 298 1; 
299 1; 300 1; 301 1; 302 1; 303 6; 
304 90; 305 999; 306 279; 307 960; 308 167; 
309 13; 310 1; 
