Name: Phenformin
InChIKey: ICFJFFQQTFMIBG-UHFFFAOYSA-N
Synon: N-(2-phenylethyl)-imidodicarbonimidic diamide
Formula: C10H15N5
MW: 205
ExactMass: 205.132746
CASNO: 114863
ID: 4993
Comment: Provided by www.caymanchem.com/app/template/landing%2CForensic.vm / Item#14997 Batch#0459937
Num Peaks: 142
41 20; 42 9; 43 3; 44 1; 45 1; 
46 1; 47 1; 48 1; 49 2; 50 29; 
51 55; 52 17; 53 15; 54 3; 55 76; 
56 2; 57 1; 58 1; 59 1; 60 1; 
61 5; 62 17; 63 49; 64 12; 65 144; 
66 10; 67 1; 68 2; 69 1; 70 1; 
71 1; 72 1; 73 2; 74 15; 75 11; 
76 13; 77 74; 78 42; 79 18; 80 2; 
81 1; 82 1; 83 1; 84 1; 85 1; 
86 4; 87 2; 88 1; 89 47; 90 19; 
91 999; 92 296; 93 19; 94 1; 96 1; 
97 1; 98 2; 99 1; 100 1; 101 3; 
102 10; 103 38; 104 71; 105 17; 106 2; 
107 1; 108 1; 110 1; 111 1; 112 1; 
114 1; 115 1; 116 4; 117 8; 118 3; 
119 4; 120 1; 121 1; 126 1; 127 1; 
128 5; 129 1; 130 1; 131 1; 132 1; 
134 1; 135 1; 136 1; 137 1; 138 1; 
139 1; 141 1; 142 1; 143 2; 144 2; 
145 3; 146 154; 147 16; 148 1; 149 1; 
151 1; 152 1; 155 1; 156 1; 157 1; 
158 1; 159 1; 162 1; 163 1; 165 1; 
166 1; 167 1; 168 1; 169 1; 170 1; 
171 1; 172 1; 173 1; 174 1; 175 1; 
177 1; 178 1; 180 1; 181 1; 182 1; 
183 1; 185 1; 186 1; 187 1; 188 1; 
191 1; 192 1; 193 1; 195 1; 196 1; 
197 1; 200 1; 201 1; 202 1; 204 1; 
205 1; 206 1; 
