Name: N,N-Dimethylamido-despropionyl fentanyl
InChIKey: CNNWEBFAZNLXKY-UHFFFAOYSA-N
Synon: N,N-Dimethylamido-4-ANPP
Synon: Urea fentanyl
Synon: N,N-dimethyl-N'-phenyl-N'-[1-(2-phenylethyl)-4-piperidinyl]-urea
Formula: C22H29N3O
MW: 351
ExactMass: 351.231062
CASNO: 1443501
ID: 4994
Comment: Provided by www.caymanchem.com/app/template/landing%2CForensic.vm / Item#23750 Batch#0530930
Num Peaks: 306
41 23; 42 91; 43 18; 44 18; 45 2; 
46 2; 47 1; 48 1; 49 1; 50 6; 
51 16; 52 5; 53 6; 54 7; 55 18; 
56 23; 57 9; 58 7; 59 1; 60 1; 
61 1; 62 3; 63 11; 64 11; 65 41; 
66 6; 67 12; 68 20; 69 19; 70 25; 
71 4; 72 999; 73 38; 74 5; 75 2; 
76 5; 77 100; 78 23; 79 42; 80 9; 
81 3; 82 17; 83 4; 84 5; 85 1; 
86 1; 87 1; 88 1; 89 8; 90 7; 
91 176; 92 21; 93 9; 94 13; 95 8; 
96 92; 97 13; 98 22; 99 1; 100 1; 
101 1; 102 4; 103 36; 104 48; 105 141; 
106 20; 107 2; 108 1; 109 1; 110 1; 
111 1; 112 1; 113 1; 114 1; 115 6; 
116 3; 117 17; 118 26; 119 38; 120 9; 
121 1; 122 1; 123 1; 124 1; 125 1; 
126 1; 127 1; 128 2; 129 2; 130 45; 
131 36; 132 53; 133 9; 134 5; 135 1; 
136 1; 137 1; 138 1; 139 9; 140 1; 
141 5; 142 1; 143 2; 144 9; 145 6; 
146 12; 147 6; 148 2; 149 1; 150 1; 
151 1; 152 1; 153 1; 154 1; 155 1; 
156 2; 157 1; 158 8; 159 7; 160 17; 
161 3; 162 1; 163 2; 164 6; 165 3; 
166 1; 167 1; 168 1; 169 1; 170 1; 
171 1; 172 4; 173 3; 174 1; 175 1; 
176 1; 177 1; 178 1; 179 1; 180 1; 
181 1; 182 1; 183 1; 184 8; 185 6; 
186 19; 187 17; 188 40; 189 8; 190 1; 
191 1; 192 1; 193 1; 194 1; 195 1; 
196 1; 197 1; 198 1; 199 1; 200 1; 
201 1; 202 1; 203 1; 204 1; 205 1; 
206 1; 208 1; 209 1; 210 1; 211 1; 
212 1; 213 1; 214 1; 215 3; 216 1; 
217 454; 218 66; 219 6; 220 1; 221 1; 
222 1; 223 1; 224 1; 225 1; 226 1; 
227 1; 228 1; 229 1; 230 1; 231 1; 
232 1; 233 1; 234 1; 235 1; 236 1; 
237 1; 238 1; 239 1; 240 1; 241 1; 
242 1; 243 1; 244 1; 245 1; 246 1; 
247 1; 248 1; 249 1; 250 1; 251 1; 
252 1; 253 1; 254 1; 255 1; 256 1; 
257 1; 258 2; 259 1; 260 617; 261 107; 
262 10; 263 1; 264 1; 265 1; 266 1; 
267 1; 268 1; 269 1; 270 1; 271 1; 
272 1; 273 1; 274 1; 275 1; 276 1; 
277 1; 278 1; 279 6; 280 1; 281 1; 
282 1; 285 1; 286 1; 287 1; 288 1; 
289 1; 290 1; 291 1; 292 1; 293 1; 
294 1; 295 1; 296 1; 297 1; 298 1; 
299 1; 300 1; 301 1; 302 1; 303 1; 
304 1; 305 1; 306 1; 307 2; 308 1; 
309 1; 310 1; 311 1; 312 1; 313 1; 
314 1; 315 1; 316 1; 317 1; 318 1; 
321 1; 322 1; 323 1; 324 1; 325 1; 
326 1; 327 1; 328 1; 329 1; 330 1; 
331 1; 332 1; 334 1; 335 1; 336 1; 
337 1; 338 1; 339 1; 340 1; 341 1; 
342 1; 343 1; 344 1; 345 1; 346 1; 
347 1; 348 1; 349 3; 350 1; 351 1; 
352 1; 
