Name: 1-Methyl-3-BZP
InChIKey: NJHPPXZJEYFKMD-UHFFFAOYSA-N
Synon: 3-Benzyl-1-methylpiperazine
Synon: 1-Methyl-3-(phenylmethyl)piperazine
Synon: 1-Methyl-3-benzylpiperazine
Formula: C12H18N2
MW: 190
ExactMass: 190.146998
CASNO: 137539254
ID: 4995
Comment: Provided by www.caymanchem.com/app/template/landing%2CForensic.vm / Item#24418 Batch#0524414
Num Peaks: 151
41 55; 42 283; 43 142; 44 94; 45 17; 
46 1; 47 1; 48 1; 49 1; 50 17; 
51 49; 52 15; 53 7; 54 37; 55 28; 
56 142; 57 54; 58 993; 59 37; 60 1; 
61 2; 62 10; 63 45; 64 13; 65 147; 
66 13; 67 5; 68 19; 69 21; 70 175; 
71 42; 72 9; 73 2; 74 7; 75 9; 
76 11; 77 86; 78 54; 79 14; 80 4; 
81 10; 82 13; 83 32; 84 30; 85 3; 
86 2; 87 4; 88 2; 89 52; 90 24; 
91 481; 92 148; 93 13; 94 1; 95 10; 
96 5; 97 32; 98 66; 99 999; 100 70; 
101 3; 102 15; 103 50; 104 38; 105 24; 
106 3; 107 1; 108 1; 109 1; 110 1; 
111 3; 112 1; 113 1; 114 2; 115 81; 
116 23; 117 122; 118 62; 119 27; 120 6; 
121 1; 122 1; 123 1; 124 1; 125 1; 
126 1; 127 2; 128 8; 129 11; 130 34; 
131 14; 132 40; 133 6; 134 1; 135 1; 
136 1; 138 1; 139 1; 140 1; 141 1; 
142 1; 143 2; 144 13; 145 5; 146 17; 
147 3; 148 1; 149 1; 150 1; 151 1; 
152 1; 153 1; 154 1; 155 1; 156 1; 
157 1; 158 2; 159 1; 160 2; 161 1; 
162 1; 163 1; 164 1; 165 1; 166 1; 
167 1; 168 1; 169 1; 170 1; 171 1; 
172 1; 173 1; 174 1; 175 1; 176 1; 
177 1; 178 1; 179 1; 180 1; 181 1; 
182 1; 183 1; 184 1; 185 1; 186 1; 
187 1; 188 6; 189 1; 190 14; 191 4; 
192 1; 
