Name: N-benzyl para-fluoro Cyclopropyl norfentanyl
InChIKey: DGFCHXNCEJHFDB-UHFFFAOYSA-N
Synon: para-fluoro Cyclopropyl benzyl fentanyl
Synon: N-(1-benzylpiperidin-4-yl)-N-(4-fluorophenyl)cyclopropanecarboxamide
Formula: C22H25FN2O
MW: 352
ExactMass: 352.195091
CASNO: 0
ID: 4996
Comment: Provided by www.caymanchem.com/app/template/landing%2CForensic.vm / Item#25238 Batch#0531312
Num Peaks: 315
40 9; 41 157; 42 39; 43 4; 44 3; 
45 1; 46 1; 47 1; 48 1; 49 1; 
50 6; 51 11; 52 7; 53 7; 54 6; 
55 25; 56 19; 57 7; 58 1; 59 1; 
60 1; 61 1; 62 1; 63 10; 64 3; 
65 77; 66 6; 67 7; 68 11; 69 242; 
70 14; 71 1; 72 1; 73 2; 74 2; 
75 19; 76 2; 77 11; 78 7; 79 11; 
80 14; 81 7; 82 767; 83 61; 84 7; 
85 1; 86 2; 87 1; 88 1; 89 21; 
90 15; 91 999; 92 92; 93 4; 94 5; 
95 53; 96 37; 97 4; 98 1; 99 2; 
100 1; 101 1; 102 1; 103 5; 104 16; 
105 9; 106 19; 107 5; 108 2; 109 27; 
110 12; 111 44; 112 5; 113 1; 114 1; 
115 4; 116 3; 117 15; 118 37; 119 20; 
120 17; 121 5; 122 27; 123 6; 124 8; 
125 1; 126 1; 127 1; 128 1; 129 2; 
130 6; 131 5; 132 93; 133 18; 134 10; 
135 13; 136 32; 137 30; 138 16; 139 2; 
140 1; 141 1; 142 1; 143 2; 144 35; 
145 40; 146 93; 147 13; 148 20; 149 3; 
150 23; 151 5; 152 20; 153 2; 154 1; 
155 1; 156 2; 157 1; 158 27; 159 5; 
160 2; 161 3; 162 6; 163 5; 164 30; 
165 3; 166 2; 167 1; 168 1; 169 1; 
170 10; 171 3; 172 190; 173 174; 174 85; 
175 12; 176 24; 177 3; 178 2; 179 10; 
180 15; 181 2; 182 1; 183 1; 184 1; 
185 1; 186 1; 187 1; 188 1; 189 1; 
190 9; 191 5; 192 2; 193 8; 194 1; 
195 1; 196 1; 197 1; 198 1; 199 1; 
200 1; 201 1; 202 1; 203 1; 204 2; 
205 2; 206 1; 207 7; 208 1; 209 2; 
210 1; 211 1; 212 1; 213 1; 214 1; 
215 4; 216 2; 217 1; 218 3; 219 1; 
220 19; 221 3; 222 1; 223 1; 224 1; 
225 1; 226 1; 227 1; 228 1; 229 2; 
230 1; 231 1; 232 2; 233 4; 234 1; 
235 1; 236 1; 237 1; 238 1; 239 2; 
240 1; 241 1; 242 1; 243 2; 244 1; 
245 1; 246 1; 247 1; 248 1; 249 1; 
250 1; 251 1; 252 1; 253 2; 254 3; 
255 2; 256 1; 257 1; 258 1; 259 1; 
260 1; 261 18; 262 3; 263 1; 264 1; 
265 1; 266 2; 267 19; 268 4; 269 1; 
270 1; 271 1; 272 1; 273 1; 274 1; 
275 2; 276 1; 277 1; 278 1; 279 1; 
280 1; 281 4; 282 1; 283 118; 284 14; 
285 2; 286 1; 287 1; 288 1; 289 1; 
290 1; 291 1; 292 1; 293 1; 294 1; 
295 1; 296 1; 297 1; 298 1; 299 1; 
300 1; 301 1; 302 1; 303 1; 304 1; 
305 1; 306 1; 307 1; 308 1; 309 1; 
310 1; 311 1; 312 1; 313 1; 314 1; 
315 1; 316 1; 317 1; 318 1; 319 1; 
320 1; 321 1; 322 1; 323 1; 324 1; 
325 1; 326 1; 327 1; 328 1; 329 1; 
330 1; 331 1; 332 1; 333 1; 334 1; 
335 1; 336 1; 337 1; 338 1; 339 1; 
340 1; 341 1; 342 1; 343 1; 344 1; 
345 1; 346 1; 347 1; 348 1; 349 1; 
350 1; 351 3; 352 51; 353 9; 354 1; 
