Name: 4-Ethyl Pentedrone
InChIKey: TZVVTYDGJFNOBQ-UHFFFAOYSA-N
Synon: para-Ethyl Pentedrone
Synon: 4-EPD
Synon: p-EPD
Synon: 4-Ethyl-.alpha.-methylamino-Valerophenone
Synon: para-Ethyl-.alpha.-methylamino-Valerophenone
Synon: p-Ethyl-.alpha.-methylamino-Valerophenone
Synon: 1-(4-ethylphenyl)-2-(methylamino)pentan-1-one
Formula: C14H21NO
MW: 219
ExactMass: 219.162314
CASNO: 0
ID: 4997
Comment: Provided by www.caymanchem.com/app/template/landing%2CForensic.vm / Item#22993 Batch#0533926
Num Peaks: 181
40 2; 41 20; 42 47; 43 14; 44 155; 
45 4; 46 1; 47 1; 48 1; 49 1; 
50 6; 51 14; 52 4; 53 7; 54 4; 
55 16; 56 31; 57 37; 58 22; 59 1; 
60 1; 61 1; 62 3; 63 13; 64 5; 
65 10; 66 2; 67 1; 68 6; 69 2; 
70 26; 71 5; 72 1; 73 1; 74 3; 
75 5; 76 8; 77 78; 78 24; 79 65; 
80 5; 81 1; 82 1; 83 1; 84 49; 
85 6; 86 999; 87 61; 88 2; 89 35; 
90 34; 91 20; 92 2; 93 1; 94 1; 
95 1; 96 1; 97 1; 98 1; 99 1; 
100 1; 101 1; 102 8; 103 46; 104 16; 
105 36; 106 4; 107 1; 108 1; 109 1; 
110 1; 111 1; 112 1; 113 1; 114 1; 
115 6; 116 2; 117 4; 118 5; 119 5; 
120 1; 121 1; 122 1; 123 1; 124 1; 
125 1; 126 1; 127 1; 128 3; 129 2; 
130 2; 131 4; 132 2; 133 63; 134 8; 
135 1; 136 1; 137 1; 138 1; 139 1; 
140 1; 141 1; 142 1; 143 1; 144 2; 
145 2; 146 3; 147 7; 148 8; 149 1; 
150 1; 151 1; 152 1; 153 1; 154 1; 
155 1; 156 1; 157 1; 158 1; 159 1; 
160 3; 161 3; 162 1; 163 1; 164 1; 
165 1; 166 1; 167 1; 168 1; 169 1; 
170 1; 171 1; 172 1; 173 1; 174 2; 
175 1; 176 11; 177 2; 178 1; 179 1; 
180 1; 181 1; 182 1; 183 1; 184 1; 
185 1; 186 1; 187 1; 188 1; 189 1; 
190 1; 191 1; 192 1; 193 1; 194 1; 
195 1; 196 1; 197 1; 198 1; 199 1; 
200 1; 201 1; 202 1; 203 1; 204 1; 
205 1; 206 1; 207 1; 208 1; 209 1; 
210 1; 211 1; 212 1; 213 1; 214 1; 
215 1; 216 1; 217 1; 218 1; 219 1; 
220 1; 
