Name: 3-Hydroxy-PCP
InChIKey: AMSXTZUCNOKUEN-UHFFFAOYSA-N
Synon: PCP-3-OH
Synon: 3-[1-(1-piperidinyl)cyclohexyl]-phenol
Formula: C17H25NO
MW: 259
ExactMass: 259.193615
CASNO: 79787432
ID: 4998
Comment: Provided by www.caymanchem.com/app/template/landing%2CForensic.vm / Item#14421 Batch#0528340
Num Peaks: 217
40 16; 41 110; 42 70; 43 31; 44 24; 
45 1; 46 1; 47 1; 48 1; 49 1; 
50 12; 51 27; 52 12; 53 36; 54 27; 
55 94; 56 85; 57 44; 58 4; 59 1; 
60 1; 61 1; 62 8; 63 30; 64 16; 
65 72; 66 20; 67 44; 68 20; 69 17; 
70 23; 71 1; 72 3; 73 2; 74 7; 
75 10; 76 9; 77 120; 78 37; 79 86; 
80 46; 81 77; 82 25; 83 22; 84 311; 
85 83; 86 45; 87 10; 88 4; 89 30; 
90 12; 91 102; 92 16; 93 14; 94 31; 
95 10; 96 4; 97 1; 98 7; 99 1; 
100 1; 101 6; 102 14; 103 44; 104 13; 
105 54; 106 8; 107 287; 108 42; 109 5; 
110 5; 111 1; 112 1; 113 2; 114 3; 
115 91; 116 34; 117 47; 118 25; 119 37; 
120 104; 121 22; 122 7; 123 1; 124 9; 
125 1; 126 3; 127 48; 128 39; 129 35; 
130 13; 131 109; 132 31; 133 91; 134 21; 
135 5; 136 5; 137 1; 138 1; 139 4; 
140 1; 141 17; 142 6; 143 4; 144 29; 
145 167; 146 117; 147 21; 148 10; 149 1; 
150 3; 151 2; 152 6; 153 4; 154 2; 
155 3; 156 2; 157 18; 158 11; 159 86; 
160 31; 161 12; 162 4; 163 1; 164 6; 
165 1; 166 191; 167 24; 168 2; 169 1; 
170 4; 171 4; 172 13; 173 26; 174 224; 
175 45; 176 23; 177 5; 178 8; 179 1; 
180 1; 181 1; 182 1; 183 1; 184 1; 
185 1; 186 11; 187 10; 188 13; 189 2; 
190 9; 191 1; 192 1; 194 1; 195 1; 
196 1; 197 1; 198 1; 199 1; 200 7; 
201 1; 202 194; 203 32; 204 4; 205 1; 
206 1; 208 1; 210 1; 211 1; 212 1; 
213 1; 214 9; 215 1; 216 999; 217 155; 
218 14; 219 1; 220 1; 221 1; 222 1; 
223 1; 224 1; 225 1; 226 1; 227 1; 
228 1; 229 1; 230 23; 231 5; 232 1; 
233 1; 235 1; 236 1; 238 1; 239 1; 
240 1; 241 1; 242 10; 243 1; 244 1; 
245 1; 246 1; 248 1; 249 1; 250 1; 
251 1; 252 1; 253 1; 254 1; 255 1; 
256 1; 257 1; 258 339; 259 324; 260 62; 
261 5; 262 1; 
