Name: 3'-Fluoro ortho-Fluorofentanyl
InChIKey: XIHMBSWTNQURLE-UHFFFAOYSA-N
Synon: 3',2-Difluorofentanyl
Synon: ortho-fluoro 3'-Fluorofentanyl
Synon: N-(1-(3-fluorophenethyl)piperidin-4-yl)-N-(2-fluorophenyl)propionamide
Formula: C22H26F2N2O
MW: 372
ExactMass: 372.20132
CASNO: 0
ID: 4999
Comment: Provided by www.caymanchem.com/app/template/landing%2CForensic.vm / Item#23971 Batch#0532226
Num Peaks: 329
41 26; 42 116; 43 17; 44 65; 45 2; 
46 1; 47 1; 48 1; 49 1; 50 4; 
51 7; 52 5; 53 7; 54 10; 55 29; 
56 24; 57 184; 58 8; 59 2; 60 1; 
61 2; 62 2; 63 8; 64 4; 65 5; 
66 2; 67 20; 68 27; 69 28; 70 44; 
71 4; 72 1; 73 2; 74 4; 75 27; 
76 5; 77 35; 78 6; 79 7; 80 11; 
81 10; 82 29; 83 54; 84 17; 85 1; 
86 1; 87 1; 88 1; 89 7; 90 8; 
91 5; 92 2; 93 4; 94 22; 95 68; 
96 140; 97 30; 98 6; 99 1; 100 1; 
101 17; 102 12; 103 84; 104 9; 105 1; 
106 1; 107 9; 108 7; 109 141; 110 26; 
111 93; 112 14; 113 1; 114 1; 115 2; 
116 2; 117 3; 118 3; 119 1; 120 3; 
121 18; 122 84; 123 89; 124 23; 125 2; 
126 1; 127 1; 128 2; 129 2; 130 13; 
131 1; 132 3; 133 5; 134 4; 135 22; 
136 57; 137 23; 138 10; 139 8; 140 1; 
141 1; 142 1; 143 1; 144 6; 145 1; 
146 3; 147 3; 148 45; 149 42; 150 78; 
151 12; 152 9; 153 1; 154 1; 155 1; 
156 1; 157 1; 158 1; 159 1; 160 1; 
161 1; 162 9; 163 6; 164 515; 165 57; 
166 8; 167 11; 168 3; 169 1; 170 1; 
171 1; 172 1; 173 1; 174 2; 175 1; 
176 23; 177 8; 178 26; 179 4; 180 1; 
181 1; 182 1; 183 1; 184 1; 185 1; 
186 1; 187 1; 188 1; 189 1; 190 2; 
191 3; 192 1; 193 1; 194 1; 195 1; 
196 1; 197 1; 198 1; 199 1; 200 2; 
201 1; 202 11; 203 9; 204 25; 205 17; 
206 9; 207 341; 208 46; 209 3; 210 1; 
211 1; 212 1; 213 1; 214 1; 215 1; 
216 1; 217 1; 218 1; 219 1; 220 63; 
221 9; 222 1; 223 1; 224 1; 225 1; 
226 1; 227 1; 228 1; 229 1; 230 1; 
231 1; 232 1; 233 1; 234 3; 235 1; 
236 1; 237 1; 238 1; 239 1; 240 1; 
241 1; 242 1; 243 1; 244 1; 245 1; 
246 1; 247 1; 248 1; 249 1; 250 1; 
251 1; 252 1; 253 1; 254 1; 255 1; 
256 1; 257 1; 258 1; 259 1; 260 1; 
261 1; 262 1; 263 999; 264 166; 265 16; 
266 1; 267 1; 268 1; 269 1; 270 1; 
271 1; 272 1; 273 1; 274 1; 275 1; 
276 1; 277 1; 278 1; 279 1; 281 1; 
282 1; 283 1; 284 1; 285 1; 286 1; 
287 1; 288 1; 289 1; 290 1; 292 1; 
293 1; 294 1; 295 1; 296 1; 297 1; 
298 1; 299 1; 300 1; 301 1; 302 1; 
303 1; 304 1; 305 1; 306 1; 307 1; 
308 1; 309 1; 310 1; 311 1; 312 1; 
313 1; 314 1; 315 3; 316 1; 317 1; 
318 1; 319 1; 320 1; 321 1; 322 1; 
323 1; 324 1; 325 1; 326 1; 327 1; 
328 1; 329 1; 330 1; 331 1; 332 1; 
333 1; 334 1; 335 1; 336 1; 337 1; 
338 1; 339 1; 340 1; 341 1; 342 1; 
343 1; 344 1; 345 1; 346 1; 347 1; 
348 1; 349 1; 350 1; 351 1; 352 1; 
353 1; 354 1; 355 1; 356 1; 357 1; 
358 1; 359 1; 360 1; 361 1; 362 1; 
363 1; 365 1; 366 1; 368 1; 369 1; 
370 5; 371 1; 372 1; 373 1; 
