Name: Diampromide
InChIKey: RXTHKWVSXOIHJS-UHFFFAOYSA-N
Synon: N-[2-[methyl(2-phenylethyl)amino]propyl]-N-phenyl-propanamide
Formula: C21H28N2O
MW: 324
ExactMass: 324.220163
CASNO: 552250
ID: 5001
Comment: Provided by www.caymanchem.com/app/template/landing%2CForensic.vm / Item#25079 Batch#0528757
Num Peaks: 270
40 1; 41 6; 42 28; 43 8; 44 8; 
45 1; 46 1; 47 1; 48 1; 49 1; 
50 3; 51 13; 52 3; 53 2; 54 2; 
55 4; 56 37; 57 65; 58 17; 59 1; 
60 1; 61 1; 62 1; 63 5; 64 3; 
65 21; 66 3; 67 1; 68 1; 69 1; 
70 22; 71 36; 72 5; 73 1; 74 1; 
75 2; 76 3; 77 88; 78 20; 79 53; 
80 4; 81 1; 82 1; 83 1; 84 16; 
85 1; 86 1; 87 1; 88 1; 89 5; 
90 3; 91 79; 92 10; 93 10; 94 2; 
95 1; 96 1; 97 1; 98 1; 99 1; 
100 1; 101 1; 102 3; 103 36; 104 42; 
105 331; 106 82; 107 7; 108 1; 109 1; 
110 1; 111 1; 112 1; 113 1; 114 1; 
115 3; 116 2; 117 9; 118 11; 119 12; 
120 4; 121 1; 122 1; 124 1; 125 1; 
126 1; 127 1; 128 6; 129 2; 130 6; 
131 4; 132 13; 133 7; 134 63; 135 6; 
136 1; 137 1; 138 1; 139 1; 140 1; 
141 1; 142 1; 143 1; 144 5; 145 3; 
146 4; 147 1; 148 2; 149 1; 150 1; 
151 1; 152 1; 153 1; 154 1; 155 1; 
156 1; 157 1; 158 1; 159 2; 160 22; 
161 10; 162 999; 163 124; 164 7; 165 1; 
166 1; 167 1; 168 1; 169 1; 170 1; 
171 1; 172 2; 173 1; 174 2; 175 27; 
176 5; 177 1; 178 1; 179 1; 180 1; 
181 1; 182 1; 183 1; 184 1; 185 1; 
186 1; 187 1; 188 1; 190 134; 191 19; 
192 1; 193 1; 194 1; 195 1; 196 1; 
197 1; 198 1; 199 1; 200 1; 201 1; 
202 1; 203 1; 204 1; 205 1; 206 1; 
209 1; 210 1; 211 1; 212 1; 213 1; 
214 1; 215 1; 216 1; 217 1; 218 1; 
219 1; 220 1; 221 1; 222 1; 223 1; 
224 1; 225 1; 226 1; 229 1; 230 1; 
231 1; 232 1; 233 19; 234 3; 235 1; 
236 1; 237 1; 238 1; 239 1; 240 1; 
241 1; 242 1; 243 1; 244 1; 245 1; 
246 1; 247 1; 248 1; 249 1; 250 1; 
251 1; 252 1; 253 1; 254 1; 255 1; 
256 1; 257 1; 259 1; 260 1; 261 1; 
262 1; 263 1; 265 1; 266 1; 267 1; 
268 1; 269 1; 270 1; 271 1; 272 1; 
273 1; 274 1; 277 1; 278 1; 280 1; 
283 1; 284 1; 285 1; 286 1; 287 1; 
288 1; 289 1; 290 1; 291 1; 292 1; 
293 1; 294 1; 295 1; 296 1; 297 1; 
298 1; 299 1; 301 1; 303 1; 304 1; 
305 1; 306 1; 307 1; 308 1; 309 1; 
310 1; 311 1; 312 1; 313 1; 315 1; 
316 1; 317 1; 318 1; 319 1; 320 1; 
321 1; 322 3; 323 1; 324 1; 325 1; 
