Name: Benzodioxole fentanyl-d5 (Not certified by NIST)
InChIKey: ZFAAZMIOHJNKGD-OUHXUHDZSA-N
Synon: N-(1-phenethylpiperidin-4-yl)-N-(phenyl-d5)benzo[d][1,3]dioxole-5-carboxamide
Formula: C27H23D5N2O3
MW: 433
ExactMass: 433.241377
CASNO: 0
ID: 5002
Comment: Note: Spectrum not certified by NIST / Provided by www.caymanchem.com/app/template/landing%2CForensic.vm / Item#25131 Batch#0534004
Num Peaks: 393
40 2; 41 17; 42 54; 43 10; 44 4; 
45 2; 46 1; 47 1; 48 1; 49 1; 
50 8; 51 11; 52 8; 53 8; 54 10; 
55 5; 56 5; 57 4; 58 1; 59 1; 
60 1; 61 3; 62 5; 63 20; 64 7; 
65 81; 66 6; 67 8; 68 10; 69 8; 
70 24; 71 3; 72 1; 73 13; 74 3; 
75 2; 76 4; 77 19; 78 28; 79 40; 
80 7; 81 8; 82 52; 83 7; 84 6; 
85 1; 86 1; 87 1; 88 1; 89 5; 
90 3; 91 110; 92 9; 93 4; 94 15; 
95 4; 96 122; 97 7; 98 48; 99 5; 
100 1; 101 1; 102 4; 103 17; 104 20; 
105 85; 106 8; 107 3; 108 3; 109 19; 
110 2; 111 2; 112 1; 113 1; 114 1; 
115 2; 116 1; 117 2; 118 2; 119 7; 
120 5; 121 105; 122 17; 123 6; 124 5; 
125 2; 126 1; 127 1; 128 1; 129 2; 
130 7; 131 3; 132 4; 133 13; 134 23; 
135 15; 136 10; 137 16; 138 3; 139 1; 
140 1; 141 1; 142 1; 143 2; 144 3; 
145 2; 146 4; 147 7; 148 3; 149 999; 
150 92; 151 34; 152 2; 153 2; 154 1; 
155 1; 156 2; 157 1; 158 3; 159 1; 
160 7; 161 1; 162 1; 163 13; 164 3; 
165 4; 166 1; 167 1; 168 1; 169 1; 
170 2; 171 2; 172 2; 173 1; 174 1; 
175 1; 176 2; 177 2; 178 2; 179 1; 
180 2; 181 1; 182 2; 183 1; 184 14; 
185 10; 186 7; 187 7; 188 2; 189 2; 
190 1; 191 3; 192 9; 193 12; 194 5; 
195 3; 196 1; 197 1; 198 1; 199 1; 
200 1; 201 1; 202 1; 203 1; 204 1; 
205 2; 206 1; 207 16; 208 5; 209 5; 
210 1; 211 1; 212 1; 213 1; 214 1; 
215 1; 216 1; 217 1; 218 1; 219 1; 
220 1; 221 1; 222 1; 223 1; 224 1; 
225 1; 226 1; 227 1; 228 2; 229 18; 
230 17; 231 4; 232 1; 233 1; 234 1; 
235 1; 236 1; 237 1; 238 1; 239 1; 
240 1; 241 1; 242 1; 243 1; 244 1; 
245 1; 246 6; 247 1; 248 1; 249 1; 
250 1; 251 2; 252 1; 253 10; 254 3; 
255 1; 256 1; 257 1; 258 1; 259 1; 
260 1; 261 1; 262 1; 263 1; 264 1; 
265 1; 266 1; 267 4; 268 1; 269 4; 
270 1; 271 1; 272 1; 273 1; 274 1; 
275 1; 276 1; 277 1; 278 1; 279 1; 
280 1; 281 13; 282 9; 283 5; 284 3; 
285 2; 286 1; 287 1; 288 1; 289 1; 
290 1; 291 1; 292 1; 293 1; 294 1; 
295 1; 296 1; 297 1; 298 1; 299 6; 
300 1; 301 1; 302 1; 303 1; 304 1; 
305 1; 306 1; 307 1; 308 1; 309 1; 
310 1; 311 1; 312 1; 313 1; 314 1; 
315 1; 316 1; 317 1; 318 1; 319 1; 
320 1; 321 1; 322 1; 323 1; 324 1; 
325 1; 326 1; 327 2; 328 1; 329 1; 
330 1; 331 1; 332 2; 333 1; 334 1; 
335 1; 336 1; 337 1; 338 1; 339 1; 
340 1; 341 1; 342 396; 343 89; 344 9; 
345 2; 346 2; 347 1; 348 1; 349 1; 
350 1; 351 1; 352 1; 353 1; 354 1; 
355 5; 356 2; 357 2; 358 1; 359 1; 
360 1; 361 1; 362 1; 363 1; 364 1; 
365 1; 366 1; 367 1; 368 1; 369 1; 
370 1; 371 1; 373 1; 374 1; 375 1; 
377 1; 378 1; 379 1; 380 1; 381 1; 
382 1; 383 1; 384 1; 385 1; 386 1; 
387 1; 388 1; 389 1; 390 1; 391 1; 
392 1; 393 1; 394 1; 395 1; 396 1; 
397 1; 398 1; 399 1; 400 1; 401 1; 
402 1; 403 1; 404 1; 405 3; 406 1; 
407 1; 408 1; 409 1; 410 1; 411 1; 
412 1; 413 1; 414 1; 415 1; 416 1; 
417 1; 418 1; 419 1; 420 1; 421 1; 
422 1; 423 1; 424 1; 425 1; 426 1; 
427 1; 428 1; 429 1; 430 1; 431 2; 
432 1; 433 1; 434 1; 
