Name: 5-Bromo-APINACA
InChIKey: JKYXWDCDKGVNGP-UHFFFAOYSA-N
Synon: 5-Br-AKB48
Synon: 5-Bromo-AKB48
Formula: C23H30BrN3O
MW: 443
ExactMass: 443.157225
CASNO: 2147483647
ID: 5003
Comment: Provided by www.caymanchem.com/app/template/landing%2CForensic.vm / Item#25209 Batch#0532758 / SWGDRUG Monograph available
Num Peaks: 409
40 2; 41 290; 42 39; 43 49; 44 10; 
45 4; 46 1; 47 2; 48 1; 49 2; 
50 5; 51 16; 52 9; 53 32; 54 18; 
55 112; 56 36; 57 26; 58 23; 59 3; 
60 1; 61 2; 62 7; 63 11; 64 9; 
65 35; 66 44; 67 185; 68 30; 69 246; 
70 18; 71 3; 72 4; 73 42; 74 6; 
75 17; 76 24; 77 250; 78 44; 79 315; 
80 143; 81 69; 82 125; 83 4; 84 1; 
85 4; 86 1; 87 5; 88 36; 89 34; 
90 138; 91 191; 92 221; 93 387; 94 244; 
95 33; 96 11; 97 4; 98 2; 99 1; 
100 2; 101 3; 102 91; 103 253; 104 62; 
105 76; 106 48; 107 104; 108 58; 109 34; 
110 3; 111 1; 112 1; 113 1; 114 2; 
115 18; 116 17; 117 98; 118 38; 119 44; 
120 45; 121 14; 122 10; 123 4; 124 2; 
125 6; 126 11; 127 9; 128 13; 129 101; 
130 94; 131 413; 132 49; 133 57; 134 34; 
135 399; 136 70; 137 9; 138 2; 139 2; 
140 2; 141 2; 142 3; 143 12; 144 57; 
145 813; 146 76; 147 16; 148 11; 149 18; 
150 564; 151 56; 152 6; 153 4; 154 4; 
155 6; 156 28; 157 20; 158 22; 159 8; 
160 6; 161 5; 162 2; 163 2; 164 1; 
165 8; 166 4; 167 4; 168 4; 169 12; 
170 8; 171 71; 172 10; 173 3; 174 61; 
175 18; 176 7; 177 16; 178 3; 179 4; 
180 3; 181 4; 182 5; 183 6; 184 7; 
185 97; 186 15; 187 21; 188 5; 189 4; 
190 3; 191 15; 192 3; 193 5; 194 3; 
195 7; 196 3; 197 8; 198 5; 199 10; 
200 5; 201 4; 202 4; 203 2; 204 2; 
205 4; 206 2; 207 183; 208 51; 209 67; 
210 6; 211 16; 212 6; 213 522; 214 81; 
215 167; 216 19; 217 3; 218 1; 219 3; 
220 1; 221 2; 222 3; 223 6; 224 3; 
225 4; 226 5; 227 2; 228 5; 229 1; 
230 8; 231 3; 232 5; 233 1; 234 1; 
235 4; 236 4; 237 10; 238 20; 239 10; 
240 5; 241 2; 242 7; 243 2; 244 1; 
245 1; 246 1; 247 2; 248 1; 249 10; 
250 9; 251 16; 252 5; 253 32; 254 13; 
255 7; 256 1; 257 1; 258 1; 259 2; 
260 1; 261 1; 262 2; 263 12; 264 7; 
265 38; 266 12; 267 33; 268 7; 269 22; 
270 7; 271 2; 272 1; 273 1; 274 2; 
275 2; 276 1; 277 5; 278 19; 279 13; 
280 102; 281 65; 282 74; 283 17; 284 5; 
285 1; 286 1; 287 1; 288 1; 289 1; 
290 1; 291 5; 292 1; 293 613; 294 999; 
295 753; 296 75; 297 7; 298 1; 299 1; 
300 1; 301 1; 302 1; 303 1; 304 1; 
305 3; 306 14; 307 4; 308 59; 309 15; 
310 14; 311 5; 312 2; 313 3; 314 2; 
315 3; 316 2; 317 2; 318 7; 319 20; 
320 25; 321 16; 322 5; 323 4; 324 3; 
325 5; 326 2; 327 12; 328 3; 329 4; 
330 3; 331 15; 332 6; 333 2; 334 4; 
335 19; 336 7; 337 60; 338 11; 339 1; 
340 1; 341 11; 342 4; 343 24; 344 6; 
345 18; 346 6; 347 5; 348 9; 349 13; 
350 14; 351 14; 352 5; 353 2; 354 1; 
355 17; 356 3; 357 3; 358 114; 359 26; 
360 62; 361 17; 362 15; 363 11; 364 13; 
365 61; 366 5; 367 1; 368 2; 369 1; 
370 1; 371 1; 372 2; 373 3; 374 6; 
375 6; 376 7; 377 7; 378 1; 379 1; 
380 1; 381 1; 382 1; 383 1; 384 1; 
385 2; 386 155; 387 14; 388 154; 389 28; 
390 3; 391 2; 392 1; 393 1; 394 1; 
395 1; 396 1; 397 2; 398 75; 399 26; 
400 87; 401 14; 402 6; 403 6; 404 3; 
405 15; 406 3; 407 2; 408 1; 409 1; 
410 1; 411 1; 412 1; 413 1; 414 1; 
415 237; 416 34; 417 192; 418 35; 419 6; 
420 2; 421 1; 423 1; 424 1; 425 1; 
426 1; 427 1; 428 2; 429 4; 430 4; 
431 1; 432 1; 433 1; 434 1; 435 1; 
436 1; 437 2; 438 1; 439 1; 440 1; 
441 1; 442 4; 443 75; 444 35; 445 136; 
446 33; 447 2; 448 2; 449 1; 
