Name: Senecioylfentanyl
InChIKey: PJBSYEBTXWQUEB-UHFFFAOYSA-N
Synon: .beta.'-methyl Crotonyl fentanyl
Synon: 3-Methyl-N-(1-phenethylpiperidin-4-yl)-N-phenylbut-2-enamide
Formula: C24H30N2O
MW: 362
ExactMass: 362.235813
CASNO: 0
ID: 5004
Comment: Provided by www.caymanchem.com/app/template/landing%2CForensic.vm / Item#25440 Batch#0532145
Num Peaks: 319
40 4; 41 27; 42 88; 43 17; 44 24; 
45 1; 46 1; 47 1; 48 1; 49 1; 
50 7; 51 21; 52 8; 53 30; 54 14; 
55 178; 56 26; 57 13; 58 3; 59 1; 
60 1; 61 1; 62 2; 63 6; 64 5; 
65 43; 66 10; 67 21; 68 26; 69 22; 
70 40; 71 4; 72 1; 73 2; 74 2; 
75 3; 76 5; 77 132; 78 30; 79 53; 
80 13; 81 5; 82 28; 83 867; 84 63; 
85 3; 86 1; 87 1; 88 1; 89 5; 
90 4; 91 147; 92 23; 93 53; 94 26; 
95 14; 96 131; 97 14; 98 8; 99 1; 
100 1; 101 1; 102 4; 103 42; 104 70; 
105 180; 106 27; 107 3; 108 1; 109 1; 
110 1; 111 1; 112 1; 113 1; 114 1; 
115 9; 116 4; 117 28; 118 50; 119 17; 
120 6; 121 1; 122 1; 123 1; 124 1; 
125 1; 126 1; 127 1; 128 4; 129 4; 
130 67; 131 50; 132 74; 133 13; 134 10; 
135 3; 136 1; 137 1; 138 1; 139 5; 
140 1; 141 1; 142 1; 143 5; 144 12; 
145 8; 146 288; 147 33; 148 4; 149 1; 
150 1; 151 1; 152 1; 153 1; 154 1; 
155 1; 156 3; 157 2; 158 22; 159 13; 
160 16; 161 4; 162 1; 163 1; 164 1; 
165 1; 166 2; 167 1; 168 1; 169 1; 
170 2; 171 1; 172 4; 173 3; 174 2; 
175 18; 176 4; 177 1; 178 1; 179 1; 
180 1; 181 1; 182 2; 183 1; 184 12; 
185 5; 186 25; 187 22; 188 15; 189 561; 
190 84; 191 6; 192 1; 193 1; 194 1; 
195 1; 196 1; 197 1; 198 1; 199 1; 
200 1; 201 1; 202 1; 203 1; 204 1; 
205 1; 206 1; 207 3; 208 1; 209 3; 
210 1; 211 1; 212 1; 213 1; 214 1; 
215 1; 216 1; 217 1; 218 1; 219 1; 
220 1; 221 1; 222 1; 223 1; 224 1; 
225 1; 226 1; 227 1; 228 8; 229 2; 
230 1; 231 2; 232 1; 233 1; 234 1; 
235 1; 236 1; 237 1; 238 1; 239 1; 
240 1; 241 1; 242 1; 243 1; 244 1; 
245 1; 246 1; 247 1; 248 1; 249 1; 
250 1; 251 1; 252 1; 253 2; 254 1; 
255 1; 256 1; 257 1; 258 1; 259 1; 
260 1; 261 1; 262 1; 263 1; 264 1; 
265 1; 266 1; 267 1; 268 1; 269 1; 
271 999; 272 187; 273 20; 274 1; 275 1; 
276 1; 277 1; 278 1; 279 9; 280 2; 
281 1; 282 1; 283 1; 284 1; 285 1; 
286 1; 287 1; 288 1; 289 1; 291 1; 
292 1; 293 1; 294 1; 295 1; 296 1; 
297 1; 298 1; 299 1; 300 1; 301 1; 
302 1; 303 1; 304 1; 306 1; 307 1; 
308 1; 309 1; 310 1; 311 1; 312 1; 
313 1; 314 1; 315 1; 316 1; 317 1; 
318 1; 319 1; 320 1; 321 1; 322 1; 
323 1; 324 1; 325 1; 326 1; 327 1; 
328 1; 329 1; 330 1; 331 1; 332 1; 
333 1; 334 1; 335 1; 336 1; 337 1; 
338 1; 339 1; 340 1; 341 1; 342 1; 
343 1; 344 1; 345 1; 346 1; 347 1; 
348 1; 349 1; 350 1; 351 1; 352 1; 
353 1; 354 1; 355 1; 356 1; 357 1; 
358 1; 360 5; 361 1; 362 1; 
