Name: 2'-Methyl Fentanyl
InChIKey: LCAFYALTIFGYLM-UHFFFAOYSA-N
Synon: N-[1-[2-(2-methylphenyl)ethyl]-4-piperidinyl]-N-phenyl-propanamide
Formula: C23H30N2O
MW: 350
ExactMass: 350.235813
CASNO: 90736166
ID: 5005
Comment: Provided by www.caymanchem.com/app/template/landing%2CForensic.vm / Item#25475 Batch#0522782
Num Peaks: 317
40 1; 41 35; 42 112; 43 18; 44 56; 
45 3; 46 1; 47 1; 48 1; 49 1; 
50 8; 51 28; 52 8; 53 11; 54 11; 
55 24; 56 15; 57 150; 58 6; 59 1; 
60 1; 61 1; 62 3; 63 15; 64 6; 
65 44; 66 19; 67 25; 68 29; 69 25; 
70 32; 71 4; 72 1; 73 13; 74 4; 
75 6; 76 8; 77 157; 78 38; 79 72; 
80 15; 81 4; 82 25; 83 5; 84 6; 
85 2; 86 2; 87 2; 88 1; 89 11; 
90 6; 91 110; 92 14; 93 175; 94 49; 
95 20; 96 144; 97 18; 98 9; 99 1; 
100 1; 101 2; 102 5; 103 60; 104 81; 
105 179; 106 36; 107 3; 108 4; 109 5; 
110 1; 111 1; 112 1; 113 1; 114 1; 
115 44; 116 13; 117 87; 118 85; 119 131; 
120 22; 121 1; 122 1; 123 1; 124 1; 
125 1; 126 1; 127 1; 128 3; 129 3; 
130 56; 131 42; 132 98; 133 22; 134 4; 
135 6; 136 1; 137 1; 138 1; 139 8; 
140 1; 141 1; 142 2; 143 6; 144 19; 
145 13; 146 488; 147 61; 148 7; 149 33; 
150 5; 151 1; 152 2; 153 1; 154 1; 
155 1; 156 5; 157 2; 158 47; 159 9; 
160 5; 161 1; 162 1; 163 1; 164 1; 
165 1; 166 1; 167 2; 168 1; 169 1; 
170 4; 171 1; 172 6; 173 3; 174 8; 
175 1; 176 1; 177 7; 178 1; 179 1; 
180 2; 181 1; 182 2; 183 1; 184 3; 
185 7; 186 3; 187 10; 188 5; 189 306; 
190 46; 191 3; 192 1; 193 3; 194 1; 
195 2; 196 2; 197 1; 198 6; 199 10; 
200 14; 201 5; 202 113; 203 13; 204 1; 
205 1; 206 1; 207 17; 208 9; 209 5; 
210 2; 211 1; 212 1; 213 1; 214 1; 
215 1; 216 3; 217 1; 218 1; 219 1; 
220 1; 221 1; 222 1; 223 1; 224 1; 
225 1; 226 1; 227 2; 228 1; 229 1; 
230 1; 231 1; 232 1; 233 1; 234 1; 
235 1; 236 1; 237 1; 238 1; 239 1; 
240 1; 241 1; 242 1; 243 2; 244 1; 
245 999; 246 166; 247 14; 248 1; 249 3; 
250 1; 251 1; 252 1; 253 13; 254 2; 
255 1; 256 1; 257 1; 258 1; 259 1; 
260 1; 261 1; 262 1; 263 1; 264 1; 
265 2; 266 1; 267 3; 268 1; 269 1; 
270 1; 271 1; 272 1; 273 1; 274 1; 
275 1; 276 1; 277 1; 278 1; 279 1; 
280 1; 281 15; 282 4; 283 9; 284 1; 
285 1; 286 1; 287 1; 288 1; 289 1; 
290 1; 291 1; 292 1; 293 2; 294 1; 
295 1; 296 1; 297 1; 298 1; 299 1; 
300 1; 301 1; 302 1; 303 1; 304 1; 
305 1; 306 1; 307 1; 308 1; 309 1; 
310 1; 311 1; 312 1; 313 1; 314 1; 
315 1; 316 1; 317 1; 318 1; 319 1; 
320 1; 321 1; 322 1; 323 1; 324 1; 
325 1; 326 1; 327 2; 328 1; 329 1; 
330 1; 331 2; 332 2; 333 1; 334 1; 
335 1; 336 1; 337 1; 339 1; 340 1; 
341 5; 342 2; 343 2; 344 1; 345 1; 
346 2; 347 1; 348 7; 349 2; 350 1; 
351 1; 352 1; 353 1; 354 1; 355 2; 
356 2; 357 1; 
