Name: Cannabigerovarin
InChIKey: YJYIDZLGVYOPGU-XNTDXEJSSA-N
Synon: CBGV
Synon: 2-[(2E)-3,7-dimethyl-2,6-octadien-1-yl]-5-propyl-1,3-benzenediol
Formula: C19H28O2
MW: 288
ExactMass: 288.208931
CASNO: 55824118
ID: 5006
Comment: Provided by www.caymanchem.com/app/template/landing%2CForensic.vm / Item#9002437 Batch#0531851
Num Peaks: 250
40 10; 41 282; 42 13; 43 83; 44 2; 
45 1; 46 1; 47 1; 48 1; 49 1; 
50 3; 51 13; 52 7; 53 50; 54 7; 
55 49; 56 5; 57 5; 58 1; 59 1; 
60 1; 61 1; 62 1; 63 7; 64 3; 
65 38; 66 13; 67 85; 68 12; 69 285; 
70 16; 71 4; 72 1; 73 1; 74 1; 
75 2; 76 4; 77 86; 78 22; 79 75; 
80 23; 81 52; 82 9; 83 10; 84 1; 
85 1; 86 1; 87 1; 88 1; 89 9; 
90 6; 91 104; 92 16; 93 40; 94 11; 
95 25; 96 2; 97 3; 98 1; 99 1; 
100 1; 101 2; 102 6; 103 24; 104 8; 
105 32; 106 5; 107 102; 108 51; 109 46; 
110 6; 111 4; 112 1; 113 1; 114 1; 
115 45; 116 15; 117 20; 118 4; 119 16; 
120 6; 121 68; 122 106; 123 174; 124 28; 
125 2; 126 1; 127 15; 128 34; 129 23; 
130 5; 131 44; 132 10; 133 16; 134 6; 
135 65; 136 129; 137 31; 138 7; 139 4; 
140 1; 141 19; 142 6; 143 6; 144 16; 
145 20; 146 4; 147 69; 148 13; 149 110; 
150 22; 151 5; 152 15; 153 8; 154 2; 
155 3; 156 1; 157 15; 158 10; 159 40; 
160 21; 161 51; 162 11; 163 38; 164 17; 
165 999; 166 179; 167 19; 168 3; 169 2; 
170 2; 171 6; 172 3; 173 23; 174 62; 
175 35; 176 17; 177 105; 178 28; 179 34; 
180 4; 181 2; 182 1; 183 1; 184 1; 
185 1; 186 2; 187 10; 188 4; 189 29; 
190 9; 191 164; 192 30; 193 6; 194 1; 
195 1; 196 1; 197 1; 198 1; 199 2; 
200 1; 201 15; 203 325; 204 54; 205 117; 
206 25; 207 5; 208 1; 209 1; 210 1; 
211 1; 212 1; 213 1; 214 1; 215 4; 
216 1; 217 33; 218 15; 219 118; 220 20; 
221 2; 222 1; 223 1; 224 1; 225 1; 
226 1; 227 1; 228 1; 229 2; 230 1; 
231 35; 232 14; 233 3; 234 1; 235 1; 
236 1; 237 1; 238 1; 239 1; 240 1; 
241 1; 242 1; 243 2; 244 1; 245 46; 
246 8; 247 1; 248 1; 249 1; 250 1; 
251 1; 252 1; 253 1; 254 1; 255 1; 
256 1; 257 1; 258 1; 259 2; 260 1; 
261 1; 262 1; 263 1; 264 1; 265 1; 
266 1; 267 1; 268 1; 269 1; 270 1; 
271 2; 272 1; 273 15; 274 3; 275 1; 
276 1; 277 1; 278 1; 279 1; 280 1; 
281 1; 282 1; 283 1; 284 1; 285 1; 
286 2; 288 134; 289 28; 290 4; 291 1; 
