Name: Heptanoyl fentanyl
InChIKey: ZLPDQEYWTXBVRY-UHFFFAOYSA-N
Synon: N-(1-phenethylpiperidin-4-yl)-N-phenylheptanamide
Formula: C26H36N2O
MW: 392
ExactMass: 392.282764
CASNO: 0
ID: 5007
Comment: Provided by www.caymanchem.com/app/template/landing%2CForensic.vm / Item#25488 Batch#0532557
Num Peaks: 351
40 1; 41 84; 42 103; 43 203; 44 62; 
45 2; 46 1; 47 1; 48 1; 49 1; 
50 7; 51 17; 52 7; 53 10; 54 9; 
55 52; 56 22; 57 43; 58 4; 59 1; 
60 1; 61 1; 62 2; 63 9; 64 5; 
65 38; 66 9; 67 23; 68 28; 69 37; 
70 52; 71 6; 72 1; 73 2; 74 3; 
75 3; 76 5; 77 113; 78 31; 79 50; 
80 13; 81 6; 82 26; 83 11; 84 15; 
85 38; 86 3; 87 1; 88 1; 89 7; 
90 6; 91 187; 92 32; 93 80; 94 46; 
95 28; 96 149; 97 24; 98 10; 99 1; 
100 1; 101 4; 102 2; 103 42; 104 72; 
105 212; 106 38; 107 4; 108 1; 109 1; 
110 1; 111 3; 112 3; 113 36; 114 3; 
115 9; 116 4; 117 28; 118 60; 119 32; 
120 15; 121 1; 122 2; 123 1; 124 1; 
125 1; 126 1; 127 1; 128 2; 129 4; 
130 67; 131 58; 132 96; 133 16; 134 14; 
135 9; 136 1; 137 1; 138 1; 139 26; 
140 3; 141 1; 142 1; 143 2; 144 16; 
145 10; 146 469; 147 52; 148 10; 149 1; 
150 1; 151 1; 152 1; 153 1; 154 1; 
155 1; 156 4; 157 3; 158 23; 159 11; 
160 25; 161 4; 162 1; 163 1; 164 1; 
165 1; 166 1; 167 1; 168 1; 169 1; 
170 2; 171 1; 172 3; 173 4; 174 1; 
175 1; 176 1; 177 1; 178 1; 179 1; 
180 1; 181 1; 182 2; 183 1; 184 17; 
185 14; 186 28; 187 26; 188 59; 189 393; 
190 54; 191 5; 192 1; 193 1; 194 1; 
195 1; 196 1; 197 1; 198 1; 199 1; 
200 1; 201 1; 202 1; 203 1; 204 1; 
205 3; 206 1; 207 2; 208 1; 209 1; 
210 1; 211 1; 212 1; 213 1; 214 1; 
215 1; 216 1; 217 1; 218 1; 219 1; 
220 1; 221 1; 222 1; 223 1; 224 1; 
225 1; 226 1; 227 1; 228 1; 229 1; 
230 1; 231 5; 232 1; 233 1; 234 1; 
235 1; 236 1; 237 1; 238 1; 239 1; 
240 1; 241 1; 242 1; 243 1; 244 1; 
245 1; 246 1; 247 1; 248 1; 249 1; 
250 1; 251 1; 252 1; 253 3; 254 1; 
255 1; 256 1; 257 1; 258 21; 259 4; 
260 1; 261 1; 262 1; 263 1; 264 1; 
265 1; 266 1; 267 1; 268 1; 269 1; 
270 1; 271 1; 272 3; 273 1; 274 1; 
275 1; 276 1; 277 1; 278 1; 279 3; 
280 1; 281 2; 282 1; 283 1; 284 1; 
285 1; 286 1; 287 1; 288 1; 289 1; 
291 1; 292 1; 293 1; 294 1; 295 1; 
296 1; 297 1; 298 1; 299 4; 300 1; 
301 999; 302 212; 303 22; 304 2; 305 1; 
306 1; 307 1; 308 1; 309 1; 310 1; 
311 1; 312 1; 313 1; 314 1; 315 1; 
316 1; 317 1; 318 1; 319 1; 320 1; 
321 2; 322 1; 323 1; 324 1; 325 1; 
326 1; 327 1; 328 1; 329 1; 330 1; 
331 1; 332 1; 333 1; 334 1; 335 1; 
336 1; 337 1; 338 1; 339 1; 340 1; 
341 1; 342 1; 343 1; 344 1; 345 1; 
346 1; 347 1; 348 1; 349 1; 350 1; 
351 1; 352 1; 353 1; 354 1; 355 1; 
356 1; 357 1; 358 1; 359 1; 361 1; 
362 1; 363 1; 364 1; 365 1; 366 1; 
367 1; 368 1; 369 1; 370 1; 371 1; 
372 1; 373 1; 374 1; 375 1; 376 1; 
377 1; 378 1; 379 1; 380 1; 381 1; 
383 1; 384 1; 385 1; 386 1; 387 1; 
388 1; 389 1; 390 3; 391 3; 392 1; 
393 1; 
