Name: 2'-Fluoro, ortho-fluoro-trans-3-methyl Fentanyl
InChIKey: ZHMCEQBHANQWEW-DYESRHJHSA-N
Synon: trans-N-1-(2-fluorophenethyl)-3-methylpiperidin-4-yl)-N-(2-fluorophenyl)propionamide
Formula: C23H28F2N2O
MW: 386
ExactMass: 386.21697
CASNO: 0
ID: 5008
Comment: Provided by www.caymanchem.com/app/template/landing%2CForensic.vm / Item#24312 Batch#0533368
Num Peaks: 333
40 1; 41 40; 42 106; 43 14; 44 32; 
45 1; 46 1; 47 1; 48 1; 49 1; 
50 2; 51 4; 52 2; 53 6; 54 5; 
55 25; 56 16; 57 159; 58 14; 59 2; 
60 1; 61 1; 62 2; 63 6; 64 2; 
65 4; 66 2; 67 12; 68 22; 69 27; 
70 20; 71 4; 72 1; 73 1; 74 2; 
75 17; 76 3; 77 32; 78 4; 79 8; 
80 5; 81 23; 82 20; 83 38; 84 23; 
85 2; 86 1; 87 1; 88 1; 89 5; 
90 5; 91 4; 92 2; 93 4; 94 16; 
95 41; 96 31; 97 12; 98 8; 99 1; 
100 1; 101 12; 102 12; 103 72; 104 8; 
105 1; 106 1; 107 7; 108 12; 109 130; 
110 104; 111 41; 112 12; 113 1; 114 1; 
115 2; 116 2; 117 3; 118 4; 119 1; 
120 2; 121 12; 122 65; 123 88; 124 26; 
125 2; 126 1; 127 1; 128 2; 129 1; 
130 11; 131 3; 132 4; 133 3; 134 3; 
135 17; 136 36; 137 15; 138 8; 139 1; 
140 1; 141 1; 142 1; 143 1; 144 3; 
145 1; 146 3; 147 1; 148 28; 149 28; 
150 72; 151 14; 152 9; 153 5; 154 1; 
155 1; 156 1; 157 1; 158 3; 159 2; 
160 1; 161 2; 162 11; 163 11; 164 19; 
165 3; 166 4; 167 3; 168 3; 169 1; 
170 1; 171 1; 172 1; 173 1; 174 1; 
175 1; 176 5; 177 8; 178 222; 179 27; 
180 5; 181 1; 182 1; 183 1; 184 1; 
185 1; 186 1; 187 1; 188 1; 189 1; 
190 10; 191 3; 192 18; 193 2; 194 1; 
195 1; 196 1; 197 1; 198 1; 199 1; 
200 1; 201 1; 202 3; 203 1; 204 3; 
205 2; 206 1; 209 1; 211 1; 212 1; 
213 1; 214 1; 215 1; 216 3; 217 2; 
218 15; 219 10; 220 22; 221 86; 222 12; 
223 1; 224 1; 225 1; 226 1; 227 1; 
228 1; 229 1; 230 1; 231 1; 232 1; 
234 54; 235 8; 236 1; 237 1; 238 1; 
239 1; 240 1; 241 1; 242 1; 243 1; 
244 1; 245 1; 246 1; 247 1; 248 4; 
249 1; 250 1; 251 1; 252 1; 253 1; 
254 1; 255 1; 256 1; 257 1; 258 1; 
259 1; 260 1; 261 1; 262 1; 263 1; 
264 1; 265 1; 266 1; 267 1; 268 1; 
269 1; 270 1; 271 1; 272 1; 273 1; 
274 1; 275 1; 277 999; 278 178; 279 17; 
280 1; 282 1; 283 1; 284 1; 285 1; 
286 1; 287 1; 288 1; 289 1; 290 1; 
291 1; 292 1; 293 1; 294 1; 295 1; 
296 1; 297 1; 298 1; 299 1; 300 1; 
301 1; 302 1; 303 1; 304 1; 306 1; 
307 1; 308 1; 309 1; 310 1; 311 1; 
312 1; 313 1; 314 1; 315 1; 316 1; 
317 1; 318 1; 319 1; 322 1; 323 1; 
324 1; 325 1; 326 1; 327 1; 328 1; 
329 1; 330 1; 331 1; 332 1; 333 1; 
335 1; 336 1; 337 1; 338 1; 339 1; 
340 1; 341 1; 342 1; 343 1; 344 1; 
345 1; 346 1; 347 1; 348 1; 349 1; 
350 1; 351 1; 352 1; 353 1; 354 1; 
355 1; 356 1; 357 1; 358 1; 359 1; 
361 1; 362 1; 363 1; 364 1; 365 1; 
366 1; 367 1; 368 1; 370 1; 371 1; 
372 1; 373 1; 374 1; 375 1; 376 1; 
377 1; 378 1; 380 1; 381 1; 382 1; 
384 2; 385 1; 386 1; 
