Name: 2'-Fluoro, ortho-fluoro-cis-3-methyl Fentanyl
InChIKey: ZHMCEQBHANQWEW-UTKZUKDTSA-N
Synon: cis-N-1-(2-fluorophenethyl)-3-methylpiperidin-4-yl)-N-(2-fluorophenyl)propionamide
Formula: C23H28F2N2O
MW: 386
ExactMass: 386.21697
CASNO: 0
ID: 5009
Comment: Provided by www.caymanchem.com/app/template/landing%2CForensic.vm / Item#24311 Batch#0529296
Num Peaks: 332
40 1; 41 60; 42 149; 43 22; 44 78; 
45 2; 46 1; 47 1; 48 1; 49 1; 
50 4; 51 8; 52 3; 53 9; 54 9; 
55 34; 56 24; 57 239; 58 28; 59 4; 
60 1; 61 1; 62 4; 63 11; 64 4; 
65 9; 66 4; 67 20; 68 32; 69 39; 
70 38; 71 7; 72 2; 73 2; 74 4; 
75 28; 76 5; 77 52; 78 7; 79 11; 
80 8; 81 23; 82 30; 83 63; 84 50; 
85 4; 86 1; 87 1; 88 1; 89 9; 
90 9; 91 7; 92 5; 93 10; 94 23; 
95 64; 96 48; 97 18; 98 10; 99 1; 
100 1; 101 20; 102 21; 103 115; 104 13; 
105 2; 106 1; 107 11; 108 19; 109 198; 
110 142; 111 97; 112 23; 113 1; 114 1; 
115 4; 116 3; 117 5; 118 6; 119 2; 
120 3; 121 20; 122 107; 123 149; 124 38; 
125 3; 126 1; 127 1; 128 3; 129 2; 
130 18; 131 4; 132 6; 133 5; 134 3; 
135 28; 136 71; 137 26; 138 12; 139 1; 
140 1; 141 1; 142 1; 143 3; 144 6; 
145 1; 146 4; 147 2; 148 45; 149 40; 
150 108; 151 21; 152 18; 153 9; 154 1; 
155 1; 156 2; 157 1; 158 5; 159 3; 
160 1; 161 2; 162 19; 163 19; 164 23; 
165 4; 166 9; 167 9; 168 3; 169 1; 
170 1; 171 1; 172 1; 173 1; 174 2; 
175 2; 176 9; 177 7; 178 496; 179 62; 
180 10; 181 1; 182 1; 183 1; 184 1; 
185 1; 186 1; 187 1; 188 2; 189 1; 
190 28; 191 6; 192 30; 193 4; 194 1; 
195 1; 196 1; 197 1; 198 1; 199 1; 
200 1; 201 1; 202 4; 203 1; 204 5; 
205 4; 206 1; 207 1; 208 2; 209 1; 
210 1; 211 1; 212 1; 213 1; 214 2; 
215 1; 216 9; 217 6; 218 21; 219 17; 
220 6; 221 379; 222 55; 223 4; 224 1; 
225 1; 226 1; 227 1; 228 1; 229 1; 
230 1; 231 1; 232 1; 233 1; 234 145; 
235 23; 236 2; 237 1; 238 1; 239 1; 
240 1; 241 1; 242 1; 243 1; 244 1; 
245 1; 246 1; 247 1; 248 2; 249 1; 
250 1; 251 1; 252 1; 253 1; 254 1; 
255 1; 256 1; 257 1; 258 1; 259 2; 
260 1; 261 2; 262 1; 263 1; 264 1; 
265 1; 267 1; 268 1; 269 1; 270 1; 
271 1; 272 1; 273 1; 274 1; 275 3; 
276 1; 277 999; 278 181; 279 17; 280 1; 
281 1; 282 1; 283 1; 284 1; 285 1; 
286 1; 287 1; 288 1; 289 1; 290 1; 
291 1; 292 1; 294 1; 295 1; 296 1; 
297 1; 298 1; 299 1; 300 1; 301 1; 
302 1; 303 1; 305 1; 308 1; 309 1; 
310 1; 311 1; 312 1; 313 1; 314 1; 
315 1; 316 1; 318 1; 320 1; 321 1; 
323 1; 324 1; 325 1; 326 1; 327 1; 
328 1; 329 4; 330 1; 331 1; 332 1; 
333 1; 334 1; 335 1; 337 1; 339 1; 
340 1; 341 1; 342 1; 343 1; 344 1; 
345 1; 346 1; 347 1; 348 1; 349 1; 
350 1; 351 1; 352 1; 354 1; 355 1; 
356 1; 357 1; 358 1; 360 1; 362 1; 
363 1; 364 1; 365 1; 366 1; 367 1; 
368 1; 369 1; 370 1; 371 1; 372 1; 
375 1; 376 1; 377 1; 378 1; 380 1; 
382 1; 383 1; 384 4; 385 1; 386 1; 
387 1; 388 1; 
