Name: 3'-Fluoro, ortho-fluoro-cis-3-methyl Fentanyl
InChIKey: DQWZBTDAELYCQX-UTKZUKDTSA-N
Synon: cis-N-1-(3-fluorophenethyl)-3-methylpiperidin-4-yl)-N-(2-fluorophenyl)propionamide
Formula: C23H28F2N2O
MW: 386
ExactMass: 386.21697
CASNO: 0
ID: 5010
Comment: Provided by www.caymanchem.com/app/template/landing%2CForensic.vm / Item#24504 Batch#0529297
Num Peaks: 329
40 1; 41 65; 42 149; 43 23; 44 77; 
45 2; 46 1; 47 1; 48 1; 49 1; 
50 5; 51 6; 52 3; 53 9; 54 9; 
55 33; 56 24; 57 233; 58 29; 59 4; 
60 1; 61 2; 62 3; 63 10; 64 3; 
65 9; 66 5; 67 20; 68 31; 69 43; 
70 42; 71 7; 72 2; 73 1; 74 4; 
75 28; 76 5; 77 44; 78 6; 79 10; 
80 9; 81 24; 82 29; 83 59; 84 50; 
85 4; 86 1; 87 1; 88 1; 89 7; 
90 9; 91 7; 92 5; 93 8; 94 25; 
95 67; 96 52; 97 22; 98 10; 99 2; 
100 1; 101 19; 102 18; 103 105; 104 11; 
105 2; 106 2; 107 10; 108 19; 109 173; 
110 142; 111 97; 112 22; 113 2; 114 1; 
115 3; 116 3; 117 3; 118 6; 119 1; 
120 4; 121 23; 122 106; 123 119; 124 34; 
125 3; 126 1; 127 1; 128 3; 129 2; 
130 15; 131 4; 132 4; 133 6; 134 4; 
135 29; 136 71; 137 27; 138 13; 139 1; 
140 1; 141 1; 142 1; 143 2; 144 2; 
145 1; 146 4; 147 2; 148 46; 149 40; 
150 107; 151 21; 152 19; 153 8; 154 2; 
155 1; 156 1; 157 1; 158 5; 159 1; 
160 1; 161 2; 162 19; 163 17; 164 22; 
165 5; 166 9; 167 10; 168 4; 169 1; 
170 1; 171 1; 172 1; 173 1; 174 2; 
175 1; 176 9; 177 13; 178 496; 179 62; 
180 9; 181 1; 182 1; 183 1; 184 1; 
185 1; 186 1; 187 1; 188 2; 189 1; 
190 27; 191 7; 192 33; 193 4; 194 1; 
195 1; 196 1; 197 1; 198 1; 199 1; 
200 1; 201 1; 202 4; 203 2; 204 6; 
205 4; 206 1; 207 1; 208 2; 209 1; 
210 1; 211 1; 212 1; 213 1; 214 2; 
215 1; 216 9; 217 7; 218 20; 219 17; 
220 4; 221 376; 222 55; 223 4; 224 1; 
225 1; 226 1; 227 1; 228 1; 229 1; 
230 1; 231 1; 232 1; 233 1; 234 143; 
235 23; 236 2; 237 1; 238 1; 239 1; 
240 1; 241 1; 242 1; 243 1; 244 1; 
245 1; 246 1; 247 1; 248 2; 249 1; 
250 1; 251 1; 252 1; 253 1; 254 1; 
255 1; 256 1; 257 1; 258 1; 259 1; 
260 1; 261 2; 262 1; 263 1; 264 1; 
265 1; 266 1; 267 1; 268 1; 269 1; 
270 1; 271 1; 272 1; 273 1; 274 1; 
275 3; 277 999; 278 178; 279 16; 280 1; 
281 1; 283 1; 284 1; 285 1; 286 1; 
287 1; 288 1; 289 1; 290 1; 291 1; 
292 1; 293 1; 294 1; 295 1; 297 1; 
298 1; 299 1; 300 1; 301 1; 302 1; 
305 1; 306 1; 307 1; 308 1; 309 1; 
310 1; 311 1; 312 1; 313 1; 314 1; 
315 1; 316 1; 318 1; 322 1; 323 1; 
324 1; 325 1; 326 1; 327 1; 328 1; 
329 4; 330 1; 331 1; 332 1; 335 1; 
336 1; 337 1; 338 1; 339 1; 341 1; 
342 1; 343 1; 344 1; 345 1; 346 1; 
347 1; 348 1; 349 1; 350 1; 351 1; 
353 1; 355 1; 356 1; 357 1; 358 1; 
359 1; 361 1; 362 1; 365 1; 366 1; 
367 1; 368 1; 369 1; 370 1; 371 1; 
372 1; 373 1; 375 1; 377 1; 378 1; 
379 1; 380 1; 381 1; 382 1; 383 1; 
384 4; 385 1; 386 1; 387 1; 
