Name: 4'-Fluoro, ortho-fluoro-cis-3-methyl Fentanyl
InChIKey: CVFCBKJJPGWMIA-UTKZUKDTSA-N
Synon: cis-N-1-(4-fluorophenethyl)-3-methylpiperidin-4-yl)-N-(2-fluorophenyl)propionamide
Formula: C23H28F2N2O
MW: 386
ExactMass: 386.21697
CASNO: 0
ID: 5011
Comment: Provided by www.caymanchem.com/app/template/landing%2CForensic.vm / Item#24510 Batch#0529298
Num Peaks: 337
40 1; 41 56; 42 141; 43 22; 44 79; 
45 2; 46 1; 47 1; 48 1; 49 1; 
50 4; 51 6; 52 3; 53 8; 54 8; 
55 32; 56 24; 57 228; 58 26; 59 4; 
60 1; 61 1; 62 3; 63 9; 64 4; 
65 8; 66 3; 67 19; 68 30; 69 34; 
70 35; 71 7; 72 2; 73 1; 74 2; 
75 26; 76 4; 77 40; 78 4; 79 9; 
80 7; 81 22; 82 26; 83 59; 84 49; 
85 4; 86 1; 87 1; 88 1; 89 8; 
90 8; 91 6; 92 4; 93 9; 94 21; 
95 62; 96 45; 97 22; 98 10; 99 1; 
100 1; 101 19; 102 17; 103 107; 104 11; 
105 1; 106 1; 107 10; 108 18; 109 205; 
110 128; 111 89; 112 22; 113 1; 114 1; 
115 3; 116 3; 117 4; 118 5; 119 1; 
120 4; 121 21; 122 104; 123 152; 124 37; 
125 3; 126 1; 127 1; 128 2; 129 1; 
130 15; 131 4; 132 4; 133 6; 134 4; 
135 28; 136 72; 137 25; 138 12; 139 1; 
140 1; 141 1; 142 1; 143 2; 144 4; 
145 1; 146 4; 147 2; 148 44; 149 42; 
150 107; 151 21; 152 12; 153 8; 154 1; 
155 1; 156 1; 157 1; 158 5; 159 2; 
160 1; 161 2; 162 20; 163 18; 164 23; 
165 5; 166 5; 167 9; 168 3; 169 1; 
170 1; 171 1; 172 1; 173 1; 174 2; 
175 2; 176 8; 177 10; 178 504; 179 63; 
180 9; 181 1; 182 1; 183 1; 184 1; 
185 1; 186 1; 187 1; 188 1; 189 1; 
190 28; 191 7; 192 20; 193 3; 194 1; 
195 1; 196 1; 197 1; 198 1; 199 1; 
200 1; 201 1; 202 3; 203 1; 204 4; 
205 4; 206 1; 208 1; 209 1; 210 1; 
211 1; 212 1; 213 1; 214 2; 215 1; 
216 6; 217 4; 218 17; 219 16; 220 2; 
221 382; 222 55; 223 4; 224 1; 225 1; 
226 1; 227 1; 228 1; 229 1; 230 1; 
231 1; 232 1; 233 1; 234 150; 235 22; 
236 2; 237 1; 238 1; 239 1; 240 1; 
241 1; 242 1; 243 1; 244 1; 245 1; 
246 1; 247 1; 248 2; 249 1; 250 1; 
251 1; 252 1; 253 1; 254 1; 255 1; 
256 1; 257 1; 258 1; 259 1; 260 1; 
261 2; 262 1; 263 1; 264 1; 265 1; 
266 1; 267 1; 268 1; 269 1; 270 1; 
271 1; 272 1; 273 1; 274 1; 275 3; 
276 1; 277 999; 278 178; 279 17; 280 1; 
281 1; 282 1; 283 1; 284 1; 285 1; 
286 1; 287 1; 288 1; 289 1; 291 1; 
292 1; 293 1; 294 1; 295 1; 296 1; 
297 1; 298 1; 299 1; 300 1; 301 1; 
302 1; 303 1; 304 1; 305 1; 306 1; 
307 1; 309 1; 310 1; 311 1; 312 1; 
313 1; 314 1; 315 1; 316 1; 317 1; 
318 1; 319 1; 320 1; 322 1; 323 1; 
324 1; 325 1; 326 1; 327 1; 328 1; 
329 3; 330 1; 331 1; 332 1; 333 1; 
334 1; 336 1; 338 1; 339 1; 340 1; 
341 1; 342 1; 343 1; 344 1; 345 1; 
346 1; 347 1; 348 1; 349 1; 350 1; 
351 1; 352 1; 353 1; 354 1; 355 1; 
356 1; 357 1; 358 1; 359 1; 361 1; 
362 1; 364 1; 365 1; 366 1; 367 1; 
368 1; 369 1; 370 1; 371 1; 373 1; 
374 1; 375 1; 376 1; 377 1; 378 1; 
381 1; 382 1; 383 1; 384 4; 385 1; 
386 1; 387 1; 
