Name: N-methoxy Mephedrone
InChIKey: FSNGZFWOSNEUJM-UHFFFAOYSA-N
Synon: N-methoxy-4-MeMC
Synon: N-methoxy-4-Methylephedrone
Synon: N-methoxy-4-Methylmethcathinone
Synon: N-methoxy-4-MMC
Synon: 2-(methoxy(methyl)amino)-1-(p-tolyl)propan-1-one
Formula: C12H17NO2
MW: 207
ExactMass: 207.125929
CASNO: 0
ID: 5012
Comment: Provided by www.caymanchem.com/app/template/landing%2CForensic.vm / Item#20808 Batch#0502908
Num Peaks: 159
41 15; 42 142; 43 5; 44 2; 45 5; 
46 1; 47 1; 48 1; 49 1; 50 9; 
51 16; 52 5; 53 3; 54 7; 55 10; 
56 205; 57 111; 58 12; 59 11; 60 1; 
61 2; 62 10; 63 37; 64 11; 65 143; 
66 8; 67 1; 68 1; 69 1; 70 1; 
71 1; 72 3; 73 1; 74 4; 75 4; 
76 4; 77 9; 78 3; 79 1; 80 1; 
81 1; 82 1; 83 1; 84 1; 85 1; 
86 3; 87 4; 88 999; 89 99; 90 25; 
91 218; 92 19; 93 1; 94 1; 95 1; 
96 1; 97 1; 98 1; 99 1; 100 1; 
101 1; 102 1; 103 3; 104 2; 105 6; 
106 1; 107 1; 108 1; 109 1; 110 1; 
111 1; 112 1; 113 1; 114 1; 115 5; 
116 1; 117 4; 118 2; 119 145; 120 13; 
121 1; 122 1; 123 1; 124 1; 125 1; 
126 1; 127 1; 128 1; 129 1; 130 1; 
131 1; 132 1; 133 1; 134 1; 135 1; 
136 1; 137 1; 138 1; 139 1; 140 1; 
142 1; 143 1; 144 1; 145 1; 146 1; 
147 1; 148 2; 149 1; 150 1; 151 1; 
153 1; 154 1; 155 1; 156 1; 157 1; 
158 1; 159 1; 160 1; 161 1; 162 1; 
163 1; 164 1; 165 1; 166 1; 167 1; 
168 1; 170 1; 171 1; 172 1; 173 1; 
174 1; 175 1; 176 1; 177 1; 178 1; 
179 1; 180 1; 181 1; 182 1; 183 1; 
184 1; 185 1; 187 1; 188 1; 190 1; 
191 1; 192 1; 193 1; 194 1; 197 1; 
198 1; 199 1; 202 1; 203 1; 204 1; 
205 1; 206 1; 207 1; 208 1; 
