Name: Propyl U-47700
InChIKey: ONTPYMHHQOSZRB-TZHYSIJRSA-N
Synon: trans-3,4-Dichloro-N-2-((dimethylamino)cyclohexyl)-N-propylbenzamide
Formula: C18H26Cl2N2O
MW: 356
ExactMass: 356.14222
CASNO: 0
ID: 5013
Comment: Provided by www.caymanchem.com/app/template/landing%2CForensic.vm / Item#24434 Batch#0532220
Num Peaks: 318
40 1; 41 55; 42 90; 43 50; 44 39; 
45 14; 46 9; 47 1; 48 1; 49 1; 
50 3; 51 2; 52 2; 53 11; 54 13; 
55 29; 56 75; 57 10; 58 180; 59 7; 
60 1; 61 1; 62 1; 63 1; 64 1; 
65 4; 66 3; 67 16; 68 33; 69 13; 
70 95; 71 206; 72 37; 73 6; 74 20; 
75 37; 76 4; 77 24; 78 1; 79 36; 
80 11; 81 38; 82 64; 83 30; 84 999; 
85 87; 86 9; 87 2; 88 1; 89 1; 
90 1; 91 1; 92 1; 93 3; 94 16; 
95 8; 96 41; 97 48; 98 65; 99 7; 
100 1; 101 1; 102 1; 103 3; 104 1; 
105 1; 106 1; 107 2; 108 11; 109 70; 
110 94; 111 43; 112 110; 113 12; 114 2; 
115 1; 116 1; 117 1; 118 1; 119 1; 
120 1; 121 1; 122 6; 123 4; 124 171; 
125 584; 126 76; 127 9; 128 2; 129 1; 
130 1; 131 1; 132 1; 133 1; 134 1; 
135 1; 136 2; 137 3; 138 103; 139 22; 
140 14; 141 6; 142 1; 143 1; 144 1; 
145 179; 146 17; 147 115; 148 11; 149 19; 
150 2; 151 1; 152 4; 153 2; 154 1; 
155 3; 156 1; 157 1; 158 1; 159 3; 
160 1; 161 1; 162 1; 163 1; 164 1; 
165 1; 166 1; 167 4; 168 1; 169 24; 
170 2; 171 1; 172 2; 173 213; 174 19; 
175 148; 176 13; 177 24; 178 2; 179 1; 
180 1; 181 5; 182 1; 183 43; 184 6; 
185 1; 186 1; 187 1; 188 1; 189 1; 
190 1; 191 1; 192 1; 193 1; 194 1; 
195 1; 196 1; 197 1; 198 1; 199 1; 
200 1; 201 1; 202 1; 203 1; 204 1; 
205 1; 206 1; 208 1; 209 1; 210 1; 
211 1; 212 1; 213 1; 214 1; 215 1; 
216 2; 217 1; 218 1; 219 1; 220 1; 
221 1; 222 1; 223 1; 224 1; 225 1; 
226 1; 227 1; 228 1; 229 1; 230 1; 
231 1; 232 2; 233 1; 234 1; 235 1; 
236 1; 237 1; 238 1; 239 1; 240 1; 
241 1; 242 1; 243 1; 244 6; 245 1; 
246 4; 247 1; 248 1; 249 1; 250 1; 
251 1; 252 1; 253 1; 254 1; 255 1; 
256 1; 257 1; 258 1; 259 1; 260 1; 
261 1; 262 1; 263 1; 264 1; 265 1; 
266 1; 267 1; 268 1; 269 1; 270 1; 
271 1; 272 1; 273 1; 274 1; 275 1; 
276 1; 277 1; 278 1; 279 1; 280 1; 
282 2; 283 1; 284 5; 285 2; 286 3; 
287 1; 288 1; 289 1; 290 1; 291 1; 
292 1; 293 1; 294 1; 295 1; 296 1; 
297 1; 298 1; 299 1; 300 1; 301 1; 
302 1; 303 1; 304 1; 305 1; 306 1; 
307 1; 308 1; 309 1; 310 1; 311 1; 
312 7; 313 2; 314 3; 315 2; 316 1; 
317 1; 318 1; 319 1; 320 1; 321 1; 
322 1; 323 1; 324 1; 325 1; 326 1; 
327 1; 328 1; 329 1; 330 1; 331 1; 
332 1; 333 1; 334 1; 335 1; 336 1; 
337 1; 338 1; 339 1; 340 1; 341 1; 
342 1; 343 1; 344 1; 345 1; 346 1; 
347 1; 348 1; 349 1; 350 1; 351 1; 
352 1; 354 1; 355 14; 356 11; 357 11; 
358 7; 359 2; 360 1; 
