Name: 2,3-Seco-Fentanyl
InChIKey: TVSLDWMMAUJGPV-UHFFFAOYSA-N
Synon: N-(4-(methyl(phenethyl)amino)butan-2-yl)-N-phenylpropionamide
Formula: C22H30N2O
MW: 338
ExactMass: 338.235813
CASNO: 253342664
ID: 5014
Comment: Provided by www.caymanchem.com/app/template/landing%2CForensic.vm / Item#25092 Batch#0534101
Num Peaks: 291
40 3; 41 21; 42 107; 43 43; 44 51; 
45 1; 46 1; 47 1; 48 1; 49 1; 
50 7; 51 42; 52 11; 53 8; 54 8; 
55 44; 56 14; 57 210; 58 281; 59 10; 
60 1; 61 2; 62 6; 63 19; 64 16; 
65 80; 66 22; 67 7; 68 6; 69 3; 
70 64; 71 19; 72 6; 73 2; 74 6; 
75 5; 76 12; 77 228; 78 45; 79 59; 
80 10; 81 6; 82 16; 83 5; 84 11; 
85 1; 86 2; 87 2; 88 1; 89 13; 
90 9; 91 194; 92 46; 93 257; 94 55; 
95 4; 96 30; 97 8; 98 96; 99 8; 
100 4; 101 2; 102 7; 103 60; 104 130; 
105 258; 106 43; 107 2; 108 1; 109 1; 
110 1; 111 1; 112 1; 113 1; 114 1; 
115 5; 116 7; 117 23; 118 42; 119 38; 
120 542; 121 53; 122 2; 123 1; 124 1; 
125 1; 126 1; 127 1; 128 3; 129 3; 
130 19; 131 13; 132 69; 133 24; 134 28; 
135 3; 136 1; 137 1; 138 1; 139 1; 
140 1; 141 1; 142 53; 143 8; 144 29; 
145 6; 146 40; 147 11; 148 83; 149 55; 
150 18; 151 1; 152 1; 153 1; 154 1; 
155 1; 156 1; 157 1; 158 3; 159 9; 
160 6; 161 8; 162 7; 163 2; 164 1; 
165 1; 166 1; 167 1; 168 1; 169 1; 
170 2; 171 1; 172 3; 173 1; 174 5; 
175 2; 176 2; 177 1; 178 1; 179 1; 
180 1; 181 1; 182 1; 183 1; 184 1; 
185 2; 186 2; 187 11; 188 10; 189 93; 
190 13; 191 1; 192 1; 193 1; 194 1; 
195 1; 196 1; 197 1; 198 1; 199 1; 
200 1; 201 1; 202 3; 203 3; 204 999; 
205 149; 206 11; 210 1; 211 1; 212 1; 
213 1; 214 1; 215 1; 216 1; 217 1; 
218 1; 219 1; 220 1; 221 1; 222 1; 
223 1; 224 1; 225 1; 226 1; 227 1; 
228 1; 229 1; 230 1; 231 1; 232 1; 
233 1; 234 1; 235 1; 236 1; 237 1; 
238 1; 239 1; 240 1; 241 1; 242 1; 
243 1; 244 1; 245 2; 246 1; 247 382; 
248 70; 249 7; 250 1; 251 1; 252 1; 
253 1; 254 1; 255 1; 256 1; 257 1; 
259 1; 260 1; 261 1; 262 1; 264 1; 
265 1; 266 1; 267 1; 268 1; 269 1; 
270 1; 271 1; 272 1; 273 1; 274 1; 
275 1; 276 1; 277 1; 278 1; 279 1; 
280 1; 282 1; 283 1; 284 1; 285 1; 
286 1; 287 1; 288 1; 289 1; 290 1; 
291 1; 292 1; 293 1; 294 1; 295 1; 
296 1; 297 1; 298 1; 299 1; 300 1; 
301 1; 302 1; 303 1; 304 1; 305 1; 
306 1; 307 1; 308 1; 309 1; 310 1; 
311 1; 312 1; 313 1; 314 1; 315 1; 
316 1; 317 1; 318 1; 319 1; 320 1; 
321 1; 323 1; 324 1; 325 1; 326 1; 
327 1; 328 1; 329 1; 331 1; 332 1; 
333 1; 334 1; 336 5; 337 1; 338 1; 
339 1; 
