Name: Phenoxyacetyl fentanyl
InChIKey: IFPKCNASKXNARX-UHFFFAOYSA-N
Synon: N-(1-phenethylpiperidin-4-yl)-2-phenoxy-N-phenylacetamide
Formula: C27H30N2O2
MW: 414
ExactMass: 414.230728
CASNO: 0
ID: 5015
Comment: Provided by www.caymanchem.com/app/template/landing%2CForensic.vm / Item#25604 Batch#0534199
Num Peaks: 376
40 6; 41 47; 42 170; 43 23; 44 64; 
45 2; 46 2; 47 5; 48 2; 49 3; 
50 33; 51 100; 52 30; 53 21; 54 19; 
55 55; 56 28; 57 15; 58 12; 59 3; 
60 1; 61 4; 62 14; 63 31; 64 35; 
65 242; 66 97; 67 26; 68 59; 69 32; 
70 74; 71 5; 72 2; 73 16; 74 13; 
75 13; 76 13; 77 865; 78 169; 79 245; 
80 17; 81 9; 82 26; 83 11; 84 9; 
85 2; 86 1; 87 2; 88 1; 89 15; 
90 12; 91 250; 92 80; 93 125; 94 253; 
95 29; 96 315; 97 29; 98 28; 99 2; 
100 1; 101 6; 102 10; 103 81; 104 150; 
105 233; 106 388; 107 342; 108 160; 109 11; 
110 4; 111 1; 112 2; 113 2; 114 2; 
115 11; 116 6; 117 19; 118 53; 119 31; 
120 49; 121 6; 122 1; 123 1; 124 1; 
125 3; 126 2; 127 2; 128 6; 129 4; 
130 57; 131 34; 132 109; 133 41; 134 17; 
135 18; 136 3; 137 2; 138 1; 139 89; 
140 8; 141 1; 142 3; 143 6; 144 23; 
145 7; 146 46; 147 26; 148 4; 149 5; 
150 2; 151 1; 152 2; 153 2; 154 4; 
155 2; 156 10; 157 3; 158 127; 159 21; 
160 16; 161 11; 162 13; 163 4; 164 1; 
165 3; 166 4; 167 2; 168 3; 169 8; 
170 4; 171 2; 172 6; 173 3; 174 2; 
175 4; 176 1; 177 16; 178 4; 179 1; 
180 4; 181 1; 182 6; 183 3; 184 8; 
185 15; 186 87; 187 48; 188 33; 189 12; 
190 6; 191 7; 192 3; 193 2; 194 3; 
195 3; 196 3; 197 2; 198 1; 199 1; 
200 2; 201 22; 202 6; 203 1; 204 1; 
205 1; 206 1; 207 29; 208 4; 209 5; 
210 4; 211 3; 212 1; 213 3; 214 1; 
215 2; 216 1; 217 2; 218 1; 219 1; 
220 2; 221 2; 222 1; 223 2; 224 1; 
225 2; 226 1; 227 210; 228 52; 229 23; 
230 3; 231 5; 232 2; 233 1; 234 1; 
235 1; 236 1; 237 1; 238 1; 239 1; 
240 1; 241 1; 242 1; 243 1; 244 1; 
245 1; 246 1; 247 1; 248 1; 249 4; 
250 3; 251 2; 252 45; 253 19; 254 3; 
255 2; 256 1; 257 1; 258 1; 259 2; 
260 1; 261 1; 262 1; 263 1; 264 1; 
265 1; 266 2; 267 11; 268 3; 269 4; 
270 3; 271 2; 272 1; 273 1; 274 1; 
275 1; 276 1; 277 1; 278 1; 279 3; 
280 88; 281 36; 282 3; 283 7; 284 2; 
285 2; 286 1; 287 1; 288 1; 289 1; 
290 2; 291 1; 292 1; 293 1; 294 2; 
295 1; 296 1; 297 1; 298 1; 299 1; 
300 1; 301 1; 302 1; 303 1; 305 1; 
306 1; 307 1; 308 1; 309 1; 310 1; 
311 1; 312 1; 313 1; 314 1; 315 2; 
316 2; 317 1; 318 1; 319 1; 320 1; 
321 1; 322 1; 323 999; 324 150; 325 17; 
326 1; 327 4; 328 2; 329 1; 330 2; 
331 4; 332 2; 333 1; 334 1; 335 1; 
336 1; 337 1; 338 1; 339 1; 340 1; 
341 6; 342 3; 343 6; 344 1; 345 1; 
346 2; 347 1; 348 1; 349 1; 350 1; 
351 1; 352 1; 353 1; 354 1; 355 2; 
356 1; 357 2; 358 1; 359 1; 360 1; 
361 1; 362 1; 363 1; 364 1; 365 1; 
366 1; 367 1; 368 1; 369 1; 370 1; 
371 1; 372 1; 373 1; 374 1; 375 1; 
376 1; 377 1; 378 1; 379 1; 380 1; 
381 1; 382 1; 383 1; 384 1; 385 1; 
386 1; 387 1; 388 1; 389 1; 390 1; 
391 1; 392 1; 393 1; 394 1; 395 1; 
396 1; 397 1; 398 1; 399 1; 400 1; 
401 1; 402 1; 403 1; 404 1; 405 1; 
406 2; 407 1; 408 1; 409 1; 410 1; 
411 1; 412 2; 413 1; 414 1; 415 2; 
416 1; 
