Name: 3'-Methyl Fentanyl
InChIKey: RBPHYEMEGYTXGK-UHFFFAOYSA-N
Synon: N-[1-[2-(3-methylphenyl)ethyl]-4-piperidinyl]-N-phenyl-propanamide
Formula: C23H30N2O
MW: 350
ExactMass: 350.235813
CASNO: 90736177
ID: 5016
Comment: Provided by www.caymanchem.com/app/template/landing%2CForensic.vm / Item#25476 Batch#0532781
Num Peaks: 307
40 1; 41 60; 42 162; 43 25; 44 87; 
45 2; 46 1; 47 1; 48 1; 49 1; 
50 17; 51 51; 52 20; 53 18; 54 17; 
55 36; 56 32; 57 253; 58 13; 59 2; 
60 1; 61 4; 62 6; 63 38; 64 32; 
65 130; 66 61; 67 33; 68 39; 69 32; 
70 53; 71 7; 72 2; 73 6; 74 8; 
75 5; 76 15; 77 233; 78 48; 79 70; 
80 19; 81 9; 82 29; 83 5; 84 7; 
85 1; 86 2; 87 2; 88 1; 89 9; 
90 10; 91 148; 92 77; 93 830; 94 94; 
95 20; 96 260; 97 28; 98 19; 99 2; 
100 1; 101 1; 102 10; 103 67; 104 94; 
105 215; 106 53; 107 6; 108 3; 109 1; 
110 1; 111 2; 112 1; 113 2; 114 1; 
115 37; 116 15; 117 101; 118 117; 119 160; 
120 34; 121 2; 122 1; 123 1; 124 1; 
125 1; 126 1; 127 1; 128 6; 129 6; 
130 73; 131 61; 132 119; 133 19; 134 4; 
135 5; 136 1; 137 1; 138 1; 139 8; 
140 1; 141 2; 142 2; 143 4; 144 27; 
145 15; 146 549; 147 64; 148 14; 149 157; 
150 21; 151 2; 152 1; 153 1; 154 2; 
155 1; 156 6; 157 3; 158 55; 159 14; 
160 9; 161 3; 162 2; 163 1; 164 1; 
165 1; 166 1; 167 1; 168 1; 169 1; 
170 1; 171 1; 172 6; 173 3; 174 7; 
175 1; 176 1; 177 1; 178 1; 179 1; 
180 1; 181 1; 182 1; 183 1; 184 1; 
185 1; 186 2; 187 5; 188 6; 189 346; 
190 48; 191 3; 192 1; 193 1; 194 1; 
195 1; 196 1; 197 1; 198 10; 199 9; 
200 26; 201 18; 202 130; 203 20; 204 3; 
205 1; 206 1; 207 3; 208 1; 209 1; 
210 1; 211 1; 212 1; 213 1; 214 1; 
215 1; 216 4; 217 1; 218 1; 219 1; 
220 1; 221 1; 222 1; 223 1; 224 1; 
225 1; 226 1; 227 1; 228 1; 229 1; 
230 1; 231 1; 232 1; 233 1; 234 1; 
235 1; 236 1; 237 1; 238 1; 239 1; 
240 1; 241 1; 242 1; 243 4; 244 1; 
245 999; 246 172; 247 16; 248 1; 249 1; 
250 1; 251 1; 252 1; 253 6; 254 1; 
255 1; 256 1; 257 1; 258 1; 259 1; 
260 1; 262 1; 263 1; 264 1; 265 3; 
266 1; 267 1; 268 1; 269 1; 270 1; 
271 1; 272 1; 273 1; 274 1; 275 1; 
276 1; 277 1; 278 1; 280 1; 281 4; 
282 1; 283 2; 284 1; 285 1; 286 1; 
287 1; 288 1; 289 1; 290 1; 291 1; 
292 1; 293 1; 294 1; 295 1; 296 1; 
297 1; 298 1; 299 1; 300 1; 301 1; 
302 1; 303 1; 304 1; 305 1; 306 1; 
307 1; 308 1; 310 1; 311 1; 312 1; 
313 1; 314 1; 315 1; 316 1; 317 1; 
318 1; 319 1; 320 1; 321 1; 322 1; 
323 1; 324 1; 325 1; 326 1; 327 2; 
328 1; 329 1; 330 1; 331 1; 332 1; 
333 1; 334 1; 335 1; 336 1; 339 1; 
340 1; 341 1; 342 1; 343 1; 344 1; 
345 1; 346 1; 347 1; 348 6; 349 1; 
350 1; 351 1; 
