Name: nor-6.beta.-Oxycodol
InChIKey: KFWOOLJUSYSBAD-BGMJHJHJSA-N
Synon: 4,5.alpha.-Epoxy-3-methoxy-morphinan-6.beta.,14-diol
Formula: C17H21NO4
MW: 303
ExactMass: 303.147058
CASNO: 764620362
ID: 5017
Comment: Provided by www.caymanchem.com/app/template/landing%2CForensic.vm / Item# 21545 Batch# 0534028
Num Peaks: 266
41 74; 42 64; 43 119; 44 101; 45 29; 
46 2; 47 4; 48 1; 49 1; 50 11; 
51 40; 52 16; 53 39; 54 22; 55 87; 
56 113; 57 145; 58 25; 59 6; 60 4; 
61 3; 62 7; 63 44; 64 20; 65 65; 
66 19; 67 26; 68 29; 69 35; 70 25; 
71 20; 72 22; 73 47; 74 16; 75 31; 
76 30; 77 141; 78 65; 79 45; 80 34; 
81 24; 82 28; 83 16; 84 34; 85 49; 
86 17; 87 14; 88 13; 89 66; 90 32; 
91 130; 92 26; 93 19; 94 25; 95 14; 
96 17; 97 12; 98 14; 99 17; 100 10; 
101 26; 102 64; 103 100; 104 38; 105 42; 
106 22; 107 26; 108 22; 109 8; 110 15; 
111 5; 112 4; 113 16; 114 20; 115 321; 
116 83; 117 79; 118 50; 119 30; 120 19; 
121 25; 122 18; 123 11; 124 4; 125 4; 
126 25; 127 106; 128 177; 129 100; 130 71; 
131 99; 132 50; 133 46; 134 18; 135 24; 
136 10; 137 50; 138 20; 139 38; 140 20; 
141 74; 142 35; 143 67; 144 91; 145 71; 
146 54; 147 49; 148 34; 149 15; 150 12; 
151 19; 152 52; 153 52; 154 43; 155 60; 
156 54; 157 63; 158 62; 159 69; 160 49; 
161 104; 162 53; 163 27; 164 13; 165 45; 
166 37; 167 34; 168 54; 169 58; 170 61; 
171 79; 172 57; 173 77; 174 73; 175 184; 
176 76; 177 31; 178 35; 179 16; 180 14; 
181 63; 182 39; 183 62; 184 76; 185 183; 
186 89; 187 97; 188 110; 189 225; 190 92; 
191 32; 192 10; 193 23; 194 14; 195 28; 
196 43; 197 54; 198 126; 199 160; 200 176; 
201 317; 202 163; 203 96; 204 85; 205 25; 
206 6; 207 110; 208 31; 209 35; 210 20; 
211 53; 212 61; 213 183; 214 170; 215 144; 
216 501; 217 120; 218 240; 219 59; 220 10; 
221 6; 222 4; 223 13; 224 28; 225 37; 
226 64; 227 77; 228 112; 229 167; 230 91; 
231 53; 232 34; 233 10; 234 5; 235 5; 
236 5; 237 8; 238 18; 239 20; 240 57; 
241 54; 242 271; 243 88; 244 40; 245 22; 
246 101; 247 62; 248 57; 249 14; 250 7; 
251 10; 252 14; 253 28; 254 15; 255 7; 
256 151; 257 56; 258 40; 259 29; 260 143; 
261 36; 262 6; 263 1; 264 1; 265 5; 
266 20; 267 23; 268 31; 269 10; 270 22; 
271 7; 272 5; 273 5; 274 47; 275 16; 
276 2; 277 1; 278 1; 279 1; 280 1; 
281 37; 282 15; 283 9; 284 61; 285 83; 
286 101; 287 19; 288 18; 289 3; 290 1; 
291 1; 293 1; 294 1; 295 2; 296 1; 
297 1; 298 1; 299 2; 300 1; 301 24; 
302 1; 303 999; 304 184; 305 25; 306 2; 
307 1; 
