Name: Hexanoyl fentanyl
InChIKey: PWKBFVCAQVONRR-UHFFFAOYSA-N
Synon: N-(1-phenethylpiperidin-4-yl)-N-phenylhexanamide
Formula: C25H34N2O
MW: 378
ExactMass: 378.267115
CASNO: 0
ID: 5018
Comment: Provided by www.caymanchem.com/app/template/landing%2CForensic.vm / Item#23751 Batch#0531060 / SWGDRUG Monograph available
Num Peaks: 331
40 1; 41 99; 42 152; 43 265; 44 86; 
45 2; 46 1; 47 1; 48 1; 49 1; 
50 7; 51 23; 52 8; 53 13; 54 13; 
55 73; 56 29; 57 20; 58 4; 59 1; 
60 1; 61 1; 62 2; 63 11; 64 7; 
65 56; 66 13; 67 29; 68 38; 69 47; 
70 72; 71 117; 72 7; 73 3; 74 3; 
75 4; 76 7; 77 167; 78 40; 79 67; 
80 18; 81 10; 82 34; 83 11; 84 19; 
85 2; 86 1; 87 1; 88 1; 89 8; 
90 8; 91 243; 92 42; 93 132; 94 58; 
95 30; 96 200; 97 32; 98 16; 99 65; 
100 3; 101 2; 102 6; 103 55; 104 95; 
105 283; 106 52; 107 5; 108 3; 109 1; 
110 1; 111 2; 112 2; 113 1; 114 1; 
115 10; 116 6; 117 37; 118 85; 119 40; 
120 18; 121 1; 122 1; 123 1; 124 1; 
125 1; 126 1; 127 1; 128 4; 129 6; 
130 97; 131 77; 132 127; 133 22; 134 19; 
135 14; 136 1; 137 1; 138 1; 139 27; 
140 3; 141 1; 142 1; 143 6; 144 21; 
145 14; 146 618; 147 70; 148 13; 149 1; 
150 1; 151 1; 152 1; 153 1; 154 1; 
155 1; 156 5; 157 3; 158 30; 159 13; 
160 32; 161 5; 162 1; 163 1; 164 1; 
165 1; 166 1; 167 1; 168 1; 169 1; 
170 2; 171 1; 172 6; 173 6; 174 5; 
175 1; 176 1; 177 1; 178 1; 179 1; 
180 1; 181 1; 182 3; 183 1; 184 15; 
185 13; 186 22; 187 30; 188 65; 189 462; 
190 51; 191 10; 192 3; 193 2; 194 1; 
195 2; 196 1; 197 1; 198 1; 199 1; 
200 1; 201 1; 202 1; 203 1; 204 1; 
205 1; 209 1; 210 1; 211 1; 212 1; 
213 1; 214 1; 215 1; 216 1; 217 1; 
218 1; 219 1; 220 1; 221 1; 222 1; 
223 1; 224 1; 225 1; 226 1; 227 1; 
228 1; 229 2; 230 1; 231 3; 232 1; 
233 1; 234 1; 235 1; 236 1; 237 1; 
238 1; 239 1; 240 1; 241 1; 242 1; 
243 1; 244 29; 245 4; 246 1; 247 1; 
248 1; 249 1; 250 1; 251 1; 252 1; 
253 8; 254 1; 255 1; 256 1; 257 1; 
258 3; 259 1; 260 1; 261 1; 262 1; 
263 1; 264 1; 265 1; 266 1; 267 1; 
268 1; 269 3; 270 1; 271 1; 272 1; 
273 1; 274 1; 275 1; 276 1; 277 1; 
278 1; 279 4; 280 1; 281 2; 282 1; 
283 1; 284 1; 285 4; 286 1; 287 999; 
288 201; 289 20; 290 1; 291 1; 292 1; 
293 1; 294 1; 295 1; 296 1; 297 1; 
298 1; 299 1; 300 1; 301 1; 302 1; 
303 1; 304 1; 305 1; 306 1; 307 1; 
308 1; 310 1; 311 1; 312 1; 313 1; 
314 1; 315 1; 316 1; 317 1; 318 1; 
319 1; 320 1; 321 1; 322 1; 323 1; 
324 1; 325 1; 326 1; 327 1; 328 1; 
329 1; 330 1; 331 1; 332 1; 333 1; 
334 1; 335 1; 336 1; 337 1; 338 1; 
339 1; 340 1; 341 2; 342 1; 343 1; 
344 1; 345 1; 346 1; 347 1; 348 1; 
349 1; 350 1; 351 1; 352 1; 353 1; 
354 1; 355 1; 356 1; 357 1; 358 1; 
360 1; 361 1; 362 1; 363 1; 364 1; 
365 1; 366 1; 367 1; 368 1; 372 1; 
373 1; 374 1; 375 1; 376 4; 377 1; 
378 1; 
