Name: N-(3-ethylindole) Norfentanyl
InChIKey: KZRCNDCSHLUGKI-UHFFFAOYSA-N
Synon: N-[1-[2-(1H-indol-3-yl)ethyl]-4-piperidinyl]-N-phenyl-propanamide
Formula: C24H29N3O
MW: 375
ExactMass: 375.231062
CASNO: 58399465
ID: 5019
Comment: Provided by www.caymanchem.com/app/template/landing%2CForensic.vm / Item#24721 Batch#0536516
Num Peaks: 332
40 1; 41 33; 42 128; 43 23; 44 71; 
45 3; 46 1; 47 1; 48 1; 49 1; 
50 6; 51 17; 52 13; 53 7; 54 11; 
55 27; 56 21; 57 152; 58 7; 59 1; 
60 1; 61 2; 62 3; 63 10; 64 11; 
65 39; 66 21; 67 27; 68 31; 69 20; 
70 49; 71 3; 72 1; 73 20; 74 5; 
75 11; 76 16; 77 154; 78 27; 79 20; 
80 7; 81 7; 82 47; 83 4; 84 7; 
85 1; 86 2; 87 2; 88 2; 89 11; 
90 8; 91 45; 92 16; 93 236; 94 48; 
95 42; 96 146; 97 25; 98 15; 99 2; 
100 1; 101 4; 102 24; 103 57; 104 55; 
105 21; 106 21; 107 3; 108 2; 109 1; 
110 1; 111 1; 112 1; 113 2; 114 3; 
115 66; 116 20; 117 55; 118 77; 119 21; 
120 14; 121 1; 122 1; 123 1; 124 1; 
125 1; 126 1; 127 7; 128 32; 129 25; 
130 386; 131 82; 132 103; 133 14; 134 3; 
135 9; 136 1; 137 1; 138 1; 139 9; 
140 6; 141 4; 142 24; 143 104; 144 153; 
145 24; 146 489; 147 57; 148 10; 149 35; 
150 14; 151 3; 152 1; 153 1; 154 5; 
155 2; 156 24; 157 4; 158 45; 159 7; 
160 3; 161 2; 162 1; 163 1; 164 1; 
165 2; 166 1; 167 3; 168 4; 169 5; 
170 6; 171 3; 172 3; 173 2; 174 1; 
175 2; 176 1; 177 2; 178 1; 179 1; 
180 1; 181 1; 182 2; 183 1; 184 2; 
185 28; 186 2; 187 8; 188 9; 189 291; 
190 34; 191 5; 192 1; 193 4; 194 2; 
195 2; 196 1; 197 5; 198 1; 199 2; 
200 1; 201 1; 202 95; 203 9; 204 1; 
205 1; 206 1; 207 19; 208 5; 209 6; 
210 1; 211 1; 212 1; 213 1; 214 1; 
215 1; 216 2; 217 1; 218 1; 219 1; 
220 1; 221 2; 222 1; 223 4; 224 3; 
225 6; 226 6; 227 3; 228 1; 229 1; 
230 1; 231 1; 232 1; 233 1; 234 1; 
235 1; 236 1; 237 1; 238 1; 239 1; 
240 1; 241 1; 242 1; 243 2; 244 1; 
245 999; 246 168; 247 15; 248 1; 249 2; 
250 1; 251 1; 252 1; 253 12; 254 3; 
255 2; 256 1; 257 1; 258 1; 259 1; 
260 1; 261 1; 262 1; 263 1; 264 1; 
265 1; 266 1; 267 2; 268 2; 269 1; 
270 1; 271 1; 272 1; 273 1; 274 1; 
275 1; 276 1; 277 1; 278 1; 279 1; 
280 1; 281 7; 282 3; 283 2; 284 1; 
285 1; 286 1; 287 1; 288 1; 289 1; 
290 1; 291 1; 292 1; 293 1; 294 1; 
295 1; 296 1; 297 1; 298 1; 299 1; 
300 1; 301 1; 302 1; 303 1; 304 1; 
305 1; 306 1; 307 1; 308 1; 309 1; 
310 1; 311 1; 312 1; 313 1; 314 1; 
315 2; 316 1; 317 1; 318 1; 319 1; 
320 1; 321 1; 322 1; 323 1; 324 1; 
325 1; 326 1; 327 2; 328 1; 329 1; 
330 1; 331 2; 332 2; 333 1; 334 1; 
335 1; 336 1; 337 1; 338 1; 339 1; 
340 1; 341 5; 342 1; 343 1; 344 1; 
345 1; 346 1; 347 1; 348 1; 349 1; 
350 1; 351 1; 352 1; 353 1; 354 1; 
355 2; 356 2; 357 1; 358 1; 359 1; 
360 1; 361 1; 362 1; 363 1; 364 1; 
365 1; 366 1; 367 1; 368 1; 369 1; 
370 1; 371 1; 
