Name: Desmethylcitalopram-d3
InChIKey: PTJADDMMFYXMMG-COJYBMMNSA-N
Synon: 1-(4-fluorophenyl)-1,3-dihydro-1-[3-((methyl-d3)amino)propyl]-5-isobenzofurancarbonitrile
Formula: C19H16D3FN2O
MW: 313
ExactMass: 313.166971
CASNO: 1189490718
ID: 5020
Comment: Provided by www.caymanchem.com/app/template/landing%2CForensic.vm / Item#15840 Batch#0535477
Num Peaks: 275
40 1; 41 9; 42 8; 43 11; 44 14; 
45 47; 46 54; 47 999; 48 28; 49 1; 
50 6; 51 8; 52 2; 53 1; 54 3; 
55 3; 56 4; 57 7; 58 15; 59 18; 
60 125; 61 16; 62 51; 63 15; 64 5; 
65 3; 66 1; 67 1; 68 2; 69 6; 
70 5; 71 5; 72 5; 73 38; 74 14; 
75 59; 76 10; 77 7; 78 2; 79 1; 
80 1; 81 5; 82 1; 83 12; 84 1; 
85 1; 86 3; 87 7; 88 17; 89 14; 
90 4; 91 2; 92 1; 93 2; 94 6; 
95 68; 96 12; 97 2; 98 1; 99 3; 
100 4; 101 11; 102 7; 103 5; 104 2; 
105 2; 106 2; 107 7; 108 1; 109 35; 
110 5; 111 3; 112 1; 113 5; 114 21; 
115 39; 116 19; 117 3; 118 1; 119 1; 
120 5; 121 3; 122 5; 123 35; 124 3; 
125 3; 126 3; 127 8; 128 11; 129 8; 
130 2; 131 5; 132 2; 133 17; 134 3; 
135 3; 136 1; 137 2; 138 2; 139 3; 
140 23; 141 92; 142 12; 143 7; 144 7; 
145 2; 146 5; 147 1; 148 1; 149 2; 
150 3; 151 2; 152 3; 153 6; 154 17; 
155 6; 156 12; 157 31; 158 10; 159 2; 
160 1; 161 3; 162 3; 163 14; 164 8; 
165 2; 166 2; 167 1; 168 4; 169 6; 
170 15; 171 6; 172 2; 173 1; 174 2; 
175 5; 176 5; 177 7; 178 1; 179 3; 
180 4; 181 24; 182 25; 183 79; 184 19; 
185 2; 186 1; 187 2; 188 11; 189 9; 
190 105; 191 17; 192 2; 193 6; 194 8; 
195 19; 196 5; 197 8; 198 2; 199 1; 
200 9; 201 6; 202 4; 203 3; 204 2; 
205 1; 206 8; 207 8; 208 165; 209 49; 
210 18; 211 6; 212 3; 213 1; 214 3; 
215 1; 216 1; 217 1; 218 60; 219 21; 
220 68; 221 61; 222 16; 223 4; 224 1; 
225 1; 226 1; 227 2; 228 1; 229 1; 
230 1; 231 1; 232 3; 233 3; 234 12; 
235 5; 236 8; 237 61; 238 333; 239 55; 
240 9; 241 1; 242 1; 243 1; 244 1; 
245 4; 246 3; 247 3; 248 3; 249 2; 
250 4; 251 3; 252 1; 253 1; 254 1; 
255 1; 256 1; 257 1; 258 3; 259 2; 
260 4; 261 2; 262 1; 263 1; 264 1; 
265 1; 266 2; 267 2; 268 1; 269 1; 
270 1; 271 1; 272 1; 273 1; 274 1; 
275 1; 276 1; 277 1; 278 1; 279 1; 
280 1; 282 1; 283 1; 284 5; 285 2; 
286 1; 287 1; 288 1; 289 1; 290 1; 
291 1; 292 1; 293 1; 294 2; 295 2; 
296 1; 297 1; 298 1; 299 1; 300 1; 
301 1; 302 1; 303 1; 304 1; 305 1; 
306 1; 307 1; 308 1; 309 1; 310 1; 
311 1; 312 1; 313 50; 314 11; 315 1; 
