Name: cis-Isofentanyl
InChIKey: MSAFCEWTMBDBFQ-NQIIRXRSSA-N
Synon: cis-N-[3-methyl-1-(phenylmethyl)-4-piperidinyl]-N-phenyl-propanamide
Formula: C22H28N2O
MW: 336
ExactMass: 336.220163
CASNO: 79278685
ID: 5021
Comment: Provided by www.caymanchem.com/app/template/landing%2CForensic.vm / Item#24102 Batch#0534815
Num Peaks: 294
41 34; 42 43; 43 5; 44 4; 45 1; 
46 1; 47 1; 48 1; 49 1; 50 4; 
51 17; 52 4; 53 5; 54 5; 55 10; 
56 12; 57 135; 58 5; 59 1; 60 1; 
61 1; 62 2; 63 10; 64 8; 65 80; 
66 10; 67 10; 68 18; 69 21; 70 52; 
71 3; 72 1; 73 1; 74 3; 75 2; 
76 4; 77 86; 78 15; 79 8; 80 6; 
81 4; 82 6; 83 11; 84 4; 85 1; 
86 1; 87 1; 88 1; 89 17; 90 16; 
91 999; 92 92; 93 47; 94 18; 95 4; 
96 692; 97 48; 98 2; 99 1; 100 1; 
101 1; 102 1; 103 8; 104 40; 105 16; 
106 24; 107 2; 108 1; 109 1; 110 7; 
111 1; 112 1; 113 1; 114 2; 115 6; 
116 4; 117 32; 118 76; 119 49; 120 66; 
121 6; 122 1; 123 1; 124 1; 125 1; 
126 1; 127 1; 128 3; 129 3; 130 24; 
131 16; 132 82; 133 24; 134 41; 135 4; 
136 1; 137 1; 138 1; 139 1; 140 1; 
141 1; 142 1; 143 4; 144 29; 145 32; 
146 126; 147 21; 148 10; 149 8; 150 11; 
151 1; 152 1; 153 1; 154 1; 155 1; 
156 2; 157 1; 158 30; 159 12; 160 98; 
161 19; 162 3; 163 1; 164 1; 165 1; 
166 1; 167 1; 168 1; 169 1; 170 3; 
171 1; 172 128; 173 19; 174 4; 175 2; 
176 11; 177 1; 178 1; 179 1; 180 1; 
181 1; 182 1; 183 1; 184 4; 185 3; 
186 76; 187 67; 188 73; 189 14; 190 6; 
191 1; 192 1; 193 1; 194 1; 195 1; 
196 1; 197 1; 198 1; 199 1; 200 1; 
201 1; 202 4; 203 6; 204 3; 205 1; 
206 1; 208 1; 209 1; 210 1; 211 1; 
212 1; 213 1; 214 1; 215 1; 216 4; 
217 5; 218 2; 219 1; 220 1; 221 1; 
222 1; 223 1; 224 1; 225 1; 226 1; 
227 1; 228 1; 229 3; 230 2; 231 4; 
232 1; 233 1; 234 1; 235 1; 236 1; 
237 1; 238 1; 239 1; 240 1; 241 1; 
242 1; 243 1; 244 1; 245 41; 246 7; 
247 1; 248 9; 249 2; 250 3; 251 2; 
252 1; 253 1; 254 1; 255 1; 256 1; 
257 1; 258 1; 259 1; 260 1; 261 1; 
262 2; 263 15; 264 5; 265 1; 266 1; 
267 1; 268 1; 269 1; 270 1; 271 1; 
272 1; 273 1; 274 1; 275 1; 276 1; 
277 1; 278 1; 279 76; 280 17; 281 1; 
282 1; 283 1; 285 1; 286 1; 287 1; 
289 1; 290 1; 291 1; 292 1; 293 1; 
294 1; 295 1; 296 1; 297 1; 298 1; 
300 1; 301 1; 302 1; 303 1; 304 1; 
305 1; 306 1; 307 3; 308 1; 309 1; 
310 1; 311 1; 312 1; 313 1; 314 1; 
315 1; 316 1; 317 1; 318 1; 319 1; 
320 1; 321 1; 322 1; 323 1; 324 1; 
325 1; 326 1; 327 1; 328 1; 329 1; 
330 1; 331 1; 332 1; 333 1; 334 1; 
335 4; 336 25; 337 6; 338 1; 
