Name: Despropionyl para-Methylfentanyl
InChIKey: PPFZZKQMVFHCCX-UHFFFAOYSA-N
Synon: Despropionyl 4-Methylfentanyl
Synon: Despropionyl p-Methylfentanyl
Synon: para-Methyl 4-ANPP
Synon: N-(4-methylphenyl)-1-(2-phenylethyl)-4-piperidinamine
Formula: C20H26N2
MW: 294
ExactMass: 294.209599
CASNO: 28456204
ID: 5022
Comment: Provided by www.caymanchem.com/app/template/landing%2CForensic.vm / Item#25745 Batch#0535899
Num Peaks: 246
41 36; 42 160; 43 17; 44 143; 45 4; 
46 1; 47 1; 48 1; 49 1; 50 9; 
51 24; 52 13; 53 17; 54 14; 55 20; 
56 23; 57 15; 58 3; 59 1; 60 1; 
61 1; 62 4; 63 15; 64 7; 65 86; 
66 9; 67 13; 68 25; 69 16; 70 70; 
71 6; 72 1; 73 5; 74 4; 75 5; 
76 6; 77 121; 78 48; 79 92; 80 24; 
81 5; 82 15; 83 2; 84 6; 85 1; 
86 1; 87 1; 88 1; 89 26; 90 18; 
91 316; 92 33; 93 8; 94 16; 95 5; 
96 247; 97 30; 98 5; 99 1; 100 1; 
102 82; 103 55; 104 48; 105 207; 106 143; 
107 76; 108 16; 109 1; 110 1; 111 1; 
112 1; 113 1; 114 1; 115 9; 116 6; 
117 37; 118 66; 119 15; 120 31; 121 3; 
122 1; 123 1; 124 1; 125 1; 126 1; 
127 1; 128 4; 129 4; 130 58; 131 39; 
132 139; 133 44; 134 20; 135 4; 136 1; 
137 1; 138 1; 139 1; 140 1; 141 1; 
142 2; 143 8; 144 50; 145 57; 146 105; 
147 13; 148 3; 149 1; 150 1; 151 1; 
152 1; 153 1; 154 1; 155 1; 156 4; 
157 2; 158 12; 159 4; 160 999; 161 130; 
162 16; 163 2; 164 1; 165 1; 166 1; 
167 1; 168 1; 169 1; 170 1; 171 1; 
172 4; 173 3; 174 5; 175 2; 176 1; 
177 1; 178 1; 179 1; 180 1; 181 1; 
182 1; 183 1; 184 7; 185 6; 186 7; 
187 7; 188 9; 189 2; 190 1; 191 1; 
192 1; 193 1; 194 1; 195 1; 196 1; 
197 1; 198 1; 199 1; 200 1; 201 11; 
202 5; 203 687; 204 100; 205 8; 206 1; 
207 1; 208 1; 209 1; 210 1; 211 1; 
212 1; 214 1; 215 1; 216 1; 217 1; 
218 1; 219 1; 220 1; 221 1; 222 1; 
223 1; 224 1; 225 1; 226 1; 227 1; 
229 1; 230 1; 231 1; 234 1; 235 1; 
236 1; 237 1; 238 1; 239 1; 240 1; 
242 1; 243 1; 244 1; 245 1; 246 1; 
247 1; 248 1; 249 1; 250 1; 251 1; 
252 1; 253 3; 254 1; 255 1; 256 1; 
257 1; 258 1; 260 1; 261 1; 263 1; 
264 1; 265 1; 266 1; 267 1; 269 1; 
270 1; 271 1; 272 1; 273 1; 274 1; 
275 1; 276 1; 278 1; 279 1; 280 1; 
281 3; 282 1; 283 1; 284 1; 285 1; 
286 1; 287 1; 288 1; 290 1; 291 1; 
292 3; 293 1; 294 74; 295 16; 296 2; 
297 1; 
