Name: Flunitrazolam
InChIKey: RDLAGIOILLWVTM-UHFFFAOYSA-N
Synon: 6-(2-Fluorophenyl)-1-methyl-8-nitro-4H-benzo[f][1,2,4]triazolo[4,3-a][1,4]diazepine
Formula: C17H12FN5O2
MW: 337
ExactMass: 337.097504
CASNO: 2147483647
ID: 5023
Comment: Provided by www.caymanchem.com/app/template/landing%2CForensic.vm / Item# 23108 Batch#0530654
Num Peaks: 303
40 6; 41 33; 42 59; 43 2; 44 8; 
45 5; 46 11; 47 1; 48 1; 49 1; 
50 50; 51 72; 52 19; 53 6; 54 12; 
55 3; 56 3; 57 15; 58 1; 59 1; 
60 1; 61 7; 62 44; 63 78; 64 22; 
65 30; 66 22; 67 7; 68 11; 69 15; 
70 16; 71 1; 72 3; 73 17; 74 98; 
75 310; 76 99; 77 71; 78 34; 79 6; 
80 17; 81 29; 82 4; 83 23; 84 13; 
85 13; 86 12; 87 15; 88 50; 89 49; 
90 39; 91 14; 92 12; 93 12; 94 76; 
95 94; 96 21; 97 4; 98 33; 99 35; 
100 34; 101 94; 102 197; 103 44; 104 5; 
105 21; 106 21; 107 51; 108 18; 109 26; 
110 12; 111 19; 112 11; 113 11; 114 11; 
115 54; 116 34; 117 38; 118 13; 119 8; 
120 32; 121 93; 122 54; 123 13; 124 5; 
125 16; 126 7; 127 19; 128 25; 129 37; 
130 24; 131 25; 132 29; 133 35; 134 16; 
135 33; 136 8; 137 4; 138 3; 139 4; 
140 22; 141 22; 142 53; 143 18; 144 57; 
145 46; 146 21; 147 19; 148 4; 149 45; 
150 24; 151 15; 152 4; 153 5; 154 4; 
155 12; 156 20; 157 37; 158 36; 159 10; 
160 3; 161 10; 162 8; 163 12; 164 11; 
165 4; 166 3; 167 7; 168 26; 169 85; 
170 54; 171 16; 172 4; 173 7; 174 20; 
175 47; 176 33; 177 29; 178 6; 179 6; 
180 10; 181 49; 182 37; 183 46; 184 20; 
185 7; 186 3; 187 2; 188 17; 189 6; 
190 11; 191 12; 192 7; 193 25; 194 80; 
195 157; 196 41; 197 27; 198 6; 199 5; 
200 9; 201 49; 202 59; 203 23; 204 20; 
205 7; 206 9; 207 23; 208 57; 209 52; 
210 66; 211 20; 212 4; 213 3; 214 4; 
215 4; 216 11; 217 3; 218 4; 219 12; 
220 37; 221 334; 222 999; 223 255; 224 26; 
225 3; 226 1; 227 3; 228 6; 229 4; 
230 16; 231 12; 232 4; 233 4; 234 6; 
235 10; 236 30; 237 34; 238 32; 239 12; 
240 4; 241 3; 242 10; 243 10; 244 9; 
245 3; 246 3; 247 3; 248 20; 249 66; 
250 46; 251 57; 252 13; 253 11; 254 3; 
255 1; 256 1; 257 1; 258 1; 259 2; 
260 6; 261 12; 262 214; 263 76; 264 19; 
265 6; 266 5; 267 19; 268 32; 269 12; 
270 4; 271 2; 272 7; 273 1; 274 1; 
275 1; 276 4; 277 2; 278 17; 279 4; 
280 1; 281 9; 282 6; 283 25; 284 3; 
285 1; 286 1; 287 1; 288 2; 289 1; 
290 124; 291 42; 292 9; 293 1; 294 1; 
295 10; 296 1; 297 3; 298 1; 299 1; 
300 1; 301 1; 302 1; 303 1; 304 1; 
305 1; 306 1; 307 5; 308 645; 309 139; 
310 14; 311 2; 312 1; 313 1; 314 1; 
315 1; 316 1; 317 1; 318 6; 319 1; 
320 90; 321 27; 322 6; 323 1; 324 1; 
325 1; 326 1; 327 1; 328 1; 329 1; 
330 1; 331 1; 332 1; 333 1; 334 1; 
335 1; 336 1; 337 368; 338 49; 339 5; 
340 1; 341 3; 342 1; 
