Name: Phenyl fentanyl-d5 (Not certified by NIST)
InChIKey: BJPDWVPQDSVQKD-CEBJTGGESA-N
Synon: Benzoyl fentanil-d5
Synon: Benzoyl fentanyl-d5
Synon: Phenyl fentanil-d5
Synon: N-(1-phenethylpiperidin-4-yl)-N-(phenyl-d5)benzamide
Formula: C26H23D5N2O
MW: 389
ExactMass: 389.251547
CASNO: 0
ID: 5024
Comment: Note: Spectrum not certified by NIST / Provided by www.caymanchem.com/app/template/landing%2CForensic.vm / Item#25134 Batch#0536395
Num Peaks: 351
40 1; 41 14; 42 52; 43 4; 44 6; 
45 1; 46 1; 47 1; 48 1; 49 1; 
50 10; 51 41; 52 8; 53 5; 54 13; 
55 10; 56 8; 57 7; 58 1; 59 1; 
60 1; 61 1; 62 1; 63 4; 64 2; 
65 17; 66 4; 67 12; 68 14; 69 18; 
70 45; 71 6; 72 1; 73 9; 74 6; 
75 6; 76 16; 77 346; 78 42; 79 28; 
80 5; 81 7; 82 57; 83 9; 84 3; 
85 1; 86 1; 87 1; 88 1; 89 3; 
90 3; 91 93; 92 10; 93 4; 94 8; 
95 8; 96 92; 97 21; 98 21; 99 2; 
100 1; 101 1; 102 1; 103 26; 104 25; 
105 999; 106 79; 107 5; 108 4; 109 18; 
110 6; 111 3; 112 1; 113 1; 114 1; 
115 2; 116 1; 117 4; 118 2; 119 2; 
120 1; 121 2; 122 7; 123 10; 124 4; 
125 2; 126 1; 127 1; 128 1; 129 1; 
130 4; 131 3; 132 2; 133 5; 134 18; 
135 7; 136 15; 137 15; 138 4; 139 1; 
140 1; 141 1; 142 1; 143 1; 144 1; 
145 1; 146 1; 147 2; 148 2; 149 1; 
150 1; 151 7; 152 1; 153 1; 154 1; 
155 1; 156 3; 157 1; 158 2; 159 1; 
160 6; 161 2; 162 1; 163 36; 164 7; 
165 1; 166 1; 167 1; 168 1; 169 1; 
170 1; 171 1; 172 2; 173 1; 174 1; 
175 1; 176 1; 177 1; 178 2; 179 1; 
180 1; 181 1; 182 2; 183 1; 184 5; 
185 23; 186 15; 187 3; 188 2; 189 1; 
190 1; 191 1; 192 9; 193 7; 194 2; 
195 1; 196 1; 197 1; 198 1; 199 1; 
200 1; 201 1; 202 60; 203 6; 204 1; 
205 1; 206 1; 207 12; 208 2; 209 3; 
210 1; 211 1; 212 1; 213 1; 214 1; 
215 1; 216 1; 217 1; 218 1; 219 1; 
220 1; 221 1; 222 1; 223 1; 224 1; 
225 1; 226 1; 227 1; 228 1; 229 1; 
230 1; 231 1; 232 1; 233 1; 234 1; 
235 1; 236 1; 237 1; 238 1; 239 1; 
240 1; 241 1; 242 1; 243 1; 244 1; 
245 1; 246 1; 247 1; 248 1; 249 1; 
250 1; 251 1; 252 1; 253 5; 254 2; 
255 58; 256 8; 257 1; 258 1; 259 1; 
260 1; 261 1; 262 1; 263 1; 264 1; 
265 1; 266 1; 267 1; 268 1; 269 1; 
270 1; 271 1; 272 1; 273 1; 274 1; 
275 1; 276 1; 277 1; 278 1; 279 1; 
280 1; 281 5; 282 2; 283 1; 284 2; 
285 1; 286 1; 287 1; 288 1; 289 1; 
290 1; 291 1; 292 1; 293 1; 294 1; 
295 1; 296 1; 297 1; 298 396; 299 85; 
300 8; 301 1; 302 1; 303 1; 304 1; 
305 1; 306 1; 307 1; 308 1; 309 1; 
310 1; 311 1; 312 1; 313 1; 314 1; 
315 1; 316 1; 317 1; 318 1; 319 1; 
320 1; 321 1; 322 1; 323 1; 324 1; 
325 1; 326 1; 327 2; 328 1; 329 1; 
330 1; 331 1; 332 1; 333 1; 334 1; 
335 1; 336 1; 337 1; 338 1; 339 1; 
340 1; 341 2; 342 1; 343 1; 344 1; 
345 1; 346 1; 347 1; 348 1; 349 1; 
350 1; 351 1; 352 1; 353 1; 354 1; 
355 1; 356 1; 357 1; 358 1; 359 1; 
360 1; 361 1; 362 1; 363 1; 364 1; 
365 1; 366 1; 367 1; 368 1; 369 1; 
370 1; 371 1; 372 1; 373 1; 374 1; 
375 1; 376 1; 377 1; 378 1; 379 1; 
380 1; 381 1; 382 1; 383 1; 384 1; 
385 1; 386 1; 387 1; 388 1; 389 1; 
390 1; 
