Name: 1,2-Butanediol
InChIKey: BMRWNKZVCUKKSR-UHFFFAOYSA-N
Synon: 1,2-BD
Formula: C4H10O2
MW: 90
ExactMass: 90.0680795
CASNO: 584032
ID: 5025
Comment: DEA North Central Lab (PKP) / Aldrich 17,765-2 Lot 17904PS
Num Peaks: 46
14 4; 15 23; 16 1; 17 1; 18 5; 
19 6; 25 1; 26 16; 27 77; 28 92; 
29 126; 30 17; 31 457; 32 28; 33 9; 
36 2; 37 4; 38 8; 39 61; 40 11; 
41 256; 42 48; 43 222; 44 28; 45 16; 
47 4; 49 1; 50 4; 51 3; 52 1; 
53 6; 54 2; 55 25; 56 4; 57 65; 
58 141; 59 999; 60 53; 61 225; 62 6; 
63 1; 69 1; 71 4; 72 2; 73 1; 
89 1; 
