Name: 1,2-Butanediol 2TMS derivative
InChIKey: NWCNYDAYYOMMQT-UHFFFAOYSA-N
Synon: 1,2-Butanediol di-TMS derivative
Formula: C10H26O2Si2
MW: 234
ExactMass: 234.147133
CASNO: 0
ID: 5026
Comment: DEA North Central Lab (PKP) / deriv. w/BSTFA 1% TMCS
Num Peaks: 73
41 6; 42 2; 43 22; 44 11; 45 65; 
46 4; 47 19; 48 1; 51 1; 52 2; 
53 3; 55 22; 56 2; 57 6; 58 14; 
59 49; 60 6; 61 14; 62 1; 66 52; 
70 2; 71 4; 72 2; 73 547; 74 52; 
75 89; 76 6; 77 4; 81 14; 85 6; 
86 1; 87 4; 88 5; 89 11; 90 1; 
91 1; 94 1; 99 5; 101 16; 102 4; 
103 15; 104 2; 105 5; 113 3; 115 36; 
116 6; 117 34; 118 4; 119 8; 120 1; 
129 9; 130 74; 131 999; 132 136; 133 145; 
134 17; 135 8; 143 1; 144 2; 145 3; 
147 514; 148 85; 149 64; 150 7; 151 2; 
175 2; 177 5; 205 20; 206 4; 207 1; 
219 20; 220 4; 221 1; 
