Name: 1,4-Butanediol
InChIKey: WERYXYBDKMZEQL-UHFFFAOYSA-N
Synon: 1,4-BD
Synon: 1,4-Tetramethylene glycol
Synon: Butylene glycol
Synon: 1,4-Butylene glycol
Synon: Sucol-B
Synon: 1,4-Dihydroxybutane
Formula: C4H10O2
MW: 90
ExactMass: 90.0680795
CASNO: 110634
ID: 5028
Comment: DEA North Central Lab (PKP) / Aldrich 24,055-9 Lot 06606MS
Num Peaks: 46
14 2; 15 13; 17 2; 18 9; 19 12; 
25 2; 26 25; 27 144; 28 32; 29 192; 
30 22; 31 656; 32 8; 33 9; 35 1; 
36 5; 37 8; 38 18; 39 135; 40 61; 
41 408; 42 999; 43 265; 44 855; 45 53; 
46 3; 47 6; 49 9; 50 6; 51 6; 
52 1; 53 27; 54 17; 55 28; 56 5; 
57 249; 58 12; 59 10; 60 46; 61 6; 
62 31; 69 5; 70 4; 71 268; 72 65; 
73 4; 
