Name: 1.4-Butanediol 2TMS derivative
InChIKey: ITDZOVTUXDYFSE-UHFFFAOYSA-N
Synon: 1.4-Butanediol di-TMS derivative
Formula: C10H26O2Si2
MW: 234
ExactMass: 234.147133
CASNO: 0
ID: 5029
Comment: DEA North Central Lab (PKP) / 1,4-butanediol from Aldrich 24,055-9 Lot 06606MS / deriv. w/ BSTFA
Num Peaks: 74
41 6; 42 3; 43 20; 44 8; 45 52; 
46 4; 47 23; 48 1; 53 3; 55 50; 
56 3; 57 4; 58 15; 59 51; 60 6; 
61 17; 62 1; 66 26; 69 1; 70 2; 
71 9; 72 7; 73 238; 74 25; 75 103; 
76 7; 77 8; 81 14; 83 1; 85 7; 
86 1; 87 10; 88 6; 89 3; 97 2; 
99 21; 101 112; 102 22; 103 75; 104 7; 
105 6; 111 1; 113 3; 115 19; 116 421; 
117 59; 118 19; 119 7; 120 1; 127 1; 
129 6; 131 52; 132 8; 133 92; 134 13; 
135 7; 143 9; 144 3; 145 6; 147 999; 
148 179; 149 104; 150 11; 151 3; 163 7; 
164 1; 175 3; 177 101; 178 17; 179 8; 
180 1; 219 24; 220 5; 221 2; 
