Name: 2-Amino-5-methylhexane
InChIKey: IZCBXLKODYZSDJ-UHFFFAOYSA-N
Synon: 1,4-Dimethylpentylamine
Synon: 5-Methyl-2-hexylamine
Formula: C7H17N
MW: 115
ExactMass: 115.1360993
CASNO: 28292435
ID: 5031
Comment: DEA North Central Lab (PKP) / Lot 052440/1
Num Peaks: 41
15 2; 18 12; 26 1; 27 19; 28 15; 
29 17; 30 24; 38 1; 39 27; 40 4; 
41 61; 42 46; 43 37; 44 999; 45 26; 
50 1; 51 2; 52 1; 53 6; 54 4; 
55 66; 56 33; 57 19; 58 9; 59 2; 
65 1; 67 2; 68 1; 69 3; 70 6; 
79 1; 81 1; 82 1; 83 34; 84 2; 
97 2; 100 23; 101 1; 114 4; 115 4; 
116 1; 
