Name: 2-Aminoheptane
InChIKey: VSRBKQFNFZQRBM-UHFFFAOYSA-N
Synon: 2-Heptanamine
Synon: Heptamine
Synon: Heptedrine
Synon: Heptin
Synon: Rineptil
Synon: Rineptyl
Synon: Tuamine
Synon: 1-Methylhexylamine
Synon: 2-Heptylamine
Synon: 1-Methylhexanamine
Formula: C7H17N
MW: 115
ExactMass: 115.1360993
CASNO: 123820
ID: 5032
Comment: DEA North Central Lab (PKP) / Sigma Cat. No. A56205-25G
Num Peaks: 33
15 1; 18 12; 26 1; 27 18; 28 14; 
29 19; 30 41; 38 1; 39 19; 40 4; 
41 43; 42 42; 43 31; 44 999; 45 27; 
51 1; 52 1; 53 4; 54 3; 55 30; 
56 18; 57 13; 58 6; 59 1; 67 1; 
68 1; 69 3; 70 5; 83 1; 100 32; 
101 2; 114 5; 115 3; 
