Name: 4-Androstene-3.alpha.,17.beta.-diol
InChIKey: BTTWKVFKBPAFDK-CBJVNTQASA-N
Synon: 3.alpha.,17.beta.-dihydroxy-androst-4-ene
Formula: C19H30O2
MW: 290
ExactMass: 290.22458
CASNO: 1852615
ID: 5033
Comment: DEA North Central Lab (PKP)
Num Peaks: 125
41 495; 42 21; 43 311; 44 101; 45 33; 
51 40; 53 219; 54 20; 55 531; 57 263; 
58 29; 65 128; 66 38; 67 439; 68 65; 
69 112; 71 47; 73 15; 77 355; 78 125; 
79 609; 80 132; 81 421; 82 44; 83 94; 
85 9; 91 999; 92 194; 93 556; 94 166; 
95 443; 96 111; 97 168; 98 20; 103 77; 
104 29; 105 727; 106 354; 107 541; 108 296; 
109 355; 110 128; 111 50; 115 135; 116 35; 
117 242; 118 154; 119 323; 120 179; 121 330; 
122 121; 123 173; 124 103; 125 9; 127 10; 
128 82; 129 132; 130 25; 131 262; 132 82; 
133 288; 134 131; 135 199; 136 68; 137 53; 
141 37; 142 9; 143 137; 144 29; 145 246; 
146 108; 147 270; 148 100; 149 130; 150 25; 
151 77; 152 10; 157 54; 158 35; 159 128; 
160 55; 161 167; 162 43; 163 72; 164 65; 
165 20; 169 10; 171 36; 172 19; 173 128; 
174 33; 175 24; 176 193; 177 24; 178 45; 
185 46; 187 101; 188 23; 189 19; 191 68; 
199 55; 200 8; 201 59; 202 118; 203 53; 
205 11; 207 20; 208 34; 213 48; 214 9; 
215 21; 217 9; 218 42; 219 103; 220 235; 
221 30; 232 87; 233 11; 239 29; 257 67; 
272 134; 274 10; 281 16; 290 143; 291 18; 
