Name: 5-Androstenediol di-TMS Derivative
InChIKey: YXSPGYZGGCSNLG-MXLSIXORSA-N
Synon: 5-Androstene-3.beta.,17.beta.-diol di-TMS Derivative
Formula: C25H46O2Si2
MW: 434
ExactMass: 434.303635
CASNO: 0
ID: 5036
Comment: DEA North Central Lab (PKP) / From A-8755 Sigma
Num Peaks: 262
41 41; 42 3; 43 28; 44 8; 45 67; 
46 4; 47 23; 48 1; 49 1; 51 2; 
52 1; 53 17; 54 2; 55 87; 56 5; 
57 10; 58 7; 59 49; 60 9; 61 41; 
62 3; 63 2; 65 12; 66 4; 67 85; 
68 8; 69 29; 70 4; 71 6; 72 19; 
73 999; 74 93; 75 506; 76 36; 77 68; 
78 13; 79 132; 80 16; 81 140; 82 12; 
83 16; 84 1; 85 17; 86 2; 87 8; 
88 3; 89 19; 90 3; 91 212; 92 37; 
93 165; 94 33; 95 108; 96 9; 97 9; 
98 1; 99 16; 100 2; 101 70; 102 8; 
103 38; 104 17; 105 241; 106 50; 107 164; 
108 34; 109 53; 110 7; 111 5; 112 1; 
113 13; 114 3; 115 125; 116 41; 117 115; 
118 40; 119 283; 120 86; 121 102; 122 16; 
123 12; 124 1; 125 3; 126 1; 127 13; 
128 35; 129 813; 130 157; 131 196; 132 62; 
133 151; 134 38; 135 39; 136 6; 137 4; 
139 2; 140 1; 141 33; 142 31; 143 177; 
144 62; 145 221; 146 56; 147 97; 148 27; 
149 18; 150 3; 151 5; 152 3; 153 8; 
154 8; 155 63; 156 32; 157 110; 158 123; 
159 189; 160 55; 161 76; 162 13; 163 6; 
164 1; 165 9; 166 3; 167 13; 168 13; 
169 63; 170 19; 171 70; 172 45; 173 77; 
174 25; 175 11; 176 2; 177 3; 178 1; 
179 7; 180 4; 181 26; 182 23; 183 52; 
184 17; 185 57; 186 27; 187 40; 188 12; 
189 19; 190 3; 191 2; 192 1; 193 5; 
194 5; 195 24; 196 19; 197 60; 198 23; 
199 119; 200 32; 201 10; 202 11; 203 2; 
205 2; 206 1; 207 4; 208 3; 209 7; 
210 4; 211 49; 212 42; 213 242; 214 55; 
215 288; 216 50; 217 5; 219 3; 220 1; 
221 5; 222 4; 223 14; 224 4; 225 21; 
226 32; 227 13; 228 20; 229 5; 230 1; 
231 1; 232 1; 233 3; 234 2; 235 5; 
236 5; 237 6; 238 3; 239 348; 240 68; 
241 9; 242 1; 247 2; 248 4; 249 3; 
250 3; 251 21; 252 5; 253 34; 254 198; 
255 48; 256 5; 257 2; 259 1; 261 2; 
262 1; 263 1; 271 1; 272 1; 273 2; 
275 3; 276 2; 277 5; 278 1; 285 1; 
287 6; 288 2; 289 10; 290 6; 291 1; 
301 4; 302 10; 303 24; 304 58; 305 170; 
306 45; 307 11; 308 1; 311 1; 315 3; 
316 9; 317 2; 318 4; 327 1; 329 174; 
330 50; 331 13; 332 2; 342 1; 343 8; 
344 259; 345 77; 346 20; 347 3; 392 2; 
405 1; 406 2; 419 51; 420 18; 421 6; 
422 1; 432 2; 433 3; 434 122; 435 45; 
436 17; 437 3; 
