Name: Acetaminophen mono-TMS derivative
InChIKey: OKGLOYGZHPISAT-UHFFFAOYSA-N
Formula: C11H17NO2Si
MW: 223
ExactMass: 223.102856
CASNO: 41571828
ID: 5039
Comment: DEA North Central Lab (PKP) / Derivatized with TMSI
Num Peaks: 132
40 1; 41 8; 42 26; 43 335; 44 40; 
45 161; 46 12; 47 23; 50 7; 51 14; 
52 24; 53 28; 54 9; 55 16; 56 3; 
57 11; 58 24; 59 21; 60 19; 61 20; 
62 7; 63 29; 64 22; 65 59; 66 9; 
67 7; 68 5; 69 12; 70 7; 71 6; 
72 10; 73 475; 74 63; 75 158; 76 21; 
77 36; 78 22; 79 26; 80 21; 81 8; 
82 1; 83 21; 84 10; 85 11; 86 11; 
87 2; 88 2; 89 6; 90 15; 91 36; 
92 35; 93 21; 94 6; 95 22; 96 9; 
97 5; 98 4; 99 5; 100 5; 102 3; 
103 3; 104 14; 105 13; 106 124; 107 21; 
108 27; 109 15; 110 17; 111 9; 112 2; 
116 8; 117 2; 118 4; 119 7; 120 10; 
121 17; 122 16; 123 22; 124 7; 125 2; 
131 1; 132 8; 133 5; 134 19; 135 28; 
136 34; 137 17; 138 19; 139 4; 140 1; 
146 7; 147 4; 148 14; 149 44; 150 58; 
151 15; 152 6; 153 6; 161 1; 162 6; 
163 5; 164 30; 165 55; 166 926; 167 153; 
168 43; 169 4; 176 3; 177 1; 178 13; 
179 12; 180 54; 181 999; 182 168; 183 48; 
184 5; 190 4; 191 1; 192 21; 193 3; 
194 4; 205 2; 206 9; 207 5; 208 201; 
209 33; 210 10; 222 2; 223 614; 224 107; 
225 29; 226 3; 
