Name: Acetylated 4-methylaminoantipyrine
InChIKey: ATXGXLFQLOOFBE-UHFFFAOYSA-N
Synon: 4-Methylaminoantipyrine, acetylated
Formula: C14H17N3O2
MW: 259
ExactMass: 259.132076
CASNO: 15421746
ID: 5041
Comment: DEA North Central Lab (PKP) / Acetylated dipyrone, breakdown on mass spec
Num Peaks: 115
40 5; 41 10; 42 55; 43 109; 44 5; 
50 5; 51 23; 52 8; 53 3; 54 32; 
55 37; 56 999; 57 60; 58 4; 62 2; 
63 13; 64 26; 65 12; 66 11; 67 22; 
68 10; 69 4; 70 5; 71 1; 74 1; 
75 1; 76 3; 77 62; 78 6; 79 1; 
80 1; 81 2; 82 4; 83 196; 84 15; 
85 6; 89 1; 90 3; 91 42; 92 9; 
93 6; 94 1; 95 7; 96 48; 97 37; 
98 88; 99 5; 102 1; 103 5; 104 17; 
105 7; 106 12; 107 1; 109 1; 110 1; 
111 1; 112 1; 115 3; 116 1; 117 2; 
118 8; 119 11; 120 4; 121 6; 122 2; 
123 202; 124 27; 125 21; 126 2; 129 1; 
130 3; 131 5; 132 4; 133 4; 134 2; 
138 1; 139 2; 140 5; 141 1; 142 1; 
143 1; 144 2; 145 4; 146 2; 147 6; 
148 7; 156 2; 157 1; 158 2; 159 2; 
161 5; 162 1; 172 1; 173 3; 174 1; 
175 1; 185 7; 186 1; 187 3; 188 6; 
189 1; 198 4; 199 1; 201 2; 202 4; 
204 2; 214 1; 215 1; 216 110; 217 172; 
218 23; 219 1; 259 153; 260 25; 261 2; 
