Name: alpha-hydroxybutyric acid di-TMS derivative
InChIKey: NSEFDIGCPFOEIV-UHFFFAOYSA-N
Synon: .alpha.-hydroxybutyric acid di-TMS derivative
Synon: 2-hydroxybutyric acid di-TMS derivative
Formula: C10H24O3Si2
MW: 248
ExactMass: 248.126398
CASNO: 55133932
ID: 5042
Comment: DEA North Central Lab (PKP) / Sigma-Aldrich lot 69F5003, derivatized w/ BSTFA/TMCS
Num Peaks: 84
41 14; 42 4; 43 36; 44 23; 45 128; 
46 9; 47 27; 48 1; 49 1; 51 2; 
52 7; 53 2; 55 19; 56 2; 57 15; 
58 20; 59 66; 60 8; 61 18; 62 1; 
66 88; 68 1; 69 12; 70 4; 71 6; 
72 23; 73 847; 74 79; 75 126; 76 8; 
77 6; 81 58; 85 8; 86 1; 87 6; 
88 1; 89 2; 94 1; 95 15; 99 10; 
100 1; 101 15; 102 5; 103 8; 104 1; 
105 5; 109 4; 113 2; 115 31; 116 7; 
117 19; 118 3; 119 6; 129 8; 130 13; 
131 999; 132 121; 133 122; 134 14; 135 7; 
143 13; 144 1; 145 2; 147 857; 148 138; 
149 77; 150 8; 151 2; 175 3; 189 3; 
190 57; 191 14; 192 5; 193 1; 204 1; 
205 69; 206 13; 207 6; 217 1; 219 7; 
220 1; 233 34; 234 7; 235 3; 
