Name: alpha-lactose TMS derivative
InChIKey: QJZFVYJIGWEKIR-IZMYAETLSA-N
Synon: .alpha.-Lactose TMS derivative
Formula: C36H86O11Si8
MW: 918
ExactMass: 918.432426
CASNO: 0
ID: 5043
Comment: DEA North Central Lab (PKP)
Num Peaks: 198
41 1; 43 3; 44 1; 45 12; 46 1; 
47 3; 53 2; 54 2; 55 6; 56 1; 
57 1; 58 1; 59 9; 60 1; 61 2; 
66 1; 67 1; 68 1; 69 14; 70 1; 
71 1; 72 5; 73 490; 74 42; 75 52; 
76 3; 77 2; 81 8; 82 1; 83 1; 
85 2; 87 2; 89 5; 97 2; 99 2; 
101 10; 102 2; 103 116; 104 11; 105 5; 
109 2; 111 2; 113 5; 114 1; 115 4; 
116 8; 117 48; 118 4; 119 5; 125 1; 
127 4; 129 130; 130 16; 131 25; 132 4; 
133 32; 134 4; 135 3; 139 1; 141 3; 
142 12; 143 19; 144 3; 145 8; 147 212; 
148 33; 149 26; 150 3; 151 2; 153 2; 
154 2; 155 13; 156 3; 157 16; 158 2; 
159 3; 161 4; 163 4; 167 1; 169 35; 
170 5; 171 6; 172 1; 173 4; 174 1; 
175 4; 177 4; 181 1; 183 3; 185 1; 
187 2; 189 30; 190 9; 191 252; 192 44; 
193 21; 194 2; 195 1; 197 1; 199 2; 
201 2; 202 1; 203 8; 204 999; 205 198; 
206 86; 207 16; 208 3; 215 4; 217 226; 
218 60; 219 25; 220 4; 221 12; 222 2; 
223 1; 227 1; 229 6; 230 15; 231 18; 
232 4; 233 8; 234 2; 235 1; 241 2; 
242 1; 243 59; 244 16; 245 12; 246 3; 
247 5; 248 1; 255 1; 257 6; 258 1; 
259 5; 260 1; 261 1; 263 1; 265 6; 
266 1; 267 1; 271 36; 272 9; 273 5; 
274 1; 277 1; 278 1; 279 7; 280 2; 
281 1; 289 1; 291 11; 292 3; 293 2; 
303 1; 304 2; 305 32; 306 11; 307 5; 
308 1; 317 8; 318 4; 319 20; 320 6; 
321 3; 331 11; 332 7; 333 6; 334 2; 
335 2; 345 6; 346 2; 347 2; 359 3; 
360 1; 361 86; 362 26; 363 13; 364 3; 
393 2; 407 1; 431 1; 435 3; 436 1; 
451 4; 452 1; 453 1; 521 21; 522 9; 
523 4; 524 1; 525 1; 539 1; 540 1; 
569 2; 570 1; 683 1; 
