Name: Amphetamine-D5 (ring) (Not certified by NIST)
InChIKey: KWTSXDURSIMDCE-VIQYUKPQSA-N
Formula: C9H8D5N
MW: 140
ExactMass: 140.136183
CASNO: 0
ID: 5045
Comment: Note: Spectrum not certified by NIST / DEA North Central Lab (PKP) / Radian catalog #A-002
Num Peaks: 52
40 7; 41 19; 42 49; 43 20; 44 999; 
45 32; 51 3; 52 9; 53 8; 54 16; 
55 4; 56 34; 57 4; 60 2; 61 2; 
62 3; 63 3; 64 5; 65 7; 66 6; 
67 4; 68 22; 69 20; 70 5; 78 1; 
79 4; 80 6; 81 6; 82 4; 83 2; 
92 4; 93 8; 94 8; 95 25; 96 79; 
97 19; 98 2; 105 1; 106 5; 107 5; 
108 3; 118 4; 119 6; 120 4; 121 6; 
122 9; 123 5; 124 3; 125 21; 126 1; 
137 2; 139 4; 
