Name: Anthracene
InChIKey: MWPLVEDNUUSJAV-UHFFFAOYSA-N
Formula: C14H10
MW: 178
ExactMass: 178.07825
CASNO: 120127
ID: 5047
Comment: DEA North Central Lab (PKP)
Num Peaks: 64
44 9; 50 14; 51 14; 52 2; 59 2; 
61 4; 62 15; 63 38; 64 2; 65 1; 
73 2; 74 25; 75 46; 76 115; 78 1; 
85 3; 86 13; 87 30; 88 87; 89 140; 
97 1; 98 16; 99 12; 100 5; 101 5; 
102 7; 109 1; 110 6; 111 7; 112 1; 
113 6; 114 1; 115 5; 121 1; 122 6; 
123 4; 124 2; 125 6; 126 22; 127 9; 
128 11; 129 1; 134 1; 135 1; 137 3; 
138 2; 139 15; 140 2; 146 1; 149 10; 
150 66; 151 86; 152 95; 153 12; 162 2; 
163 4; 173 1; 174 19; 175 24; 176 186; 
177 88; 178 999; 179 155; 180 11; 
