Name: Ascobic Acid TMS derivative
InChIKey: ZCJXSXDUVKVLEK-LSDHHAIUSA-N
Synon: Vitamin C TMS derivative
Formula: C18H40O6Si4
MW: 464
ExactMass: 464.190195
CASNO: 0
ID: 5048
Comment: DEA North Central Lab (PKP) / derivatized w/ TMSI
Num Peaks: 214
41 3; 42 1; 43 10; 44 12; 45 82; 
46 5; 47 6; 53 6; 54 1; 55 5; 
56 1; 57 3; 58 7; 59 27; 60 2; 
61 4; 65 1; 66 1; 67 4; 68 3; 
69 2; 70 2; 71 3; 72 1; 73 999; 
74 89; 75 68; 76 4; 77 2; 79 3; 
81 2; 83 4; 84 1; 85 4; 87 3; 
88 3; 89 24; 90 2; 91 1; 93 1; 
95 3; 96 1; 97 2; 98 1; 99 10; 
100 1; 101 16; 102 3; 103 39; 104 4; 
105 4; 109 1; 111 3; 112 1; 113 4; 
114 2; 115 8; 116 2; 117 260; 118 26; 
119 19; 120 1; 121 1; 123 1; 125 2; 
126 1; 127 10; 128 2; 129 6; 130 2; 
131 31; 132 6; 133 117; 134 16; 135 13; 
136 1; 139 1; 140 1; 141 6; 142 9; 
143 16; 144 2; 145 3; 147 636; 148 102; 
149 81; 150 9; 151 4; 153 4; 154 1; 
155 3; 156 1; 157 11; 158 2; 159 4; 
160 1; 161 2; 163 4; 167 2; 168 1; 
169 13; 170 9; 171 5; 172 1; 173 4; 
175 6; 176 1; 177 4; 183 3; 184 1; 
185 2; 187 2; 189 9; 190 3; 191 8; 
192 1; 193 3; 195 1; 197 3; 199 3; 
200 1; 201 4; 202 1; 203 2; 204 10; 
205 200; 206 39; 207 29; 208 5; 209 2; 
213 1; 214 2; 215 30; 216 7; 217 8; 
218 1; 219 1; 221 22; 222 5; 223 3; 
227 1; 228 1; 229 4; 230 4; 231 4; 
232 1; 241 4; 242 1; 243 8; 244 6; 
245 6; 246 1; 254 1; 255 1; 256 1; 
257 14; 258 13; 259 32; 260 21; 261 6; 
262 1; 269 2; 271 4; 273 1; 285 2; 
289 3; 303 27; 304 19; 305 7; 306 2; 
307 2; 309 2; 315 2; 316 1; 317 3; 
318 1; 319 2; 329 2; 330 3; 331 30; 
332 567; 333 180; 334 86; 335 18; 336 4; 
345 50; 346 16; 347 8; 348 2; 359 50; 
360 16; 361 29; 362 8; 363 4; 373 1; 
374 75; 375 24; 376 11; 377 2; 405 8; 
406 3; 407 2; 419 14; 420 5; 421 3; 
433 1; 434 1; 449 33; 450 12; 451 7; 
452 1; 464 7; 465 3; 466 1; 
