Name: Atabrine
InChIKey: GPKJTRJOBQGKQK-UHFFFAOYSA-N
Synon: Mepacrine
Synon: Quinacrine
Formula: C23H30ClN3O
MW: 399
ExactMass: 399.20774
CASNO: 83896
ID: 5049
Comment: DEA North Central Lab (PKP)
Num Peaks: 237
41 34; 42 34; 43 11; 44 17; 51 1; 
52 1; 53 3; 54 3; 55 8; 56 55; 
57 17; 58 132; 59 5; 62 1; 63 3; 
64 1; 65 2; 67 4; 68 4; 69 23; 
70 22; 71 33; 72 36; 73 57; 74 8; 
75 3; 76 1; 77 2; 78 1; 79 1; 
80 1; 82 6; 83 3; 84 69; 85 11; 
86 999; 87 59; 88 2; 89 2; 90 1; 
96 5; 97 2; 98 21; 99 111; 100 15; 
101 3; 102 3; 103 4; 108 1; 110 5; 
111 5; 112 140; 113 31; 114 10; 115 2; 
116 1; 117 1; 121 1; 123 1; 124 3; 
125 8; 126 420; 127 41; 128 4; 129 1; 
135 2; 136 3; 137 8; 138 7; 139 5; 
140 79; 141 12; 142 38; 143 4; 147 1; 
148 1; 149 3; 150 4; 151 8; 152 12; 
153 7; 154 2; 155 1; 160 1; 161 3; 
162 4; 163 7; 164 46; 165 18; 166 10; 
167 3; 172 1; 173 8; 174 7; 175 5; 
176 6; 177 13; 178 10; 179 26; 180 9; 
181 2; 182 1; 185 1; 186 2; 187 17; 
188 6; 189 7; 190 5; 191 6; 192 31; 
193 12; 194 11; 195 2; 198 3; 199 18; 
200 77; 201 23; 202 26; 203 8; 204 4; 
205 7; 206 7; 207 13; 208 4; 209 2; 
210 1; 211 1; 212 4; 213 8; 214 13; 
215 22; 216 14; 217 12; 218 9; 219 5; 
220 3; 221 2; 222 2; 223 1; 224 1; 
225 2; 226 4; 227 16; 228 15; 229 21; 
230 9; 231 8; 232 3; 233 5; 234 4; 
235 11; 236 3; 237 1; 238 1; 239 14; 
240 11; 241 19; 242 40; 243 36; 244 62; 
245 18; 246 17; 247 5; 248 3; 249 7; 
250 10; 251 4; 252 7; 253 17; 254 48; 
255 29; 256 23; 257 78; 258 32; 259 149; 
260 30; 261 44; 262 7; 263 2; 264 1; 
265 2; 266 4; 267 11; 268 10; 269 37; 
270 31; 271 30; 272 13; 273 7; 274 1; 
275 2; 276 1; 277 1; 278 3; 279 3; 
280 3; 281 5; 282 6; 283 32; 284 21; 
285 61; 286 15; 287 17; 288 3; 291 2; 
293 3; 294 3; 295 6; 296 3; 297 15; 
298 11; 299 26; 300 7; 301 7; 302 1; 
309 3; 310 1; 311 28; 312 7; 313 19; 
314 4; 315 3; 324 1; 325 26; 326 21; 
327 27; 328 12; 329 7; 330 1; 370 10; 
371 2; 372 3; 384 1; 399 63; 400 17; 
401 22; 402 5; 
