Name: Bemegride
InChIKey: ORRZGUBHBVWWOP-UHFFFAOYSA-N
Synon: Megimide
Synon: Methetharimide
Synon: .beta.,.beta.-Methylethylglutarimide
Formula: C8H13NO2
MW: 155
ExactMass: 155.094628
CASNO: 64653
ID: 5050
Comment: DEA North Central Lab (PKP)
Num Peaks: 65
40 34; 41 196; 42 120; 43 38; 44 21; 
45 1; 50 11; 51 22; 52 13; 53 82; 
54 57; 55 999; 56 67; 57 17; 58 2; 
59 31; 60 14; 61 1; 62 2; 63 3; 
64 1; 65 10; 66 6; 67 36; 68 15; 
69 159; 70 190; 71 15; 72 3; 77 2; 
78 1; 79 4; 80 2; 81 8; 82 347; 
83 383; 84 67; 85 6; 86 3; 94 9; 
95 6; 96 95; 97 150; 98 44; 99 6; 
100 5; 108 1; 109 4; 110 6; 111 2; 
112 49; 113 251; 114 17; 115 1; 125 25; 
126 67; 127 180; 128 14; 129 1; 137 1; 
138 4; 139 1; 140 7; 155 82; 156 8; 
