Name: Benoxinate
InChIKey: CMHHMUWAYWTMGS-UHFFFAOYSA-N
Synon: Oxybuprocaine
Synon: BNX
Synon: Novesine
Synon: Novesin
Formula: C17H28N2O3
MW: 308
ExactMass: 308.209993
CASNO: 99434
ID: 5051
Comment: DEA North Central Lab (PKP)
Num Peaks: 83
41 20; 42 16; 43 4; 44 14; 45 1; 
51 2; 52 12; 53 13; 54 4; 55 5; 
56 33; 57 14; 58 49; 59 1; 63 3; 
64 2; 65 3; 68 1; 69 1; 70 24; 
71 64; 72 14; 77 1; 78 7; 79 26; 
80 40; 81 3; 82 1; 84 44; 85 5; 
86 999; 87 65; 88 1; 90 3; 91 10; 
92 2; 93 1; 94 1; 96 2; 97 2; 
98 4; 99 421; 100 52; 101 2; 102 1; 
104 1; 106 9; 107 27; 108 28; 109 4; 
114 1; 116 1; 118 3; 119 7; 120 2; 
121 3; 122 2; 124 2; 134 2; 135 22; 
136 82; 137 7; 148 4; 150 3; 152 2; 
153 18; 154 1; 162 2; 163 1; 164 7; 
165 1; 166 1; 179 18; 180 8; 181 1; 
190 2; 192 99; 193 12; 194 2; 209 8; 
210 1; 236 21; 237 3; 
