Name: Benztropine
InChIKey: GIJXKZJWITVLHI-UHFFFAOYSA-N
Synon: Benzatropine
Synon: Cogentin
Formula: C21H25NO
MW: 307
ExactMass: 307.193615
CASNO: 86135
ID: 5052
Comment: DEA North Central Lab (PKP)
Num Peaks: 119
40 2; 41 32; 42 133; 43 16; 44 19; 
50 5; 51 26; 52 5; 53 11; 54 14; 
55 48; 56 31; 57 33; 58 11; 62 2; 
63 9; 64 1; 65 19; 66 4; 67 112; 
68 47; 69 15; 70 28; 71 3; 74 2; 
75 4; 76 8; 77 116; 78 32; 79 23; 
80 17; 81 37; 82 607; 83 889; 84 124; 
85 5; 86 1; 87 2; 88 1; 89 13; 
90 4; 91 24; 92 3; 93 10; 94 80; 
95 23; 96 274; 97 183; 98 86; 99 6; 
101 11; 102 5; 103 2; 104 4; 105 83; 
106 11; 107 6; 108 8; 109 5; 110 38; 
111 4; 112 26; 113 5; 114 1; 115 37; 
116 4; 117 5; 118 2; 120 1; 122 21; 
123 4; 124 483; 125 178; 126 21; 127 8; 
128 25; 129 6; 130 1; 137 1; 138 2; 
139 24; 140 999; 141 101; 142 7; 143 1; 
146 1; 150 2; 151 19; 152 183; 153 35; 
154 9; 155 9; 156 1; 158 1; 159 1; 
162 1; 163 18; 164 31; 165 351; 166 106; 
167 235; 168 34; 169 2; 172 21; 173 7; 
178 1; 179 1; 181 5; 182 3; 183 1; 
200 7; 201 160; 202 24; 203 1; 216 15; 
217 2; 306 4; 307 14; 308 4; 
