Name: Beta-Eucaine
InChIKey: ZYHGIAPHLSTGMX-UHFFFAOYSA-N
Synon: Betacain
Synon: Eucaine B
Formula: C15H21NO2
MW: 247
ExactMass: 247.157228
CASNO: 500345
ID: 5054
Comment: DEA North Central Lab (PKP)
Num Peaks: 72
40 3; 41 74; 42 82; 43 15; 44 140; 
45 4; 50 11; 51 46; 52 4; 53 9; 
54 5; 55 33; 56 14; 57 16; 58 85; 
59 3; 63 1; 65 5; 66 2; 67 15; 
68 12; 69 26; 70 14; 71 6; 72 1; 
74 3; 75 3; 76 9; 77 166; 78 13; 
79 6; 80 5; 81 8; 82 19; 83 13; 
84 59; 85 44; 86 4; 91 6; 92 1; 
93 15; 94 18; 95 11; 96 12; 97 2; 
98 14; 99 5; 100 1; 104 1; 105 131; 
106 10; 107 4; 108 21; 109 5; 110 999; 
111 78; 112 5; 116 2; 122 4; 123 2; 
124 18; 125 25; 126 285; 127 26; 128 2; 
142 8; 143 1; 188 3; 232 36; 233 5; 
246 1; 247 4; 
