Name: .beta.-D-glucose 5-TMS derivative
InChIKey: PPFHNIVPOLWPCF-UHFFFAOYSA-N
Synon: .beta.-Dextrose 5-TMS derivative
Formula: C21H52O6Si5
MW: 540
ExactMass: 540.26102
CASNO: 2775908
ID: 5055
Comment: DEA North Central Lab (PKP)
Num Peaks: 157
41 2; 43 4; 44 4; 45 30; 46 2; 
47 3; 53 2; 54 2; 55 6; 56 1; 
57 2; 58 3; 59 19; 60 2; 61 3; 
67 1; 69 3; 70 1; 71 2; 72 12; 
73 685; 74 59; 75 56; 76 3; 77 2; 
81 3; 83 1; 85 2; 87 2; 88 1; 
89 10; 90 1; 97 1; 99 3; 101 14; 
102 3; 103 63; 104 6; 105 4; 109 1; 
111 2; 113 6; 114 1; 115 5; 116 9; 
117 45; 118 5; 119 7; 127 3; 129 75; 
130 10; 131 28; 132 4; 133 57; 134 8; 
135 5; 141 2; 142 3; 143 14; 144 2; 
145 5; 147 281; 148 44; 149 31; 150 3; 
151 2; 153 1; 155 4; 156 1; 157 9; 
158 1; 159 3; 161 3; 163 4; 169 9; 
170 2; 171 2; 173 2; 175 6; 176 1; 
177 5; 178 1; 183 1; 187 1; 189 49; 
190 14; 191 482; 192 86; 193 41; 194 4; 
195 1; 201 2; 203 20; 204 999; 205 199; 
206 86; 207 18; 208 3; 209 1; 215 3; 
217 186; 218 49; 219 22; 220 4; 221 10; 
222 2; 223 1; 229 4; 230 4; 231 19; 
232 4; 233 5; 234 1; 242 1; 243 12; 
244 3; 245 3; 257 1; 259 1; 265 3; 
266 1; 271 4; 272 1; 273 1; 278 1; 
279 2; 290 1; 291 18; 292 5; 293 3; 
303 3; 304 1; 305 19; 306 6; 307 3; 
317 8; 318 3; 319 10; 320 3; 321 2; 
331 3; 332 3; 333 2; 345 9; 346 3; 
347 3; 348 1; 361 7; 362 2; 363 1; 
379 1; 393 3; 394 1; 405 1; 435 14; 
436 5; 437 3; 
