Name: beta-lactose 8-TMS derivative
InChIKey: QJZFVYJIGWEKIR-RCGFMNEDSA-N
Synon: .beta.-lactose 8-TMS derivative
Formula: C36H86O11Si8
MW: 918
ExactMass: 918.432426
CASNO: 0
ID: 5056
Comment: DEA North Central Lab (PKP)
Num Peaks: 218
41 2; 43 3; 44 1; 45 13; 46 1; 
47 3; 53 2; 54 2; 55 6; 56 1; 
57 2; 58 2; 59 10; 60 1; 61 2; 
66 1; 67 1; 68 1; 69 17; 70 1; 
71 1; 72 3; 73 598; 74 51; 75 59; 
76 3; 77 2; 81 9; 82 1; 83 1; 
85 3; 87 2; 88 1; 89 7; 97 2; 
99 3; 101 12; 102 3; 103 145; 104 14; 
105 6; 109 3; 111 3; 113 6; 114 1; 
115 4; 116 10; 117 51; 118 5; 119 5; 
125 1; 127 5; 129 157; 130 19; 131 32; 
132 5; 133 40; 134 5; 135 4; 139 1; 
141 4; 142 13; 143 23; 144 3; 145 10; 
147 264; 148 42; 149 33; 150 4; 151 2; 
153 3; 154 2; 155 16; 156 5; 157 23; 
158 3; 159 4; 160 1; 161 4; 163 5; 
167 2; 169 53; 170 8; 171 7; 172 1; 
173 6; 174 1; 175 6; 176 1; 177 6; 
178 1; 181 1; 182 1; 183 5; 185 1; 
187 2; 189 44; 190 8; 191 667; 192 118; 
193 57; 194 6; 195 2; 197 1; 199 3; 
201 3; 202 1; 203 11; 204 999; 205 207; 
206 89; 207 18; 208 3; 209 1; 215 6; 
217 367; 218 90; 219 39; 220 6; 221 15; 
222 3; 223 2; 227 1; 228 1; 229 11; 
230 22; 231 27; 232 6; 233 11; 234 2; 
235 1; 241 3; 242 1; 243 76; 244 21; 
245 17; 246 4; 247 9; 248 2; 249 1; 
255 1; 257 11; 258 2; 259 9; 260 2; 
261 3; 263 2; 265 5; 266 1; 271 49; 
272 16; 273 8; 274 2; 275 1; 277 1; 
278 2; 279 36; 280 9; 281 5; 282 1; 
285 1; 287 1; 289 2; 291 15; 292 5; 
293 3; 303 1; 304 3; 305 43; 306 15; 
307 7; 308 1; 315 1; 317 11; 318 5; 
319 34; 320 10; 321 6; 322 1; 331 21; 
332 11; 333 9; 334 3; 335 3; 336 1; 
345 10; 346 3; 347 4; 348 1; 349 1; 
359 7; 360 3; 361 203; 362 65; 363 32; 
364 7; 365 1; 375 1; 379 1; 393 2; 
394 1; 407 1; 433 1; 435 6; 436 2; 
437 1; 451 9; 452 4; 453 2; 467 1; 
521 12; 522 5; 523 3; 524 1; 525 1; 
539 8; 540 3; 541 2; 
