Name: Benzoic Acid TMS derivative
InChIKey: VFFKJOXNCSJSAQ-UHFFFAOYSA-N
Formula: C10H14O2Si
MW: 194
ExactMass: 194.076306
CASNO: 2078128
ID: 5057
Comment: DEA North Central Lab (PKP) / derivatized w/ BSTFA 1% TMCS
Num Peaks: 78
41 1; 42 4; 43 34; 44 11; 45 90; 
46 6; 47 26; 48 1; 49 2; 50 44; 
51 154; 52 8; 53 9; 54 1; 55 6; 
56 1; 57 4; 58 8; 59 22; 60 5; 
61 6; 62 2; 63 3; 64 1; 65 5; 
66 2; 67 2; 69 1; 70 1; 71 1; 
72 6; 73 50; 74 25; 75 44; 76 38; 
77 614; 78 43; 79 3; 81 1; 83 1; 
85 2; 90 34; 91 11; 92 2; 93 3; 
95 2; 96 1; 103 4; 105 919; 106 73; 
107 9; 109 1; 117 1; 118 1; 119 11; 
120 3; 121 14; 122 2; 123 1; 131 1; 
133 2; 135 623; 136 88; 137 26; 138 2; 
149 6; 150 2; 151 1; 163 3; 164 2; 
179 999; 180 152; 181 47; 182 4; 193 17; 
194 74; 195 12; 196 3; 
