Name: Piperidino cyclohexylcarboxamide
InChIKey: BRWWNHOBSIVPQK-UHFFFAOYSA-N
Synon: N-Piperidin-1-ylcyclohexanecarboxamide
Formula: C12H22N2O
MW: 210
ExactMass: 210.173213
CASNO: 75820109
ID: 5058
Comment: DEA North Central Lab (PKP) / k&K 25498X
Num Peaks: 107
40 8; 41 383; 42 144; 43 74; 44 57; 
45 5; 46 3; 50 13; 51 45; 52 35; 
53 153; 54 200; 55 206; 56 96; 57 20; 
58 6; 59 1; 61 2; 62 1; 63 6; 
64 4; 65 37; 66 29; 67 123; 68 83; 
69 111; 70 26; 71 5; 72 3; 74 1; 
75 2; 76 2; 77 103; 78 25; 79 126; 
80 92; 81 152; 82 98; 83 52; 84 129; 
85 12; 86 5; 89 1; 90 1; 91 25; 
92 11; 93 28; 94 172; 95 148; 96 100; 
97 24; 98 53; 99 4; 103 2; 104 28; 
105 35; 106 35; 107 17; 108 192; 109 56; 
110 48; 111 21; 112 2; 115 1; 117 5; 
118 8; 119 5; 120 35; 121 12; 122 285; 
123 72; 124 66; 125 7; 126 2; 127 1; 
130 5; 131 2; 132 12; 133 3; 134 29; 
135 12; 136 405; 137 107; 138 12; 144 1; 
146 4; 147 1; 148 21; 149 20; 150 565; 
151 65; 152 4; 153 1; 158 2; 159 3; 
160 65; 161 42; 162 25; 163 25; 164 393; 
165 435; 166 999; 167 123; 168 7; 191 1; 
192 1; 208 1; 
