Name: Chloramphenicol
InChIKey: WIIZWVCIJKGZOK-RKDXNWHRSA-N
Synon: Pentamycetin
Synon: Chloromycetin
Formula: C11H12Cl2N2O5
MW: 322
ExactMass: 322.012327
CASNO: 56757
ID: 5059
Comment: DEA North Central Lab (PKP)
Num Peaks: 180
40 14; 41 20; 42 90; 43 85; 44 30; 
45 4; 46 5; 47 7; 48 25; 49 24; 
50 65; 51 153; 52 67; 53 15; 54 20; 
55 21; 56 6; 57 6; 58 16; 59 32; 
60 479; 61 18; 62 18; 63 56; 64 27; 
65 52; 66 55; 67 7; 68 4; 69 11; 
70 334; 71 16; 72 6; 73 5; 74 21; 
75 37; 76 156; 77 322; 78 268; 79 61; 
80 10; 81 9; 82 8; 83 205; 84 5; 
85 128; 86 28; 87 26; 88 16; 89 97; 
90 82; 91 65; 92 44; 93 12; 94 70; 
95 17; 96 1; 97 1; 98 4; 99 3; 
100 6; 101 8; 102 29; 103 34; 104 73; 
105 200; 106 312; 107 36; 108 22; 109 3; 
110 7; 111 14; 112 6; 113 9; 114 4; 
115 11; 116 35; 117 92; 118 265; 119 38; 
120 73; 121 15; 122 28; 123 30; 124 40; 
125 4; 126 23; 127 3; 128 19; 129 16; 
130 25; 131 19; 132 16; 133 14; 134 23; 
135 76; 136 284; 137 47; 138 14; 139 1; 
140 6; 141 1; 142 5; 143 1; 144 9; 
145 26; 146 20; 147 18; 148 10; 149 7; 
150 36; 151 22; 152 218; 153 999; 154 155; 
155 359; 156 33; 157 56; 158 4; 159 2; 
160 12; 161 6; 162 2; 163 6; 164 31; 
165 30; 166 3; 167 2; 168 1; 169 3; 
170 333; 171 25; 172 216; 173 16; 174 48; 
175 14; 176 3; 177 5; 178 5; 179 5; 
180 7; 181 17; 182 3; 184 2; 190 5; 
191 28; 192 6; 193 3; 194 1; 195 3; 
196 1; 203 1; 204 1; 207 2; 208 2; 
209 12; 210 1; 211 6; 213 2; 221 5; 
222 1; 227 2; 229 1; 237 1; 239 2; 
241 1; 256 1; 257 1; 259 1; 269 1; 
273 7; 274 6; 275 6; 276 4; 277 1; 
291 18; 292 2; 293 11; 294 1; 295 2; 
