Name: Chlorcyclizine
InChIKey: WFNAKBGANONZEQ-UHFFFAOYSA-N
Synon: Di-Paralene
Synon: Mantadil
Synon: Pruresidine
Synon: Trihistan
Formula: C18H21ClN2
MW: 300
ExactMass: 300.139326
CASNO: 82939
ID: 5060
Comment: DEA North Central Lab (PKP)
Num Peaks: 178
40 2; 41 16; 42 180; 43 113; 44 122; 
45 3; 50 8; 51 19; 52 4; 53 1; 
54 22; 55 31; 56 536; 57 71; 58 109; 
59 5; 62 5; 63 24; 64 3; 65 16; 
66 1; 67 1; 68 5; 69 7; 70 191; 
71 46; 72 95; 73 10; 74 6; 75 19; 
76 9; 77 26; 78 5; 79 3; 80 1; 
81 5; 82 19; 83 15; 84 24; 85 41; 
86 6; 87 9; 88 5; 89 39; 90 11; 
91 51; 92 4; 93 1; 94 3; 95 4; 
96 2; 97 34; 98 16; 99 999; 100 62; 
101 10; 102 9; 103 13; 104 18; 105 8; 
106 1; 110 1; 111 10; 112 3; 113 14; 
114 10; 115 39; 116 8; 117 10; 118 6; 
119 1; 123 3; 124 1; 125 44; 126 13; 
127 21; 128 6; 129 1; 130 7; 131 3; 
132 4; 133 1; 136 2; 137 9; 138 21; 
139 63; 140 13; 141 3; 144 4; 145 1; 
146 4; 147 1; 149 9; 150 6; 151 15; 
152 18; 153 4; 154 2; 159 1; 160 1; 
161 7; 162 12; 163 91; 164 115; 165 973; 
166 461; 167 67; 168 6; 173 3; 175 3; 
176 2; 177 2; 178 9; 179 26; 180 8; 
181 2; 182 1; 186 3; 187 1; 188 2; 
189 21; 190 4; 191 2; 192 2; 193 5; 
194 13; 195 6; 197 1; 199 28; 200 6; 
201 234; 202 34; 203 69; 204 10; 205 3; 
206 39; 207 8; 208 2; 209 1; 214 2; 
215 1; 216 10; 217 1; 218 3; 221 1; 
223 20; 224 2; 225 6; 226 1; 227 3; 
228 383; 229 201; 230 148; 231 65; 232 8; 
240 78; 241 196; 242 224; 243 99; 244 71; 
245 12; 246 2; 254 1; 256 18; 257 3; 
258 6; 259 1; 270 1; 272 1; 285 14; 
286 2; 287 4; 299 4; 300 149; 301 31; 
302 50; 303 9; 304 1; 
