Name: Chrysin di-TMS derivative
InChIKey: GIBLMWDGNJTUAZ-UHFFFAOYSA-N
Synon: 5,7-Dihydroxyflavone di-TMS derivative
Formula: C21H26O4Si2
MW: 398
ExactMass: 398.136963
CASNO: 0
ID: 5061
Comment: DEA North Central Lab (PKP) / Sigma-Aldrich C-3018, derivatized
Num Peaks: 198
43 7; 44 3; 45 33; 46 2; 47 3; 
51 2; 53 1; 55 1; 57 1; 58 2; 
59 3; 61 1; 62 1; 63 2; 67 1; 
69 5; 70 1; 71 1; 72 1; 73 132; 
74 12; 75 22; 76 3; 77 16; 78 1; 
79 1; 83 3; 85 2; 87 1; 89 2; 
90 2; 91 2; 93 2; 95 1; 96 1; 
97 1; 98 1; 99 7; 101 2; 102 5; 
103 3; 104 1; 105 16; 106 1; 107 3; 
108 1; 109 2; 111 1; 113 1; 115 3; 
117 1; 118 5; 119 3; 120 1; 121 2; 
123 2; 124 1; 125 3; 126 2; 127 2; 
128 1; 129 9; 130 1; 131 3; 132 4; 
133 10; 134 2; 135 4; 137 1; 138 1; 
139 6; 140 7; 141 2; 143 2; 145 2; 
147 6; 148 4; 149 2; 150 3; 151 5; 
152 7; 153 4; 154 5; 155 3; 157 1; 
159 4; 160 1; 161 5; 162 2; 163 7; 
164 3; 165 5; 166 1; 167 2; 168 1; 
169 19; 174 1; 175 3; 176 12; 177 5; 
178 4; 179 3; 180 1; 181 2; 182 1; 
183 3; 184 105; 187 1; 189 2; 190 1; 
191 3; 192 1; 193 1; 195 2; 197 1; 
202 1; 203 1; 205 2; 206 1; 207 2; 
208 1; 209 2; 211 1; 219 1; 221 2; 
222 1; 223 3; 224 1; 225 1; 235 2; 
236 2; 237 2; 239 1; 247 1; 249 2; 
250 1; 251 3; 252 2; 253 4; 254 1; 
255 1; 263 3; 264 2; 265 5; 266 1; 
267 1; 277 1; 278 1; 279 4; 280 1; 
281 24; 282 15; 283 4; 284 1; 291 1; 
292 1; 293 16; 294 10; 295 9; 296 2; 
297 15; 298 3; 299 1; 307 2; 308 6; 
309 7; 310 7; 311 138; 312 32; 313 9; 
314 1; 321 1; 323 3; 324 1; 325 6; 
326 11; 327 3; 337 3; 338 1; 339 1; 
351 4; 352 1; 353 13; 354 6; 355 2; 
365 1; 367 7; 368 2; 369 1; 381 24; 
383 999; 384 324; 385 122; 386 24; 387 4; 
397 10; 398 5; 399 2; 
