Name: Chrysin
InChIKey: RTIXKCRFFJGDFG-UHFFFAOYSA-N
Synon: 5,7-Dihydroxyflavone
Formula: C15H10O4
MW: 254
ExactMass: 254.057909
CASNO: 480400
ID: 5062
Comment: DEA North Central Lab (PKP) / Sigma-Aldrich C-3018
Num Peaks: 101
41 26; 42 33; 43 19; 44 12; 45 19; 
50 84; 51 106; 52 30; 53 45; 54 10; 
55 58; 57 1; 61 3; 62 25; 63 58; 
64 18; 65 20; 66 20; 67 27; 68 25; 
69 221; 70 21; 71 10; 73 35; 74 37; 
75 48; 76 101; 77 146; 78 78; 79 25; 
81 13; 82 2; 84 7; 85 3; 86 2; 
87 22; 88 1; 89 21; 90 3; 91 12; 
92 5; 93 3; 95 33; 96 167; 97 9; 
98 8; 99 3; 100 1; 101 11; 102 117; 
103 54; 104 13; 105 67; 106 1; 108 3; 
110 16; 111 66; 112 1; 113 229; 114 3; 
115 49; 116 3; 121 2; 123 105; 124 364; 
125 29; 126 14; 127 30; 128 30; 129 30; 
133 7; 135 5; 137 1; 139 30; 140 1; 
141 33; 142 5; 147 8; 150 2; 151 15; 
152 339; 153 34; 155 4; 156 2; 157 5; 
169 4; 170 6; 181 1; 191 2; 193 1; 
197 28; 207 28; 208 11; 209 3; 225 29; 
226 241; 227 36; 253 116; 254 999; 255 160; 
256 20; 
