Name: Cyclizine
InChIKey: UVKZSORBKUEBAZ-UHFFFAOYSA-N
Synon: Marezine
Synon: Valoid
Synon: Nausicalm
Formula: C18H22N2
MW: 266
ExactMass: 266.178299
CASNO: 82928
ID: 5063
Comment: DEA North Central Lab (PKP)
Num Peaks: 148
40 2; 41 17; 42 174; 43 109; 44 88; 
45 2; 50 7; 51 28; 52 6; 53 2; 
54 23; 55 30; 56 535; 57 71; 58 100; 
59 4; 62 4; 63 24; 64 4; 65 31; 
66 2; 67 1; 68 5; 69 6; 70 203; 
71 50; 72 105; 73 5; 74 5; 75 7; 
76 12; 77 47; 78 11; 79 6; 80 1; 
81 4; 82 14; 83 13; 84 26; 85 47; 
86 5; 87 6; 88 5; 89 38; 90 13; 
91 121; 92 10; 93 1; 94 6; 95 5; 
96 2; 97 36; 98 18; 99 999; 100 61; 
101 5; 102 13; 103 14; 104 42; 105 20; 
106 2; 111 1; 113 9; 114 4; 115 74; 
116 14; 117 19; 118 15; 119 3; 125 1; 
126 10; 127 10; 128 46; 129 6; 130 15; 
131 6; 132 12; 133 2; 134 1; 137 3; 
138 3; 139 52; 140 8; 141 22; 142 3; 
144 5; 145 1; 146 12; 147 3; 150 5; 
151 35; 152 356; 153 50; 154 4; 158 1; 
159 1; 160 1; 161 17; 162 5; 163 43; 
164 69; 165 731; 166 218; 167 611; 168 93; 
169 7; 175 1; 176 1; 177 1; 178 8; 
179 13; 180 34; 181 6; 182 22; 183 3; 
187 1; 189 82; 190 12; 191 2; 192 3; 
193 8; 194 718; 195 322; 196 41; 197 3; 
204 1; 205 1; 206 176; 207 422; 208 342; 
209 67; 210 14; 211 1; 220 4; 221 1; 
222 36; 223 6; 234 1; 236 1; 237 1; 
238 2; 251 20; 252 4; 264 1; 265 9; 
266 245; 267 49; 268 4; 
