Name: (R)-(+)-N,.alpha.-Dimethylbenzylamine
InChIKey: RCSSHZGQHHEHPZ-MRVPVSSYSA-N
Synon: N,.alpha.-Dimethylbenzylamine
Formula: C9H13N
MW: 135
ExactMass: 135.104799
CASNO: 5933404
ID: 5065
Comment: DEA North Central Lab (PKP)
Num Peaks: 60
40 2; 41 8; 42 214; 43 10; 44 1; 
49 1; 50 23; 51 61; 52 16; 53 7; 
54 3; 55 1; 56 43; 57 11; 58 159; 
59 10; 60 7; 61 1; 62 6; 63 20; 
64 4; 65 18; 67 4; 73 1; 74 9; 
75 8; 76 12; 77 124; 78 41; 79 42; 
80 4; 86 1; 87 1; 89 13; 90 4; 
91 40; 92 5; 93 3; 94 1; 101 1; 
102 10; 103 48; 104 50; 105 97; 106 11; 
107 1; 115 1; 116 1; 117 8; 118 28; 
119 8; 120 999; 121 90; 122 3; 130 1; 
132 5; 133 1; 134 25; 135 13; 136 1; 
