Name: Epitestosterone
InChIKey: MUMGGOZAMZWBJJ-YKBUPIRMSA-N
Synon: 17.alpha.-Epitestosterone
Synon: Androst-4-en-17.alpha.-ol-3-one
Formula: C19H28O2
MW: 288
ExactMass: 288.208931
CASNO: 481301
ID: 5066
Comment: DEA North Central Lab (PKP) / Sigma-Aldrich E-5878
Num Peaks: 213
40 22; 41 278; 42 21; 43 156; 44 20; 
45 13; 50 4; 51 26; 52 19; 53 130; 
54 20; 55 288; 56 17; 57 87; 58 10; 
59 3; 60 1; 63 6; 64 6; 65 71; 
66 27; 67 208; 68 28; 69 50; 70 5; 
71 21; 72 4; 73 4; 74 2; 75 1; 
76 3; 77 200; 78 49; 79 301; 80 51; 
81 165; 82 27; 83 48; 84 9; 85 10; 
86 13; 87 20; 89 6; 90 4; 91 403; 
92 69; 93 268; 94 107; 95 175; 96 59; 
97 115; 98 10; 99 9; 100 8; 101 9; 
102 5; 103 37; 104 38; 105 335; 106 93; 
107 256; 108 98; 109 260; 110 112; 111 95; 
112 8; 113 3; 114 5; 115 57; 116 24; 
117 106; 118 39; 119 184; 120 83; 121 208; 
122 181; 123 317; 124 999; 125 125; 126 10; 
127 12; 128 42; 129 71; 130 28; 131 203; 
132 65; 133 177; 134 169; 135 113; 136 72; 
137 124; 138 41; 139 6; 140 1; 141 22; 
142 20; 143 59; 144 88; 145 154; 146 256; 
147 857; 148 212; 149 108; 150 33; 151 41; 
152 16; 153 8; 154 5; 155 18; 156 11; 
157 42; 158 38; 159 91; 160 49; 161 59; 
162 41; 163 25; 164 96; 165 171; 166 26; 
167 8; 168 3; 169 14; 170 10; 171 36; 
172 22; 173 44; 174 48; 175 30; 176 28; 
177 15; 178 5; 179 15; 180 3; 181 6; 
182 3; 183 11; 184 8; 185 79; 186 28; 
187 60; 188 20; 189 21; 190 25; 191 5; 
192 3; 193 3; 194 1; 195 7; 196 3; 
197 12; 198 5; 199 28; 200 21; 201 22; 
202 20; 203 162; 204 39; 205 5; 206 3; 
207 5; 208 1; 209 5; 210 3; 211 19; 
212 6; 213 87; 214 20; 215 9; 216 7; 
217 8; 218 4; 223 2; 224 2; 225 2; 
226 9; 227 27; 228 183; 229 47; 230 7; 
231 15; 232 4; 237 12; 238 2; 239 1; 
241 5; 242 5; 243 2; 244 5; 245 10; 
246 107; 247 19; 248 2; 251 1; 252 13; 
253 8; 254 2; 255 19; 256 4; 259 2; 
260 6; 269 1; 270 31; 271 8; 272 1; 
273 26; 274 4; 281 2; 282 1; 287 4; 
288 168; 289 35; 290 4; 
