Name: Erythorbic Acid 4-TMS derivative
InChIKey: ZCJXSXDUVKVLEK-HUUCEWRRSA-N
Synon: Isoascorbic acid 4-TMS derivative
Formula: C18H40O6Si4
MW: 464
ExactMass: 464.190195
CASNO: 0
ID: 5067
Comment: DEA North Central Lab (PKP)
Num Peaks: 225
41 3; 42 1; 43 12; 44 13; 45 86; 
46 5; 47 7; 53 5; 54 1; 55 5; 
56 1; 57 4; 58 8; 59 27; 60 2; 
61 4; 65 1; 66 1; 67 4; 68 4; 
69 2; 70 3; 71 4; 72 1; 73 999; 
74 88; 75 72; 76 3; 77 2; 79 2; 
81 2; 83 4; 84 1; 85 4; 87 3; 
88 3; 89 26; 90 2; 91 1; 95 3; 
97 2; 98 1; 99 10; 100 2; 101 17; 
102 4; 103 41; 104 4; 105 4; 109 1; 
111 3; 112 1; 113 4; 114 2; 115 8; 
116 1; 117 267; 118 26; 119 20; 120 1; 
121 1; 123 1; 125 2; 126 1; 127 11; 
128 2; 129 7; 130 1; 131 34; 132 6; 
133 126; 134 18; 135 14; 136 1; 137 1; 
139 1; 140 1; 141 6; 142 10; 143 19; 
144 3; 145 4; 147 683; 148 109; 149 86; 
150 10; 151 4; 153 4; 154 1; 155 3; 
156 1; 157 12; 158 2; 159 4; 160 1; 
161 3; 163 5; 164 1; 165 1; 167 2; 
168 1; 169 14; 170 9; 171 5; 172 1; 
173 5; 174 1; 175 6; 176 1; 177 5; 
178 1; 179 1; 181 1; 183 4; 184 1; 
185 2; 187 2; 189 10; 190 3; 191 8; 
192 1; 193 3; 197 3; 199 4; 200 1; 
201 5; 202 1; 203 2; 204 11; 205 225; 
206 43; 207 34; 208 5; 209 2; 213 1; 
214 2; 215 34; 216 8; 217 9; 218 2; 
219 1; 221 25; 222 6; 223 3; 227 1; 
228 1; 229 4; 230 4; 231 4; 232 1; 
241 5; 242 2; 243 8; 244 6; 245 5; 
246 1; 254 1; 255 1; 256 1; 257 15; 
258 14; 259 21; 260 34; 261 8; 262 3; 
269 2; 271 4; 272 1; 273 1; 285 2; 
289 3; 290 1; 291 1; 303 30; 304 23; 
305 9; 306 3; 307 2; 309 2; 315 2; 
316 1; 317 3; 318 1; 319 3; 320 1; 
329 2; 330 2; 331 28; 332 643; 333 202; 
334 98; 335 20; 336 5; 345 45; 346 15; 
347 7; 348 1; 359 71; 360 23; 361 37; 
362 10; 363 4; 364 1; 373 1; 374 75; 
375 24; 376 12; 377 3; 405 24; 406 9; 
407 5; 408 1; 419 27; 420 10; 421 6; 
422 1; 433 2; 434 1; 449 22; 450 8; 
451 5; 452 1; 464 10; 465 4; 466 2; 
