Name: Ethyl Vanillin
InChIKey: CBOQJANXLMLOSS-UHFFFAOYSA-N
Synon: 3-Ethoxy-4-hydroxybenzaldehyde
Formula: C9H10O3
MW: 166
ExactMass: 166.062994
CASNO: 121324
ID: 5068
Comment: DEA North Central Lab (PKP)
Num Peaks: 69
15 1; 26 8; 27 51; 29 56; 30 1; 
31 1; 37 3; 38 11; 39 30; 40 1; 
41 2; 42 2; 43 7; 44 7; 45 4; 
49 4; 50 32; 51 62; 52 50; 53 78; 
54 12; 55 25; 56 1; 57 1; 61 5; 
62 16; 63 46; 64 22; 65 26; 66 7; 
67 4; 68 1; 69 3; 74 4; 75 5; 
76 1; 77 8; 78 2; 79 30; 80 16; 
81 127; 82 25; 83 1; 90 1; 91 19; 
92 15; 93 4; 94 2; 95 5; 107 7; 
108 18; 109 141; 110 48; 111 3; 119 5; 
120 3; 121 5; 123 4; 135 1; 136 5; 
137 999; 138 319; 139 28; 140 2; 149 4; 
165 6; 166 382; 167 39; 168 4; 
