Name: Euphthalmine
InChIKey: QSAVEGSLJISCDF-UHFFFAOYSA-N
Synon: Eucatropine
Formula: C17H25NO3
MW: 291
ExactMass: 291.183443
CASNO: 100914
ID: 5069
Comment: DEA North Central Lab (PKP)
Num Peaks: 77
40 2; 41 51; 42 48; 43 12; 44 7; 
50 4; 51 16; 52 5; 53 10; 54 5; 
55 33; 56 129; 57 19; 58 112; 59 4; 
62 1; 63 3; 64 1; 65 3; 66 1; 
67 10; 68 10; 69 18; 70 14; 71 16; 
72 64; 73 3; 74 1; 76 1; 77 88; 
78 15; 79 106; 80 8; 81 6; 82 11; 
83 5; 84 31; 85 7; 86 3; 89 4; 
90 3; 91 4; 92 1; 93 5; 94 9; 
95 11; 96 11; 97 2; 98 13; 99 4; 
100 2; 105 15; 106 5; 107 53; 108 20; 
109 10; 110 53; 111 5; 112 4; 118 1; 
122 14; 123 4; 124 999; 125 96; 126 7; 
137 1; 138 11; 139 3; 140 131; 141 13; 
142 3; 158 3; 276 86; 277 15; 278 2; 
291 8; 292 1; 
