Name: gamma-hydroxybutyric acid di-TMS derivative
InChIKey: JQUWWJZPEOMMSB-UHFFFAOYSA-N
Synon: .gamma.-hydroxybutyric acid di-TMS derivative
Synon: GHB di-TMS derivative
Formula: C10H24O3Si2
MW: 248
ExactMass: 248.126398
CASNO: 55133954
ID: 5070
Comment: DEA North Central Lab (PKP) / derivatized with  BSTFA/TMCS
Num Peaks: 87
40 1; 41 30; 42 7; 43 22; 44 11; 
45 65; 46 4; 47 25; 48 1; 49 1; 
51 1; 52 1; 53 1; 55 9; 56 7; 
57 7; 58 20; 59 38; 60 7; 61 22; 
62 1; 66 14; 68 1; 69 28; 70 3; 
71 4; 72 16; 73 288; 74 31; 75 178; 
76 13; 77 8; 81 1; 85 14; 86 3; 
87 5; 88 11; 89 4; 90 1; 97 1; 
99 21; 100 2; 101 28; 102 4; 103 36; 
104 4; 105 3; 109 18; 113 1; 115 19; 
116 17; 117 213; 118 22; 119 14; 120 1; 
129 22; 130 14; 131 21; 132 12; 133 49; 
134 7; 135 4; 143 69; 144 8; 145 7; 
147 999; 148 166; 149 88; 150 9; 151 2; 
157 2; 158 4; 159 8; 160 1; 163 2; 
189 1; 191 5; 192 1; 204 41; 205 7; 
206 3; 217 1; 218 1; 233 142; 234 28; 
235 12; 236 1; 
