Name: Hyoscyamine
InChIKey: RKUNBYITZUJHSG-HEWHGDCOSA-N
Synon: Daturine
Synon: Anaspaz
Synon: Levsin
Synon: Levbid
Synon: Levo-atropine
Formula: C17H23NO3
MW: 289
ExactMass: 289.167793
CASNO: 101315
ID: 5072
Comment: DEA North Central Lab (PKP)
Num Peaks: 73
40 1; 41 22; 42 63; 43 8; 44 12; 
50 2; 51 8; 52 2; 53 7; 54 7; 
55 20; 56 12; 57 12; 58 4; 62 1; 
63 6; 64 2; 65 18; 66 3; 67 75; 
68 21; 69 4; 70 11; 71 1; 75 1; 
76 1; 77 40; 78 12; 79 22; 80 9; 
81 20; 82 160; 83 124; 84 12; 89 16; 
90 18; 91 53; 92 5; 93 11; 94 164; 
95 62; 96 73; 97 16; 98 7; 102 3; 
103 52; 104 12; 105 2; 106 1; 107 6; 
108 8; 109 3; 110 1; 112 2; 118 8; 
119 1; 120 5; 121 20; 122 12; 123 24; 
124 999; 125 91; 126 4; 135 2; 136 1; 
140 54; 141 5; 200 1; 272 5; 273 1; 
289 53; 290 10; 291 1; 
