Name: Ibuprofen TMS derivative
InChIKey: YCAAUQGUAZTIAV-UHFFFAOYSA-N
Formula: C16H26O2Si
MW: 278
ExactMass: 278.170206
CASNO: 74810892
ID: 5073
Comment: DEA North Central Lab (PKP)
Num Peaks: 95
41 33; 42 2; 43 53; 44 8; 45 42; 
46 3; 47 13; 50 1; 51 5; 52 1; 
53 4; 55 5; 56 1; 57 13; 58 8; 
59 8; 60 2; 61 10; 62 1; 63 4; 
64 1; 65 9; 66 1; 70 1; 71 1; 
72 13; 73 999; 74 89; 75 166; 76 12; 
77 24; 78 8; 79 6; 87 1; 89 10; 
90 3; 91 69; 92 6; 93 2; 101 1; 
102 6; 103 19; 104 10; 105 21; 106 1; 
110 5; 115 53; 116 16; 117 174; 118 75; 
119 51; 120 4; 127 4; 128 14; 129 11; 
130 4; 131 21; 132 2; 133 1; 141 2; 
142 1; 143 3; 144 1; 145 31; 146 5; 
147 1; 148 1; 150 1; 158 1; 159 8; 
160 289; 161 134; 162 15; 163 2; 175 1; 
177 1; 191 10; 192 2; 193 5; 205 15; 
206 3; 207 1; 219 2; 220 9; 221 1; 
234 65; 235 15; 236 3; 263 87; 264 18; 
265 5; 277 2; 278 28; 279 6; 280 1; 
