Name: d-Limonene
InChIKey: XMGQYMWWDOXHJM-JTQLQIEISA-N
Synon: 1-Methyl-4-(1-methylethenyl)cyclohexene
Synon: 4-Isopropenyl-1-methylcyclohexene
Synon: p-Menth-1,8-diene
Formula: C10H16
MW: 136
ExactMass: 136.1252
CASNO: 5989275
ID: 5075
Comment: DEA North Central Lab (PKP)
Num Peaks: 74
15 4; 26 6; 27 79; 29 39; 30 1; 
37 3; 38 15; 39 223; 40 62; 41 191; 
42 30; 43 20; 50 26; 51 81; 52 42; 
53 248; 54 23; 55 74; 56 4; 58 6; 
61 2; 62 10; 63 34; 64 8; 65 102; 
66 45; 67 765; 68 999; 69 74; 70 2; 
74 5; 75 5; 76 1; 77 263; 78 67; 
79 455; 80 160; 81 132; 82 26; 83 1; 
86 1; 87 2; 89 10; 91 319; 92 331; 
93 949; 94 395; 95 121; 96 8; 102 5; 
103 24; 104 9; 105 97; 106 28; 107 327; 
108 95; 109 8; 115 17; 116 4; 117 13; 
118 2; 119 23; 120 3; 121 372; 122 37; 
123 1; 128 1; 132 1; 133 1; 134 2; 
135 2; 136 370; 137 42; 138 2; 
