Name: O6-monoacetylmorphine TMS derivative
InChIKey: HBWAMRSFAPVOKZ-UHFFFAOYSA-N
Synon: O-6-Acetylmorphine TMS Derivative
Synon: 6-Acetylmorphine TMS Derivative
Formula: C22H29NO4Si
MW: 399
ExactMass: 399.186584
CASNO: 864282064
ID: 5076
Comment: DEA North Central Lab (PKP)
Num Peaks: 301
40 3; 41 24; 42 285; 43 469; 44 233; 
45 164; 46 10; 47 19; 50 1; 51 10; 
52 4; 53 31; 54 7; 55 39; 56 27; 
57 40; 58 92; 59 378; 60 35; 61 23; 
62 1; 63 10; 65 20; 66 4; 67 18; 
68 18; 69 8; 70 152; 71 15; 72 8; 
73 826; 74 78; 75 324; 76 28; 77 63; 
78 17; 79 21; 80 20; 81 201; 82 58; 
83 22; 84 7; 85 3; 86 4; 87 4; 
88 3; 89 20; 90 5; 91 44; 92 9; 
93 17; 94 142; 95 27; 96 50; 97 6; 
98 4; 99 6; 101 11; 102 16; 103 27; 
104 16; 105 40; 106 19; 107 31; 108 34; 
109 40; 110 24; 111 2; 112 11; 113 7; 
114 10; 115 91; 116 24; 117 71; 118 32; 
119 20; 120 24; 121 14; 122 22; 123 14; 
124 223; 125 25; 126 16; 127 37; 128 53; 
129 34; 130 17; 131 34; 132 33; 133 23; 
134 42; 135 17; 136 12; 137 5; 138 8; 
139 33; 140 13; 141 44; 142 13; 143 16; 
144 61; 145 23; 146 143; 147 29; 148 11; 
149 16; 150 10; 151 34; 152 84; 153 65; 
154 34; 155 24; 156 9; 157 13; 158 10; 
159 7; 160 23; 161 23; 162 182; 163 39; 
164 19; 165 95; 166 91; 167 39; 168 23; 
169 21; 170 12; 171 12; 172 6; 173 34; 
174 15; 175 39; 176 20; 177 22; 178 45; 
179 75; 180 30; 181 59; 182 26; 183 15; 
184 14; 185 16; 186 48; 187 18; 188 8; 
189 25; 190 13; 191 27; 192 16; 193 39; 
194 22; 195 24; 196 17; 197 21; 198 12; 
199 25; 200 16; 201 32; 202 26; 203 78; 
204 277; 205 79; 206 24; 207 30; 208 15; 
209 28; 210 30; 211 18; 212 14; 213 11; 
214 10; 215 13; 216 111; 217 46; 218 27; 
219 32; 220 54; 221 22; 222 16; 223 34; 
224 27; 225 16; 226 9; 227 11; 228 6; 
229 69; 230 32; 231 27; 232 38; 233 46; 
234 23; 235 14; 236 62; 237 29; 238 19; 
239 14; 240 22; 241 27; 242 24; 243 38; 
244 21; 245 26; 246 72; 247 26; 248 17; 
249 10; 250 23; 251 14; 252 17; 253 84; 
254 55; 255 48; 256 45; 257 27; 258 27; 
259 14; 260 17; 261 6; 262 3; 263 2; 
264 5; 265 8; 266 133; 267 97; 268 40; 
269 44; 270 40; 271 26; 272 66; 273 21; 
274 20; 275 8; 276 3; 277 2; 278 3; 
279 19; 280 67; 281 65; 282 171; 283 144; 
284 64; 285 37; 286 24; 287 410; 288 107; 
289 29; 290 6; 291 4; 292 7; 293 20; 
294 12; 295 15; 296 20; 297 20; 298 50; 
299 27; 300 27; 301 8; 302 1; 306 2; 
307 3; 308 12; 309 13; 310 12; 311 9; 
312 15; 313 6; 314 10; 315 1; 320 1; 
322 12; 323 4; 324 136; 325 43; 326 38; 
327 9; 328 6; 329 3; 338 34; 339 26; 
340 688; 341 191; 342 198; 343 47; 344 11; 
354 3; 355 1; 356 71; 357 20; 358 5; 
371 2; 382 2; 384 51; 385 13; 386 4; 
397 10; 398 75; 399 999; 400 302; 401 81; 
402 13; 
