Name: Mecamylamine
InChIKey: IMYZQPCYWPFTAG-UHFFFAOYSA-N
Synon: Inversine
Synon: Vecamyl
Formula: C11H21N
MW: 167
ExactMass: 167.167399
CASNO: 60402
ID: 5077
Comment: DEA North Central Lab (PKP)
Num Peaks: 81
40 21; 41 215; 42 174; 43 33; 44 32; 
45 1; 50 4; 51 18; 52 11; 53 63; 
54 30; 55 80; 56 392; 57 47; 58 90; 
59 1; 62 2; 63 5; 64 1; 65 36; 
66 15; 67 88; 68 36; 69 34; 70 38; 
71 533; 72 34; 73 1; 77 44; 78 10; 
79 40; 80 15; 81 30; 82 79; 83 12; 
84 566; 85 77; 86 5; 91 42; 92 7; 
93 43; 94 29; 95 29; 96 88; 97 60; 
98 999; 99 274; 100 32; 101 1; 103 2; 
105 9; 106 8; 107 21; 108 38; 109 19; 
110 43; 111 14; 112 65; 113 9; 115 1; 
119 2; 120 3; 121 14; 122 26; 123 13; 
124 294; 125 31; 126 18; 134 1; 135 2; 
136 12; 137 4; 138 36; 139 50; 140 5; 
150 5; 152 73; 153 4; 166 16; 167 73; 
168 9; 
