Name: N-(4-hydroxyphenyl) piperazine
InChIKey: GPEOAEVZTOQXLG-UHFFFAOYSA-N
Synon: 1-(4-Hydroxyphenyl)piperazine
Formula: C10H14N2O
MW: 178
ExactMass: 178.110613
CASNO: 56621488
ID: 5078
Comment: DEA North Central Lab (PKP)
Num Peaks: 78
40 7; 41 14; 42 33; 43 9; 44 6; 
50 6; 51 13; 52 15; 53 19; 54 11; 
55 10; 56 107; 57 43; 58 4; 60 1; 
61 1; 62 6; 63 19; 64 12; 65 96; 
66 17; 67 6; 68 3; 69 1; 74 2; 
75 3; 76 2; 77 23; 78 7; 79 6; 
80 5; 81 6; 82 1; 83 3; 84 1; 
89 7; 90 1; 91 12; 92 12; 93 73; 
94 24; 95 5; 103 1; 104 3; 105 2; 
106 8; 107 40; 108 10; 109 3; 116 1; 
117 2; 118 3; 119 5; 120 220; 121 239; 
122 70; 123 14; 124 1; 130 1; 131 1; 
132 1; 133 4; 134 9; 135 16; 136 999; 
137 91; 138 5; 146 3; 147 3; 148 9; 
149 2; 161 1; 175 1; 176 2; 177 14; 
178 297; 179 35; 180 2; 
