Name: D(-)-Pantoyllactone
InChIKey: SERHXTVXHNVDKA-UHFFFAOYSA-N
Synon: D-Pantolactone
Synon: Pantoic acid -lactone
Formula: C6H10O3
MW: 130
ExactMass: 130.062994
CASNO: 599042
ID: 5079
Comment: DEA North Central Lab (PKP) / sa P2625
Num Peaks: 37
40 13; 41 240; 42 34; 43 381; 44 48; 
45 52; 46 1; 49 1; 50 10; 51 13; 
52 5; 53 83; 54 16; 55 113; 56 71; 
57 236; 58 57; 59 5; 65 3; 66 2; 
67 39; 68 84; 69 23; 70 10; 71 999; 
72 96; 73 36; 74 1; 76 2; 83 5; 
84 1; 85 15; 86 4; 97 1; 128 1; 
130 2; 131 1; 
