Name: Pentylenetetrazol
InChIKey: CWRVKFFCRWGWCS-UHFFFAOYSA-N
Synon: Pentylenetetrazole
Synon: Metrazol
Synon: Pentamethylenetetrazol
Synon: Corazol,
Synon: Cardiazol
Synon: Deumacard
Synon: PTZ
Formula: C6H10N4
MW: 138
ExactMass: 138.090547
CASNO: 54955
ID: 5081
Comment: DEA North Central Lab (PKP)
Num Peaks: 45
40 88; 41 560; 42 162; 43 34; 44 1; 
49 3; 50 28; 51 43; 52 37; 53 157; 
54 344; 55 999; 56 147; 57 16; 61 1; 
62 3; 63 6; 64 4; 65 29; 66 13; 
67 94; 68 85; 69 32; 70 10; 74 1; 
75 1; 76 1; 77 8; 78 12; 79 19; 
80 13; 81 62; 82 761; 83 57; 84 2; 
92 2; 93 1; 94 1; 95 50; 96 43; 
97 3; 109 196; 110 14; 138 98; 139 11; 
