Name: Phenindamine
InChIKey: ISFHAYSTHMVOJR-UHFFFAOYSA-N
Synon: Nolahist
Synon: Thephorin
Formula: C19H19N
MW: 261
ExactMass: 261.15175
CASNO: 82882
ID: 5082
Comment: DEA North Central Lab (PKP)
Num Peaks: 173
40 1; 41 9; 42 252; 43 18; 44 81; 
45 2; 50 9; 51 30; 52 6; 53 3; 
54 3; 55 2; 56 8; 57 314; 58 12; 
62 5; 63 25; 64 3; 65 12; 66 1; 
67 1; 68 4; 70 8; 73 1; 74 8; 
75 14; 76 15; 77 34; 78 31; 79 1; 
80 1; 81 3; 82 5; 83 3; 84 1; 
86 5; 87 12; 88 19; 89 27; 91 42; 
92 1; 93 2; 94 90; 95 3; 98 4; 
99 2; 100 10; 101 36; 102 11; 103 10; 
104 2; 105 1; 107 8; 108 7; 109 3; 
110 2; 111 2; 112 2; 113 16; 114 11; 
115 113; 116 18; 117 6; 118 3; 120 2; 
121 3; 122 5; 123 2; 125 2; 126 15; 
127 18; 128 30; 129 15; 130 12; 131 13; 
132 1; 133 1; 137 6; 138 6; 139 65; 
140 25; 141 79; 142 15; 143 6; 144 3; 
149 3; 150 18; 151 24; 152 40; 153 16; 
154 10; 155 6; 156 3; 157 1; 158 1; 
161 2; 162 7; 163 33; 164 21; 165 76; 
166 38; 167 38; 168 34; 169 13; 170 19; 
171 2; 174 4; 175 9; 176 30; 177 12; 
178 37; 179 26; 180 16; 181 29; 182 214; 
183 87; 184 189; 185 26; 186 4; 187 24; 
188 21; 189 109; 190 36; 191 35; 192 12; 
193 2; 194 1; 198 1; 199 3; 200 39; 
201 44; 202 354; 203 225; 204 89; 205 22; 
206 3; 207 1; 211 4; 212 3; 213 46; 
214 22; 215 201; 216 79; 217 177; 218 108; 
219 19; 220 3; 225 1; 226 6; 227 7; 
228 14; 229 12; 230 10; 231 10; 232 10; 
233 2; 238 1; 240 5; 241 7; 242 11; 
243 13; 244 17; 245 8; 246 8; 247 1; 
256 1; 257 10; 258 33; 259 18; 260 999; 
261 639; 262 107; 263 10; 
