Name: Piperocaine
InChIKey: YQKAVWCGQQXBGW-UHFFFAOYSA-N
Formula: C16H23NO2
MW: 261
ExactMass: 261.172878
CASNO: 136823
ID: 5083
Comment: DEA North Central Lab (PKP)
Num Peaks: 81
40 3; 41 72; 42 58; 43 12; 44 67; 
45 2; 50 10; 51 43; 52 3; 53 7; 
54 17; 55 102; 56 67; 57 14; 58 7; 
65 2; 66 1; 67 7; 68 26; 69 25; 
70 26; 71 5; 72 2; 74 3; 75 3; 
76 10; 77 195; 78 16; 79 7; 80 4; 
81 5; 82 20; 83 40; 84 27; 85 3; 
86 1; 91 2; 92 1; 93 1; 94 4; 
95 2; 96 76; 97 20; 98 34; 99 3; 
100 3; 104 4; 105 363; 106 28; 107 2; 
108 2; 110 22; 111 14; 112 999; 113 78; 
114 3; 122 6; 123 4; 124 54; 125 5; 
126 5; 128 1; 138 14; 139 3; 140 14; 
141 1; 154 1; 156 17; 157 1; 163 129; 
164 14; 165 1; 218 2; 244 1; 245 1; 
246 465; 247 76; 248 7; 260 5; 261 24; 
262 4; 
