Name: Pyridoxine tris-TMS derivative
InChIKey: SMDRDHCUJYPMJH-UHFFFAOYSA-N
Formula: C17H35NO3Si3
MW: 385
ExactMass: 385.192474
CASNO: 14857171
ID: 5085
Comment: DEA North Central Lab (PKP)
Num Peaks: 180
42 1; 43 8; 44 9; 45 73; 46 5; 
47 8; 51 2; 52 1; 53 2; 54 1; 
55 2; 57 3; 58 4; 59 20; 60 2; 
61 6; 63 1; 64 1; 65 9; 66 2; 
67 1; 69 1; 70 2; 71 2; 72 9; 
73 708; 74 62; 75 84; 76 5; 77 16; 
78 4; 79 7; 80 2; 81 1; 83 5; 
84 1; 85 3; 86 1; 87 2; 89 3; 
90 1; 91 8; 92 2; 93 2; 94 1; 
95 2; 96 1; 97 4; 98 1; 99 2; 
100 1; 101 1; 102 1; 103 11; 104 4; 
105 7; 106 38; 107 5; 108 1; 109 3; 
110 1; 111 3; 113 1; 115 5; 116 2; 
117 10; 118 5; 119 8; 120 6; 121 3; 
122 3; 123 3; 124 1; 125 1; 129 1; 
130 5; 131 23; 132 8; 133 63; 134 26; 
135 11; 136 3; 137 2; 138 1; 139 2; 
143 2; 144 1; 145 1; 146 1; 147 261; 
148 47; 149 28; 150 9; 151 4; 152 2; 
153 1; 157 2; 158 1; 160 1; 161 1; 
162 6; 163 3; 164 12; 165 5; 166 6; 
167 2; 174 1; 175 1; 176 9; 177 4; 
178 15; 179 10; 180 14; 181 7; 182 2; 
188 1; 189 1; 190 12; 191 6; 192 30; 
193 10; 194 13; 195 5; 196 2; 204 4; 
205 5; 206 28; 207 19; 208 25; 209 6; 
210 2; 220 4; 221 12; 222 47; 223 13; 
224 6; 225 1; 234 1; 236 3; 237 1; 
238 5; 239 2; 240 2; 248 1; 249 1; 
250 12; 251 4; 252 55; 253 18; 254 10; 
255 2; 264 9; 265 10; 266 16; 267 7; 
268 4; 269 1; 278 3; 280 999; 281 253; 
282 114; 283 20; 284 4; 294 10; 295 371; 
296 108; 297 49; 298 11; 299 2; 312 1; 
326 2; 327 6; 328 2; 340 1; 354 3; 
355 1; 370 63; 371 21; 372 9; 373 2; 
