Name: Androstanediol-3-acetate
InChIKey: MENYRVLDWKVWLK-KAJYYJDKSA-N
Formula: C21H34O3
MW: 334
ExactMass: 334.250795
CASNO: 3090708
ID: 5087
Comment: DEA North Central Lab (PKP) / Sigma-Aldrich A3414 lot 99F0229
Num Peaks: 205
40 12; 41 230; 42 33; 43 765; 44 61; 
45 18; 50 1; 51 8; 52 6; 53 104; 
54 35; 55 370; 56 29; 57 154; 58 22; 
59 3; 60 4; 61 145; 62 3; 63 3; 
64 1; 65 62; 66 29; 67 420; 68 109; 
69 117; 70 15; 71 48; 72 4; 73 1; 
74 2; 77 203; 78 50; 79 531; 80 109; 
81 447; 82 55; 83 84; 84 23; 85 19; 
86 3; 87 2; 88 3; 89 2; 91 503; 
92 118; 93 606; 94 207; 95 354; 96 44; 
97 92; 98 17; 99 6; 100 3; 101 4; 
102 3; 103 25; 104 36; 105 438; 106 211; 
107 515; 108 475; 109 256; 110 48; 111 62; 
112 7; 113 2; 115 44; 116 21; 117 104; 
118 55; 119 300; 120 166; 121 277; 122 147; 
123 136; 124 26; 125 13; 126 2; 127 5; 
128 24; 129 44; 130 19; 131 166; 132 52; 
133 286; 134 150; 135 207; 136 54; 137 30; 
138 8; 139 5; 140 1; 141 10; 142 9; 
143 38; 144 21; 145 278; 146 114; 147 508; 
148 225; 149 173; 150 31; 151 41; 152 10; 
153 6; 154 2; 155 5; 156 4; 157 29; 
158 16; 159 165; 160 120; 161 189; 162 105; 
163 50; 164 64; 165 28; 166 30; 167 7; 
168 1; 169 4; 170 2; 171 30; 172 13; 
173 145; 174 75; 175 76; 176 84; 177 25; 
178 49; 179 21; 180 5; 181 1; 183 3; 
184 1; 185 51; 186 23; 187 108; 188 55; 
189 41; 190 11; 191 20; 192 38; 193 8; 
194 1; 197 2; 198 1; 199 66; 200 30; 
201 141; 202 110; 203 39; 204 18; 205 23; 
206 15; 207 2; 211 1; 212 1; 213 31; 
214 26; 215 614; 216 135; 217 202; 218 73; 
219 37; 220 202; 221 33; 222 3; 225 1; 
227 14; 228 11; 229 14; 230 258; 231 68; 
232 51; 233 23; 234 5; 235 4; 239 2; 
241 247; 242 48; 243 7; 244 2; 245 15; 
246 13; 247 3; 248 1; 254 1; 255 1; 
256 310; 257 79; 258 4; 259 345; 260 68; 
261 10; 262 1; 272 8; 274 999; 275 227; 
276 27; 277 2; 290 2; 319 4; 334 1; 
