Name: 1-Androstenediol
InChIKey: RZFGPAMUAXASRE-WTVXNACZSA-N
Synon: 5.alpha.-Androst-1-ene-3.beta.,17.beta.-diol
Formula: C19H30O2
MW: 290
ExactMass: 290.22458
CASNO: 5323273
ID: 5088
Comment: DEA North Central Lab (PKP) / Steraloids H796
Num Peaks: 223
40 37; 41 505; 42 52; 43 325; 44 83; 
45 36; 46 1; 50 5; 51 35; 52 22; 
53 272; 54 55; 55 680; 56 46; 57 344; 
58 42; 59 7; 60 1; 61 1; 62 1; 
63 10; 64 6; 65 161; 66 64; 67 563; 
68 113; 69 215; 70 123; 71 167; 72 13; 
73 4; 74 5; 75 1; 77 476; 78 106; 
79 801; 80 157; 81 699; 82 106; 83 117; 
84 259; 85 112; 86 14; 87 7; 88 2; 
89 11; 91 999; 92 206; 93 794; 94 291; 
95 757; 96 115; 97 169; 98 45; 99 11; 
100 4; 101 4; 102 12; 103 72; 104 56; 
105 740; 106 424; 107 611; 108 336; 109 552; 
110 174; 111 89; 112 10; 113 4; 114 6; 
115 112; 116 46; 117 240; 118 134; 119 365; 
120 176; 121 336; 122 208; 123 244; 124 112; 
125 19; 126 4; 127 24; 128 79; 129 134; 
130 49; 131 333; 132 86; 133 299; 134 160; 
135 212; 136 80; 137 62; 138 14; 139 9; 
140 2; 141 44; 142 30; 143 150; 144 58; 
145 341; 146 130; 147 423; 148 146; 149 166; 
150 48; 151 66; 152 29; 153 16; 154 14; 
155 27; 156 12; 157 89; 158 46; 159 192; 
160 128; 161 611; 162 153; 163 143; 164 77; 
165 34; 166 9; 167 9; 168 5; 169 26; 
170 9; 171 60; 172 27; 173 223; 174 79; 
175 65; 176 652; 177 120; 178 67; 179 21; 
180 4; 181 4; 182 3; 183 33; 184 11; 
185 81; 186 43; 187 409; 188 84; 189 41; 
190 13; 191 78; 192 16; 193 3; 194 1; 
195 3; 196 1; 197 22; 198 9; 199 42; 
200 43; 201 142; 202 371; 203 100; 204 53; 
205 99; 206 17; 207 1; 209 1; 211 10; 
212 6; 213 43; 214 21; 215 54; 216 18; 
217 17; 218 87; 219 226; 220 629; 221 114; 
222 29; 223 4; 224 1; 225 13; 226 4; 
227 4; 228 15; 229 12; 230 6; 231 18; 
232 76; 233 31; 234 7; 235 2; 237 1; 
239 56; 240 11; 241 3; 243 16; 244 7; 
245 2; 246 24; 247 8; 248 2; 253 7; 
254 13; 255 5; 256 1; 257 46; 258 10; 
259 2; 261 115; 262 22; 263 3; 268 2; 
270 2; 271 2; 272 66; 273 15; 274 3; 
275 46; 276 10; 286 1; 288 6; 289 3; 
290 330; 291 70; 292 8; 
