Name: 5.alpha.-Androstene-3.alpha.,17.beta.-diol
InChIKey: QADHLRWLCPCEKT-UETZHRRXSA-N
Formula: C19H30O2
MW: 290
ExactMass: 290.22458
CASNO: 0
ID: 5092
Comment: DEA North Central Lab (PKP) / Steraloids L1328
Num Peaks: 221
40 32; 41 433; 42 35; 43 292; 44 70; 
45 30; 50 5; 51 33; 52 20; 53 217; 
54 41; 55 537; 56 37; 57 283; 58 34; 
59 6; 60 1; 62 1; 63 11; 64 7; 
65 143; 66 52; 67 480; 68 83; 69 131; 
70 22; 71 59; 72 7; 73 3; 74 3; 
75 3; 76 5; 77 384; 78 98; 79 670; 
80 134; 81 464; 82 78; 83 110; 84 30; 
85 24; 86 3; 87 6; 88 2; 89 13; 
91 999; 92 207; 93 620; 94 186; 95 534; 
96 94; 97 206; 98 41; 99 16; 100 5; 
101 5; 102 16; 103 80; 104 57; 105 767; 
106 360; 107 634; 108 280; 109 407; 110 166; 
111 78; 112 9; 113 4; 114 9; 115 137; 
116 54; 117 248; 118 154; 119 354; 120 212; 
121 346; 122 148; 123 227; 124 135; 125 27; 
126 5; 127 32; 128 115; 129 158; 130 59; 
131 331; 132 112; 133 318; 134 159; 135 199; 
136 108; 137 73; 138 17; 139 10; 140 3; 
141 57; 142 40; 143 171; 144 77; 145 303; 
146 130; 147 319; 148 122; 149 151; 150 60; 
151 105; 152 30; 153 21; 154 19; 155 33; 
156 17; 157 107; 158 63; 159 180; 160 97; 
161 246; 162 77; 163 85; 164 104; 165 47; 
166 13; 167 11; 168 6; 169 31; 170 11; 
171 71; 172 40; 173 189; 174 63; 175 60; 
176 339; 177 68; 178 82; 179 21; 180 4; 
181 6; 182 4; 183 35; 184 11; 185 87; 
186 33; 187 194; 188 62; 189 46; 190 22; 
191 65; 192 15; 193 3; 194 1; 195 3; 
196 2; 197 29; 198 11; 199 92; 200 53; 
201 131; 202 224; 203 108; 204 29; 205 43; 
206 9; 208 4; 209 2; 210 1; 211 15; 
212 9; 213 95; 214 48; 215 44; 216 16; 
217 35; 218 87; 219 210; 220 417; 221 72; 
222 7; 223 1; 224 1; 225 9; 226 6; 
227 8; 228 27; 229 17; 230 12; 231 33; 
232 183; 233 57; 234 9; 235 1; 237 1; 
239 70; 240 14; 241 5; 242 1; 243 11; 
244 6; 245 1; 246 26; 247 11; 248 2; 
253 4; 254 15; 255 6; 256 3; 257 104; 
258 21; 259 5; 261 28; 262 6; 270 4; 
271 2; 272 166; 273 37; 274 9; 275 21; 
276 4; 288 3; 289 7; 290 266; 291 56; 
292 6; 
