Name: Sucrose 8-TMS derivative
InChIKey: JDAONBLATRVCRV-YYEYMFTQSA-N
Formula: C36H86O11Si8
MW: 918
ExactMass: 918.432426
CASNO: 19159252
ID: 5095
Comment: DEA North Central Lab (PKP) / derivatized with TMSI
Num Peaks: 214
41 1; 43 3; 44 2; 45 14; 46 1; 
47 2; 53 2; 54 2; 55 7; 56 1; 
57 1; 58 2; 59 10; 60 1; 61 2; 
66 1; 67 1; 68 1; 69 9; 70 1; 
71 1; 73 674; 74 58; 75 53; 76 3; 
77 2; 81 7; 83 2; 85 3; 87 3; 
88 2; 89 8; 97 1; 99 3; 101 12; 
102 5; 103 187; 104 18; 105 8; 109 5; 
111 3; 113 9; 114 2; 115 6; 116 7; 
117 51; 118 5; 119 5; 125 1; 127 6; 
129 161; 130 22; 131 34; 132 5; 133 51; 
134 7; 135 5; 139 3; 140 1; 141 6; 
142 8; 143 27; 144 3; 145 9; 147 322; 
148 50; 149 41; 150 5; 151 3; 153 3; 
154 1; 155 19; 156 4; 157 29; 158 4; 
159 5; 160 1; 161 4; 163 6; 164 1; 
167 2; 169 121; 170 19; 171 11; 172 1; 
173 7; 174 1; 175 6; 176 1; 177 6; 
178 1; 181 2; 182 1; 183 8; 184 1; 
185 3; 187 3; 189 48; 190 10; 191 79; 
192 14; 193 7; 194 1; 199 5; 200 1; 
201 4; 202 2; 203 18; 204 54; 205 43; 
206 11; 207 8; 208 1; 209 1; 213 1; 
215 14; 217 484; 218 113; 219 51; 220 8; 
221 18; 222 3; 223 2; 227 3; 228 1; 
229 26; 230 31; 231 24; 232 7; 233 8; 
234 2; 235 1; 239 1; 241 7; 242 1; 
243 86; 244 20; 245 23; 246 6; 247 8; 
248 1; 255 3; 256 1; 257 25; 258 6; 
259 12; 260 2; 261 1; 263 1; 265 2; 
271 132; 272 31; 273 16; 274 3; 275 2; 
277 2; 278 1; 279 1; 289 2; 290 1; 
291 16; 292 5; 293 6; 294 1; 303 3; 
304 3; 305 17; 306 8; 307 4; 308 1; 
317 7; 318 4; 319 68; 320 24; 321 11; 
322 2; 331 33; 332 11; 333 7; 334 2; 
335 1; 345 11; 346 3; 347 6; 348 2; 
349 1; 359 2; 361 999; 362 325; 363 159; 
364 35; 365 10; 366 1; 373 1; 374 1; 
377 1; 378 1; 379 1; 433 1; 435 6; 
437 186; 438 74; 439 40; 440 10; 441 3; 
450 8; 451 59; 452 24; 453 13; 454 3; 
455 1; 463 1; 464 2; 467 1; 
