Name: Thenyldiamine
InChIKey: RCGYDFVCAAKKNG-UHFFFAOYSA-N
Formula: C14H19N3S
MW: 261
ExactMass: 261.129969
CASNO: 91792
ID: 5096
Comment: DEA North Central Lab (PKP)
Num Peaks: 131
40 2; 41 5; 42 63; 43 16; 44 10; 
45 46; 46 1; 47 3; 50 4; 51 29; 
52 26; 53 44; 54 5; 55 3; 56 25; 
57 20; 58 902; 59 34; 63 3; 64 2; 
65 6; 66 4; 67 5; 68 1; 69 12; 
70 17; 71 208; 72 220; 73 11; 76 1; 
77 3; 78 97; 79 93; 80 13; 81 2; 
82 2; 83 2; 84 2; 85 3; 89 1; 
90 1; 91 2; 92 5; 93 11; 94 5; 
95 6; 96 5; 97 999; 98 63; 99 47; 
100 2; 104 1; 105 16; 106 7; 107 22; 
108 2; 109 3; 110 5; 111 3; 112 18; 
113 1; 114 1; 116 1; 117 3; 118 3; 
119 49; 120 7; 121 10; 122 2; 123 1; 
124 3; 125 3; 128 1; 129 1; 130 3; 
131 3; 132 1; 133 3; 134 3; 135 11; 
136 2; 138 1; 141 1; 142 1; 143 2; 
144 1; 145 3; 146 1; 147 1; 148 1; 
155 3; 156 3; 157 17; 158 2; 160 2; 
161 1; 162 8; 163 5; 164 1; 167 1; 
168 1; 169 8; 170 2; 172 1; 173 4; 
174 6; 175 4; 176 1; 178 1; 186 1; 
187 7; 188 1; 189 56; 190 157; 191 218; 
192 32; 193 10; 194 1; 201 4; 202 1; 
203 177; 204 23; 205 9; 206 1; 215 2; 
216 3; 217 9; 218 1; 261 41; 262 8; 
263 2; 
