Name: Thiethylperazine
InChIKey: XCTYLCDETUVOIP-UHFFFAOYSA-N
Synon: Torecan
Formula: C22H29N3S2
MW: 399
ExactMass: 399.18029
CASNO: 1420559
ID: 5097
Comment: DEA North Central Lab (PKP)
Num Peaks: 276
40 2; 41 67; 42 395; 43 400; 44 138; 
45 20; 46 1; 47 2; 50 3; 51 7; 
52 2; 53 3; 54 26; 55 43; 56 223; 
57 92; 58 138; 59 24; 60 2; 61 2; 
62 3; 63 12; 64 2; 65 8; 66 1; 
67 4; 68 23; 69 49; 70 999; 71 203; 
72 49; 73 9; 74 2; 75 4; 76 5; 
77 17; 78 4; 79 1; 80 3; 81 7; 
82 52; 83 61; 84 76; 85 80; 86 11; 
87 2; 88 2; 89 6; 90 2; 91 7; 
92 2; 93 6; 94 5; 95 26; 96 68; 
97 78; 98 140; 99 111; 100 11; 101 8; 
102 6; 103 4; 104 3; 105 2; 106 1; 
107 4; 108 14; 109 19; 110 7; 111 168; 
112 29; 113 931; 114 98; 115 17; 116 4; 
117 4; 118 1; 119 2; 120 3; 121 10; 
122 6; 123 3; 124 7; 125 24; 126 12; 
127 163; 128 26; 129 4; 130 5; 131 1; 
132 2; 133 2; 134 7; 135 15; 136 6; 
137 5; 138 12; 139 67; 140 38; 141 685; 
142 66; 143 4; 144 2; 145 7; 146 6; 
147 8; 148 4; 149 6; 150 3; 151 12; 
152 25; 153 36; 154 29; 155 4; 156 2; 
157 1; 158 11; 159 10; 160 5; 161 2; 
162 2; 163 2; 164 10; 165 10; 166 39; 
167 82; 168 10; 169 10; 170 11; 171 31; 
172 11; 173 9; 174 2; 175 1; 176 3; 
177 14; 178 47; 179 99; 180 44; 181 10; 
182 5; 183 16; 184 48; 185 256; 186 85; 
187 20; 188 4; 189 1; 190 5; 191 24; 
192 11; 193 13; 194 6; 195 6; 196 66; 
197 66; 198 161; 199 62; 200 17; 201 6; 
202 1; 203 4; 204 25; 205 15; 206 20; 
207 12; 208 5; 209 26; 210 90; 211 162; 
212 155; 213 34; 214 14; 215 5; 216 3; 
217 1; 218 1; 219 3; 220 2; 221 1; 
222 20; 223 100; 224 79; 225 46; 226 16; 
227 6; 228 40; 229 89; 230 153; 231 36; 
232 17; 233 5; 234 3; 235 4; 236 30; 
237 32; 238 67; 239 56; 240 124; 241 30; 
242 63; 243 66; 244 41; 245 11; 246 4; 
249 2; 250 1; 251 2; 252 5; 253 6; 
254 9; 255 16; 256 27; 257 23; 258 243; 
259 244; 260 60; 261 25; 262 4; 265 4; 
266 7; 267 4; 268 7; 269 10; 270 50; 
271 20; 272 186; 273 110; 274 36; 275 11; 
276 2; 282 4; 283 4; 284 17; 285 117; 
286 94; 287 26; 288 8; 289 2; 295 1; 
296 2; 297 1; 298 116; 299 75; 300 24; 
301 7; 302 2; 311 1; 312 3; 313 2; 
315 2; 326 2; 327 2; 328 11; 329 5; 
331 1; 338 1; 339 2; 340 1; 341 2; 
342 11; 343 2; 344 1; 355 15; 356 6; 
357 3; 370 1; 384 3; 385 1; 397 5; 
398 2; 399 524; 400 142; 401 63; 402 13; 
403 3; 
