Name: Vinpocetine
InChIKey: DDNCQMVWWZOMLN-IRLDBZIGSA-N
Synon: Cavinton
Synon: Intelectol
Synon: Ethyl apovincaminate
Formula: C22H26N2O2
MW: 350
ExactMass: 350.199429
CASNO: 42971095
ID: 5099
Comment: DEA North Central Lab (PKP)
Num Peaks: 217
40 1; 41 13; 42 28; 43 8; 44 2; 
45 2; 50 1; 51 4; 52 2; 53 4; 
54 3; 55 5; 56 2; 63 4; 64 1; 
65 4; 66 1; 67 2; 68 2; 69 1; 
70 1; 74 1; 75 4; 76 4; 77 13; 
78 3; 79 3; 80 2; 81 1; 82 1; 
84 3; 87 1; 88 3; 89 7; 90 3; 
91 12; 92 2; 93 1; 94 1; 96 8; 
99 1; 100 1; 101 7; 102 12; 103 18; 
104 2; 105 1; 106 1; 109 1; 110 18; 
113 5; 114 6; 115 26; 116 14; 117 7; 
118 1; 122 9; 123 25; 124 1; 125 7; 
126 8; 127 12; 128 15; 129 5; 130 6; 
131 2; 133 9; 137 2; 138 8; 139 17; 
140 20; 141 6; 142 5; 143 4; 144 4; 
145 2; 146 11; 147 7; 149 1; 150 5; 
151 15; 152 23; 153 11; 154 13; 155 5; 
156 3; 157 2; 160 1; 161 10; 162 1; 
163 10; 164 15; 165 28; 166 22; 167 33; 
168 14; 169 7; 170 3; 171 4; 172 1; 
175 24; 176 10; 177 14; 178 31; 179 18; 
180 40; 181 11; 182 4; 183 1; 184 1; 
188 2; 189 7; 190 34; 191 92; 192 91; 
193 122; 194 34; 195 7; 196 1; 197 1; 
198 1; 201 2; 202 7; 203 14; 204 76; 
205 53; 206 146; 207 52; 208 20; 209 6; 
210 1; 211 2; 214 1; 215 4; 216 14; 
217 40; 218 75; 219 80; 220 83; 221 26; 
222 9; 223 5; 224 12; 225 2; 228 1; 
229 5; 230 10; 231 20; 232 18; 233 19; 
234 12; 235 7; 236 15; 237 114; 238 22; 
239 5; 240 1; 241 1; 242 7; 243 9; 
244 5; 245 20; 246 24; 247 80; 248 88; 
249 52; 250 104; 251 29; 252 263; 253 49; 
254 6; 255 1; 257 1; 259 2; 260 2; 
261 8; 262 21; 263 18; 264 37; 265 19; 
266 8; 267 4; 273 1; 274 1; 275 6; 
276 7; 277 34; 278 51; 279 23; 280 815; 
281 164; 282 20; 283 2; 289 2; 290 17; 
291 35; 292 83; 293 63; 294 13; 295 1; 
305 10; 306 4; 307 2; 318 1; 319 7; 
320 92; 321 999; 322 226; 323 28; 324 2; 
335 1; 348 1; 349 25; 350 322; 351 79; 
352 11; 353 1; 
