Name: 3,4-Ethylenedioxyamphetamine
InChIKey: HDECLNXLHDXDKE-UHFFFAOYSA-N
Formula: C11H15NO2
MW: 193
ExactMass: 193.110279
CASNO: 15033677
ID: 5101
Comment: DEA North Central Lab (TAD)
Num Peaks: 75
40 7; 41 9; 42 34; 43 12; 44 999; 
45 26; 47 1; 50 9; 51 44; 52 9; 
53 9; 54 3; 55 7; 56 3; 57 2; 
62 4; 63 16; 64 7; 65 73; 66 33; 
67 10; 68 1; 70 3; 74 2; 75 2; 
76 3; 77 52; 78 11; 79 8; 80 5; 
82 11; 87 1; 89 9; 90 3; 91 18; 
92 6; 93 9; 94 74; 95 7; 96 1; 
102 1; 103 5; 104 2; 105 12; 106 6; 
107 4; 108 1; 115 1; 116 1; 117 1; 
118 1; 119 2; 120 3; 121 6; 122 6; 
123 25; 124 2; 131 4; 132 1; 133 1; 
134 3; 135 9; 136 3; 149 68; 150 453; 
151 46; 152 3; 162 1; 175 1; 176 2; 
177 3; 178 7; 191 1; 192 2; 193 6; 
