Name: N-Isopropylcathinone
InChIKey: LWRDNIQTNMVTBK-UHFFFAOYSA-N
Synon: Isopropylcathinone
Formula: C12H17NO
MW: 191
ExactMass: 191.131014
CASNO: 0
ID: 5102
Comment: DEA North Central Lab (TAD)
Num Peaks: 58
40 3; 41 54; 42 67; 43 69; 44 862; 
45 23; 50 20; 51 74; 52 7; 53 3; 
54 2; 55 8; 56 17; 57 4; 58 6; 
62 1; 63 3; 65 2; 68 4; 69 1; 
70 39; 71 6; 74 5; 75 5; 76 9; 
77 173; 78 19; 79 9; 84 15; 86 999; 
87 60; 88 2; 89 2; 90 1; 91 5; 
102 1; 103 6; 104 3; 105 102; 106 12; 
107 1; 115 4; 116 1; 117 8; 118 1; 
130 2; 131 2; 132 40; 133 13; 134 9; 
146 1; 148 2; 158 2; 160 1; 176 10; 
177 1; 190 1; 192 1; 
