Name: 3,4-Methylenedioxyephedrine
InChIKey: UTQJWINJHRNLMS-UHFFFAOYSA-N
Formula: C11H15NO3
MW: 209
ExactMass: 209.105193
CASNO: 878888438
ID: 5103
Comment: DEA North Central Lab (TAD)
Num Peaks: 83
40 3; 41 8; 42 23; 43 19; 44 13; 
50 6; 51 10; 52 4; 53 9; 54 2; 
55 6; 56 40; 57 8; 58 999; 59 50; 
60 1; 61 1; 62 7; 63 24; 64 8; 
65 88; 66 11; 67 2; 68 1; 70 1; 
71 1; 74 3; 75 4; 76 4; 77 15; 
78 4; 79 3; 80 1; 81 1; 88 1; 
89 3; 90 1; 91 16; 92 5; 93 77; 
94 9; 95 2; 97 1; 102 2; 103 5; 
104 4; 105 3; 106 1; 107 2; 117 2; 
118 5; 119 8; 120 2; 121 24; 122 11; 
123 9; 130 1; 131 4; 132 5; 133 1; 
134 1; 135 10; 136 1; 146 7; 147 3; 
148 2; 149 44; 150 19; 151 23; 152 4; 
160 5; 161 2; 162 4; 163 1; 175 1; 
176 2; 177 2; 178 1; 190 5; 191 2; 
192 2; 209 3; 210 1; 
