Name: 3,4-Methylenedioxyethylcathinone
InChIKey: MJEMIOXXNCZZFK-UHFFFAOYSA-N
Formula: C12H15NO3
MW: 221
ExactMass: 221.105193
CASNO: 1112937640
ID: 5104
Comment: DEA North Central Lab (TAD)
Num Peaks: 51
40 1; 41 5; 42 35; 43 8; 44 231; 
45 6; 50 4; 51 7; 52 1; 53 8; 
54 2; 55 5; 56 25; 57 3; 61 3; 
62 16; 63 49; 64 7; 65 59; 66 4; 
68 1; 70 16; 72 999; 73 50; 74 4; 
75 1; 76 1; 77 3; 78 1; 79 2; 
89 2; 90 1; 91 26; 92 4; 93 2; 
103 1; 118 1; 119 7; 120 5; 121 48; 
122 7; 135 10; 136 1; 146 1; 147 2; 
148 2; 149 60; 150 6; 176 2; 177 2; 
178 4; 
