Name: N-Propylcathinone
InChIKey: GXPFWFAQFTVCDU-UHFFFAOYSA-N
Synon: N-n-Propylcathinone
Synon: Propylcathinone
Synon: 1-Phenyl-2-(propylamino)propan-1-one
Formula: C12H17NO
MW: 191
ExactMass: 191.131014
CASNO: 52597145
ID: 5106
Comment: DEA North Central Lab (TAD)
Num Peaks: 55
40 2; 41 49; 42 33; 43 61; 44 453; 
45 12; 50 15; 51 55; 52 5; 53 2; 
54 3; 55 7; 56 37; 57 14; 58 8; 
62 1; 63 2; 65 2; 68 2; 70 15; 
71 1; 74 4; 75 3; 76 7; 77 133; 
78 14; 79 7; 84 10; 86 999; 87 62; 
88 1; 89 2; 90 1; 91 16; 92 1; 
102 1; 103 5; 104 2; 105 69; 106 7; 
115 3; 116 1; 117 4; 118 1; 130 1; 
131 1; 132 11; 133 7; 134 13; 135 1; 
146 1; 148 1; 162 4; 176 1; 192 1; 
