Name: 2,5-Dimethoxyphenylnitrostyrene
InChIKey: IRRZIWHEPWPPJF-WAYWQWQTSA-N
Formula: C10H11NO4
MW: 209
ExactMass: 209.068808
CASNO: 0
ID: 534
Comment: DEA SWL
Num Peaks: 85
40 27; 41 48; 44 70; 50 149; 51 328; 
52 58; 53 129; 54 69; 55 57; 59 6; 
61 11; 62 136; 63 259; 64 98; 65 216; 
66 68; 67 19; 68 24; 69 41; 74 79; 
75 76; 76 143; 77 610; 78 138; 79 234; 
80 51; 81 20; 82 37; 85 66; 86 15; 
87 37; 88 37; 89 216; 90 132; 91 286; 
92 166; 93 58; 94 37; 95 101; 98 19; 
102 21; 103 122; 104 50; 105 316; 106 101; 
107 95; 108 92; 109 63; 110 38; 111 72; 
116 19; 117 21; 118 123; 119 251; 120 141; 
121 107; 122 21; 123 76; 131 35; 133 759; 
134 128; 135 126; 136 46; 137 33; 138 14; 
146 5; 147 601; 148 583; 149 106; 150 102; 
151 52; 152 9; 161 76; 162 688; 163 110; 
164 34; 165 13; 166 33; 177 59; 178 70; 
179 6; 194 6; 207 6; 209 999; 210 133; 
