Name: Harmalol
InChIKey: RHVPEFQDYMMNSY-UHFFFAOYSA-N
Formula: C12H12N2O
MW: 200
ExactMass: 200.094963
CASNO: 525575
ID: 543
Comment: DEA SWL
Num Peaks: 92
41 11; 42 21; 44 3; 50 27; 51 62; 
52 30; 53 22; 54 24; 55 24; 56 17; 
58 13; 59 5; 61 7; 62 23; 63 77; 
64 25; 65 31; 66 12; 68 6; 70 16; 
72 13; 73 28; 74 21; 75 32; 76 33; 
77 72; 78 32; 79 7; 80 6; 85 52; 
87 11; 88 13; 89 63; 90 22; 91 89; 
92 11; 93 10; 99 39; 100 85; 101 22; 
102 34; 103 37; 104 19; 105 15; 113 12; 
114 19; 115 82; 116 41; 117 42; 118 17; 
119 5; 126 7; 127 69; 128 33; 129 19; 
130 41; 131 48; 132 15; 133 12; 140 21; 
141 23; 142 26; 143 35; 144 60; 145 22; 
146 34; 152 10; 153 8; 154 29; 155 28; 
156 25; 157 15; 158 20; 159 105; 160 20; 
168 6; 169 26; 170 152; 171 119; 172 159; 
173 46; 174 6; 182 7; 183 5; 184 15; 
185 24; 197 25; 198 80; 199 999; 200 819; 
201 99; 202 6; 
