Name: Anastrozole
Synon: Arimidex
InChIKey: YBBLVLTVTVSKRW-UHFFFAOYSA-N
Formula: C17H19N5
MW: 293
ExactMass: 293.164045
CASNO: 120511731
ID: 546
Comment: DEA SWL
Num Peaks: 161
41 121; 42 24; 43 5; 50 14; 51 51; 
52 25; 53 29; 54 11; 55 54; 56 9; 
57 3; 58 3; 61 1; 62 11; 63 54; 
64 22; 65 33; 66 11; 67 4; 68 24; 
69 7; 70 848; 71 32; 72 1; 74 8; 
75 32; 76 31; 77 70; 78 25; 79 8; 
80 2; 81 1; 82 15; 83 2; 84 9; 
85 3; 86 3; 87 9; 88 14; 89 45; 
90 23; 91 59; 92 9; 93 1; 97 3; 
98 4; 99 5; 100 8; 101 28; 102 43; 
103 46; 104 18; 105 9; 111 2; 112 3; 
113 23; 114 39; 115 283; 116 113; 117 35; 
118 7; 119 2; 125 10; 126 24; 127 120; 
128 150; 129 121; 130 56; 131 36; 132 4; 
137 1; 138 6; 139 42; 140 167; 141 131; 
142 160; 143 49; 144 20; 145 4; 150 2; 
151 14; 152 51; 153 95; 154 102; 155 86; 
156 248; 157 67; 158 20; 159 2; 164 9; 
165 19; 166 79; 167 88; 168 74; 169 30; 
170 21; 171 17; 172 4; 177 3; 178 10; 
179 27; 180 25; 181 30; 182 89; 183 40; 
184 29; 185 9; 186 2; 190 1; 191 3; 
192 13; 193 44; 194 51; 195 36; 196 40; 
197 85; 198 47; 199 12; 200 1; 205 1; 
206 4; 207 16; 208 22; 209 999; 210 204; 
211 24; 212 18; 213 3; 221 2; 222 4; 
223 175; 224 233; 225 240; 226 45; 227 4; 
234 1; 235 2; 236 2; 237 1; 238 11; 
239 8; 240 2; 249 2; 250 3; 251 18; 
252 5; 253 6; 260 1; 261 1; 265 36; 
266 111; 267 20; 268 2; 276 1; 277 2; 
278 27; 279 5; 292 77; 293 169; 294 32; 
295 2; 
