Name: 1-Methyl-3-Phenylpiperazine
InChIKey: IRMBVBDXXYXPEW-UHFFFAOYSA-N
Formula: C11H16N2
MW: 176
ExactMass: 176.131349
CASNO: 5271272
ID: 548
Comment: DEA SWL
Num Peaks: 63
40 6; 41 9; 42 97; 43 94; 44 43; 
45 13; 50 12; 51 35; 52 10; 53 4; 
54 11; 55 3; 56 12; 57 9; 58 999; 
59 35; 62 3; 63 13; 64 5; 65 14; 
68 4; 70 8; 71 14; 73 19; 74 8; 
75 4; 76 12; 77 82; 78 43; 79 16; 
81 3; 83 3; 89 21; 90 10; 91 50; 
95 4; 98 6; 101 3; 102 9; 103 58; 
104 236; 105 98; 106 10; 107 6; 116 8; 
117 25; 118 37; 119 7; 128 3; 130 17; 
131 17; 132 66; 133 6; 134 5; 144 7; 
146 3; 147 10; 156 4; 159 4; 161 4; 
174 3; 176 45; 177 5; 
