Name: Trenbolone Enanthate
InChIKey: HGSFRISGULOJBX-UHFFFAOYSA-N
Formula: C25H34O3
MW: 382
ExactMass: 382.250795
CASNO: 0
ID: 562
Comment: DEA SWL
Num Peaks: 175
41 130; 42 33; 43 372; 44 17; 45 8; 
51 3; 53 16; 55 100; 56 18; 57 62; 
58 4; 59 3; 60 16; 63 5; 65 11; 
66 3; 67 17; 68 7; 69 32; 70 4; 
71 6; 73 12; 76 3; 77 36; 78 10; 
79 26; 80 5; 81 25; 82 5; 83 24; 
84 6; 85 80; 86 7; 87 3; 89 8; 
91 74; 92 7; 93 14; 95 14; 96 3; 
97 3; 98 2; 102 5; 103 15; 104 10; 
105 37; 106 7; 107 8; 109 3; 110 2; 
111 3; 113 147; 114 14; 115 70; 116 20; 
117 33; 118 8; 119 13; 121 2; 126 4; 
127 22; 128 98; 129 81; 130 15; 131 32; 
132 8; 133 13; 134 2; 135 3; 139 10; 
141 121; 142 63; 143 63; 144 16; 145 20; 
146 4; 147 11; 148 2; 151 6; 152 50; 
153 83; 154 56; 155 103; 156 35; 157 24; 
158 4; 159 7; 160 11; 161 7; 162 9; 
163 3; 165 81; 166 41; 167 87; 168 40; 
169 75; 170 37; 171 19; 172 6; 173 6; 
174 4; 176 2; 177 4; 178 33; 179 38; 
180 16; 181 63; 182 34; 183 46; 184 23; 
185 19; 186 7; 187 3; 188 4; 189 4; 
190 2; 191 9; 192 7; 193 20; 194 11; 
195 57; 196 33; 197 91; 198 75; 199 60; 
200 16; 201 2; 202 2; 203 7; 204 2; 
205 6; 207 11; 208 10; 209 56; 210 75; 
211 58; 212 30; 213 184; 214 186; 215 31; 
216 3; 218 2; 219 2; 220 3; 221 3; 
222 5; 223 32; 224 74; 225 55; 226 26; 
227 38; 228 7; 232 3; 233 5; 234 2; 
235 5; 237 69; 238 22; 239 4; 240 2; 
241 9; 242 141; 243 28; 252 999; 253 233; 
254 33; 255 17; 256 3; 268 2; 270 277; 
271 55; 272 5; 382 107; 383 24; 384 3; 
