Name: Boldenone Benzoate
Synon: Dehydrotestosterone benzoate
InChIKey: QYOIZDDZJSQWGQ-UHFFFAOYSA-N
Formula: C26H30O3
MW: 390
ExactMass: 390.219496
CASNO: 0
ID: 568
Comment: DEA SWL
Num Peaks: 157
40 2; 41 28; 42 2; 43 9; 45 1; 
50 7; 51 35; 52 5; 53 14; 54 2; 
55 35; 56 2; 57 3; 63 3; 65 17; 
66 4; 67 24; 68 2; 69 6; 71 1; 
73 1; 74 1; 75 2; 77 307; 78 30; 
79 46; 80 8; 81 23; 82 4; 83 2; 
89 2; 91 128; 92 27; 93 50; 94 11; 
95 12; 96 1; 97 2; 98 1; 102 2; 
103 14; 105 999; 106 84; 107 45; 108 50; 
109 41; 110 7; 111 1; 115 27; 116 11; 
117 28; 118 9; 119 37; 120 13; 121 153; 
122 658; 123 63; 124 5; 127 7; 128 24; 
129 24; 130 11; 131 40; 132 19; 133 69; 
134 54; 135 22; 136 14; 137 2; 139 1; 
141 11; 142 6; 143 13; 144 11; 145 41; 
146 32; 147 171; 148 28; 149 4; 150 1; 
151 2; 152 2; 153 5; 154 2; 155 6; 
156 3; 157 12; 158 12; 159 35; 160 34; 
161 34; 162 6; 163 1; 165 6; 166 2; 
167 3; 168 2; 169 4; 170 2; 171 11; 
172 7; 173 23; 174 8; 175 4; 176 1; 
177 1; 178 1; 179 2; 180 1; 181 3; 
182 2; 183 6; 184 2; 185 8; 186 5; 
187 5; 188 1; 189 1; 193 1; 194 1; 
195 2; 196 1; 197 4; 198 3; 199 5; 
200 3; 207 3; 208 1; 209 2; 210 2; 
211 6; 212 3; 213 3; 214 1; 223 1; 
224 1; 225 8; 226 4; 227 6; 228 1; 
235 2; 239 4; 240 5; 241 2; 250 1; 
251 3; 252 2; 253 14; 254 2; 267 2; 
268 22; 269 9; 270 1; 281 1; 390 9; 
391 4; 392 1; 
