Name: 4-Phosphoryl-diethyltryptamine
Synon: 4-Phosphoryl-DET
InChIKey: AAVKQQUBPHSCML-UHFFFAOYSA-N
Formula: C14H21N2O4P
MW: 312
ExactMass: 312.123894
CASNO: 0
ID: 576
Comment: DEA SWL
Num Peaks: 85
40 1; 41 4; 42 17; 43 6; 44 5; 
50 1; 51 6; 52 3; 53 1; 54 2; 
55 1; 56 18; 57 5; 58 77; 59 2; 
62 1; 63 10; 64 4; 65 12; 66 1; 
70 3; 71 3; 72 4; 74 2; 75 3; 
76 3; 77 15; 78 7; 79 1; 80 1; 
84 4; 86 999; 87 56; 88 2; 89 17; 
90 15; 91 16; 92 2; 93 1; 101 2; 
102 7; 103 9; 104 7; 105 2; 109 2; 
113 3; 114 2; 115 20; 116 10; 117 33; 
118 26; 119 2; 120 1; 128 6; 129 4; 
130 33; 131 11; 132 5; 133 4; 134 1; 
140 3; 141 2; 142 2; 143 2; 144 2; 
145 5; 146 81; 147 10; 148 1; 156 1; 
157 3; 158 7; 159 30; 160 25; 161 3; 
171 1; 172 1; 173 1; 174 1; 185 1; 
202 1; 215 1; 232 102; 233 15; 234 1; 
