Name: 3-Hydroxy-N-methylphenethylamine
Synon: Reduced phenylephrine
InChIKey: ZEWFJYYLEOBCNY-UHFFFAOYSA-N
Formula: C9H13NO
MW: 151
ExactMass: 151.099714
CASNO: 0
ID: 577
Comment: DEA SWL
Num Peaks: 58
40 4; 41 6; 42 43; 43 13; 44 999; 
45 26; 50 8; 51 19; 52 10; 53 16; 
54 1; 55 8; 56 5; 57 2; 61 1; 
62 4; 63 14; 64 4; 65 17; 66 5; 
67 2; 68 1; 74 1; 75 2; 76 1; 
77 61; 78 16; 79 9; 80 3; 81 3; 
89 5; 90 3; 91 20; 92 2; 93 2; 
94 4; 102 1; 103 4; 104 1; 105 2; 
106 3; 107 35; 108 9; 109 2; 117 1; 
118 1; 119 2; 120 7; 121 6; 122 1; 
132 3; 133 4; 134 3; 135 2; 148 5; 
149 4; 150 2; 151 8; 
