Name: Testosterone Caproate
InChIKey: WIGTZVOQGIFMAV-UHFFFAOYSA-N
Formula: C25H38O3
MW: 386
ExactMass: 386.282095
CASNO: 0
ID: 579
Comment: DEA SWL / SWGDRUG Monograph available
Num Peaks: 245
40 8; 41 177; 42 55; 43 553; 44 21; 
45 9; 50 1; 51 7; 52 5; 53 47; 
54 10; 55 240; 56 24; 57 23; 58 3; 
59 2; 60 23; 61 1; 63 2; 64 1; 
65 33; 66 15; 67 150; 68 18; 69 72; 
70 13; 71 311; 72 15; 73 18; 74 1; 
75 1; 77 127; 78 34; 79 231; 80 40; 
81 144; 82 19; 83 35; 84 3; 85 6; 
86 5; 87 6; 89 3; 90 3; 91 281; 
92 51; 93 200; 94 79; 95 180; 96 32; 
97 68; 98 8; 99 671; 100 44; 101 8; 
102 4; 103 23; 104 18; 105 242; 106 56; 
107 184; 108 57; 109 155; 110 32; 111 55; 
112 5; 113 3; 114 3; 115 43; 116 19; 
117 96; 118 34; 119 154; 120 57; 121 134; 
122 100; 123 195; 124 999; 125 108; 126 9; 
127 7; 128 33; 129 56; 130 22; 131 169; 
132 57; 133 182; 134 159; 135 98; 136 54; 
137 79; 138 28; 139 3; 141 19; 142 20; 
143 56; 144 67; 145 146; 146 284; 147 787; 
148 192; 149 123; 150 22; 151 11; 152 4; 
153 6; 154 4; 155 20; 156 16; 157 50; 
158 36; 159 92; 160 48; 161 80; 162 50; 
163 39; 164 16; 165 27; 166 5; 167 7; 
168 4; 169 17; 170 11; 171 44; 172 44; 
173 54; 174 43; 175 39; 176 22; 177 22; 
178 3; 179 4; 180 2; 181 11; 182 4; 
183 16; 184 11; 185 163; 186 54; 187 47; 
188 21; 189 23; 190 6; 191 3; 192 1; 
193 1; 194 1; 195 9; 196 8; 197 17; 
198 7; 199 40; 200 29; 201 25; 202 9; 
203 11; 204 2; 205 1; 208 1; 209 8; 
210 6; 211 15; 212 7; 213 87; 214 23; 
215 18; 216 5; 217 5; 218 2; 219 1; 
221 1; 222 1; 223 5; 224 7; 225 9; 
226 12; 227 59; 228 242; 229 74; 230 207; 
231 48; 232 6; 236 1; 237 20; 238 4; 
239 3; 240 1; 241 13; 242 20; 243 18; 
244 12; 245 50; 246 22; 247 4; 251 7; 
252 28; 253 38; 254 9; 255 44; 256 8; 
257 2; 258 1; 259 4; 260 33; 261 6; 
262 3; 263 3; 264 1; 268 1; 269 11; 
270 85; 271 63; 272 13; 273 63; 274 11; 
275 1; 281 1; 286 1; 287 18; 288 118; 
289 24; 290 4; 301 29; 302 15; 303 4; 
304 2; 315 1; 326 3; 329 1; 330 2; 
343 3; 344 88; 345 20; 346 2; 357 1; 
358 4; 359 1; 368 3; 369 1; 371 10; 
372 4; 385 1; 386 119; 387 32; 388 6; 
