Name: 3-Methoxymethamphetamine
InChIKey: USQWRDRXXKZFDI-UHFFFAOYSA-N
Formula: C11H17NO
MW: 179
ExactMass: 179.131014
CASNO: 0
ID: 584
Comment: DEA SWL
Num Peaks: 70
40 2; 41 10; 42 29; 43 12; 44 3; 
50 6; 51 15; 52 11; 53 5; 54 2; 
55 3; 56 49; 57 13; 58 999; 59 39; 
62 3; 63 13; 64 6; 65 22; 66 2; 
67 1; 70 1; 71 1; 74 2; 75 2; 
76 3; 77 33; 78 42; 79 10; 80 2; 
82 2; 89 13; 90 5; 91 48; 92 7; 
93 2; 94 3; 102 2; 103 6; 104 4; 
105 5; 106 5; 107 4; 108 5; 109 1; 
115 8; 116 2; 117 6; 118 3; 119 2; 
120 3; 121 46; 122 8; 123 4; 130 1; 
131 2; 132 6; 133 3; 134 4; 135 1; 
146 1; 147 3; 148 5; 149 4; 162 4; 
163 1; 164 11; 165 1; 177 1; 178 3; 
