Name: trans-Cinnamoylcocaine
InChIKey: MQIXMJWNEKUAOZ-DHZHZOJOSA-N
Formula: C19H23NO4
MW: 329
ExactMass: 329.162708
CASNO: 0
ID: 585
Comment: DEA SWL / NIDA lot 2173-1022-119C
Num Peaks: 144
40 4; 41 38; 42 163; 43 10; 44 26; 
45 6; 50 12; 51 46; 52 11; 53 28; 
54 18; 55 58; 56 27; 57 40; 58 8; 
59 42; 60 1; 61 1; 62 2; 63 9; 
64 2; 65 21; 66 10; 67 43; 68 48; 
69 14; 70 24; 71 6; 72 2; 73 1; 
74 6; 75 10; 76 18; 77 211; 78 22; 
79 28; 80 28; 81 102; 82 999; 83 470; 
84 57; 85 5; 86 1; 87 3; 89 1; 
91 52; 92 9; 93 35; 94 402; 95 52; 
96 551; 97 132; 98 12; 99 3; 100 4; 
101 6; 102 63; 103 272; 104 29; 105 5; 
106 7; 107 14; 108 48; 109 9; 110 23; 
111 4; 112 1; 113 2; 114 4; 115 4; 
116 1; 117 5; 118 6; 119 29; 120 23; 
121 8; 122 77; 123 14; 124 11; 125 4; 
126 24; 127 3; 128 3; 129 2; 130 3; 
131 267; 132 28; 133 4; 134 3; 135 7; 
136 2; 137 1; 138 9; 139 2; 140 14; 
141 2; 142 2; 143 1; 144 1; 147 23; 
148 18; 149 3; 150 15; 151 3; 152 41; 
153 7; 154 32; 155 23; 156 4; 157 2; 
165 4; 166 31; 167 3; 168 64; 169 8; 
170 3; 179 2; 180 17; 181 22; 182 520; 
183 58; 184 9; 185 1; 186 1; 194 24; 
195 3; 196 1; 198 56; 199 6; 210 1; 
212 1; 226 7; 227 1; 238 60; 239 7; 
240 1; 252 1; 270 7; 271 1; 298 22; 
299 3; 329 60; 330 12; 331 2; 
