Name: Testosterone Valerate
InChIKey: UCNQPYVHDCHENM-UHFFFAOYSA-N
Formula: C24H36O3
MW: 372
ExactMass: 372.266445
CASNO: 0
ID: 590
Comment: DEA SWL
Num Peaks: 226
40 10; 41 345; 42 33; 43 86; 44 5; 
45 8; 50 2; 51 10; 52 8; 53 69; 
54 13; 55 292; 56 36; 57 807; 58 38; 
59 7; 60 21; 61 1; 63 3; 64 2; 
65 42; 66 18; 67 149; 68 16; 69 42; 
70 3; 71 10; 72 1; 73 8; 74 1; 
75 2; 77 154; 78 37; 79 255; 80 40; 
81 157; 82 19; 83 44; 84 1; 85 885; 
86 55; 87 6; 89 3; 91 319; 92 54; 
93 216; 94 86; 95 180; 96 34; 97 66; 
98 6; 99 4; 101 4; 102 4; 103 32; 
104 25; 105 258; 106 64; 107 200; 108 63; 
109 159; 110 38; 111 54; 112 5; 113 3; 
114 1; 115 44; 116 19; 117 91; 118 37; 
119 168; 120 64; 121 137; 122 104; 123 197; 
124 999; 125 114; 126 8; 127 9; 128 33; 
129 54; 130 24; 131 164; 132 58; 133 179; 
134 163; 135 95; 136 53; 137 82; 138 28; 
139 5; 141 19; 142 19; 143 52; 144 68; 
145 136; 146 275; 147 751; 148 183; 149 116; 
150 21; 151 12; 152 5; 153 7; 154 5; 
155 18; 156 12; 157 48; 158 35; 159 86; 
160 44; 161 69; 162 46; 163 37; 164 14; 
165 26; 166 5; 167 6; 168 3; 169 14; 
170 10; 171 39; 172 36; 173 44; 174 39; 
175 33; 176 22; 177 17; 178 4; 179 4; 
180 2; 181 7; 182 4; 183 14; 184 8; 
185 143; 186 43; 187 39; 188 19; 189 22; 
190 6; 191 1; 192 1; 193 3; 194 1; 
195 8; 196 5; 197 15; 198 6; 199 33; 
200 24; 201 20; 202 8; 203 12; 204 3; 
205 1; 209 6; 210 5; 211 15; 212 7; 
213 78; 214 22; 215 13; 216 5; 217 5; 
218 2; 223 4; 224 5; 225 7; 226 11; 
227 42; 228 204; 229 61; 230 165; 231 40; 
232 5; 237 18; 238 4; 239 1; 241 10; 
242 14; 243 13; 244 9; 245 39; 246 21; 
247 3; 248 5; 249 4; 251 6; 252 23; 
253 32; 254 6; 255 39; 256 8; 257 1; 
259 3; 260 20; 261 4; 268 1; 269 8; 
270 58; 271 39; 272 7; 273 45; 274 12; 
287 45; 288 103; 289 22; 290 4; 301 2; 
312 2; 315 2; 316 1; 330 95; 331 23; 
332 3; 343 1; 344 5; 345 1; 354 3; 
355 2; 357 12; 358 3; 372 131; 373 34; 
374 5; 
