Name: HU-210
Synon: (6aR,10aR)-3-(1,1'-dimethylheptyl)-6a,7,10,10a-tetrahydro-1-hydroxy-6,6-dimethyl-6H-dibenzo[b,d]pyran-9-methanol
InChIKey: SSQJFGMEZBFMNV-WOJBJXKFSA-N
Formula: C25H38O3
MW: 386
ExactMass: 386.282095
CASNO: 112830952
ID: 595
Comment: DEA SWL
Num Peaks: 144
36 41; 39 90; 40 30; 41 651; 42 58; 
43 999; 44 81; 45 26; 53 53; 55 433; 
56 42; 57 329; 59 54; 65 54; 67 145; 
69 254; 71 227; 73 55; 77 134; 78 35; 
79 233; 80 15; 81 79; 83 72; 85 142; 
87 19; 91 283; 92 37; 93 127; 94 18; 
95 86; 96 66; 97 16; 103 40; 105 214; 
106 36; 107 202; 108 20; 109 82; 115 140; 
116 18; 117 112; 118 20; 119 249; 120 92; 
121 156; 122 16; 123 106; 124 18; 127 75; 
128 83; 129 85; 131 111; 132 53; 133 200; 
134 66; 135 160; 136 21; 137 85; 141 49; 
142 44; 143 42; 145 49; 147 112; 149 182; 
150 15; 151 147; 152 104; 153 44; 154 18; 
155 26; 156 31; 157 42; 158 16; 159 43; 
160 22; 161 100; 163 187; 164 189; 165 99; 
166 31; 167 33; 169 19; 171 17; 173 41; 
174 25; 175 83; 177 70; 178 21; 179 28; 
181 52; 183 35; 185 19; 187 182; 188 37; 
189 45; 191 53; 193 29; 197 55; 199 33; 
201 202; 202 87; 203 30; 207 22; 208 27; 
209 22; 213 29; 214 16; 215 57; 216 19; 
217 109; 218 18; 227 25; 229 32; 241 122; 
242 66; 243 16; 249 60; 253 41; 255 21; 
267 18; 269 128; 281 20; 282 22; 283 53; 
284 112; 285 20; 286 75; 287 286; 288 67; 
300 27; 301 286; 302 938; 303 184; 315 16; 
316 155; 317 17; 325 18; 330 112; 331 18; 
341 18; 344 43; 386 360; 387 114; 
