Name: HU-211
Synon: 3-(1,1'-dimethylheptyl)-6aS,7,10,10aS-tetrahydro-1-hydroxy-6,6-dimethyl-6H-dibenzo[b,d]pyran-9-methanol
Synon: Dexanabinol
InChIKey: SSQJFGMEZBFMNV-PMACEKPBSA-N
Formula: C25H38O3
MW: 386
ExactMass: 386.282095
CASNO: 112924455
ID: 596
Comment: DEA SWL
Num Peaks: 112
39 78; 40 14; 41 590; 42 83; 43 999; 
44 12; 53 84; 55 429; 57 304; 58 23; 
59 27; 65 27; 67 129; 69 196; 71 211; 
73 24; 77 106; 78 62; 79 147; 81 90; 
83 25; 85 105; 91 381; 93 120; 95 113; 
96 77; 103 47; 105 212; 106 37; 107 237; 
109 86; 115 128; 116 30; 117 98; 119 231; 
120 64; 121 139; 123 88; 127 59; 128 121; 
129 106; 131 104; 132 57; 133 134; 134 76; 
135 98; 136 23; 137 39; 143 24; 145 26; 
147 127; 149 167; 150 22; 151 161; 152 92; 
153 54; 154 29; 155 47; 157 23; 161 125; 
163 202; 164 238; 165 129; 169 25; 171 22; 
173 41; 174 23; 175 83; 177 59; 181 63; 
183 25; 187 211; 188 39; 189 66; 191 25; 
193 54; 195 26; 197 31; 199 47; 201 161; 
202 113; 203 63; 207 28; 208 26; 209 31; 
213 69; 217 128; 218 23; 227 45; 241 111; 
242 75; 249 58; 253 28; 268 23; 269 92; 
283 75; 284 82; 285 24; 286 23; 287 292; 
288 27; 301 276; 302 823; 303 216; 316 131; 
325 64; 330 72; 331 25; 344 23; 355 28; 
386 296; 387 103; 
