Name: Phentermine TFA Derivative
InChIKey: PRARTRNWRNYCID-UHFFFAOYSA-N
Formula: C12H14F3NO
MW: 245
ExactMass: 245.102749
CASNO: 0
ID: 603
Comment: DEA SWL
Num Peaks: 78
38 3; 39 47; 40 7; 41 88; 42 99; 
43 6; 44 11; 50 11; 51 35; 52 8; 
53 7; 54 4; 55 9; 56 10; 57 7; 
58 1; 59 240; 60 8; 61 5; 62 5; 
63 24; 64 9; 65 88; 66 8; 69 86; 
70 1; 74 2; 75 2; 76 3; 77 20; 
78 16; 79 5; 81 2; 84 36; 85 2; 
86 1; 87 1; 88 1; 89 26; 90 12; 
91 256; 92 56; 93 4; 94 28; 96 7; 
97 3; 98 3; 102 4; 103 8; 104 7; 
105 7; 106 9; 107 1; 110 3; 114 121; 
115 61; 116 19; 117 89; 118 10; 126 3; 
127 2; 128 5; 129 5; 130 4; 131 12; 
132 194; 133 55; 134 6; 135 1; 138 1; 
143 1; 152 3; 153 5; 154 999; 155 60; 
156 3; 212 1; 230 3; 
