Name: N-Ethylphenethylamine TFA derivative
InChIKey: ZDSRGRBAIXBOER-UHFFFAOYSA-N
Formula: C12H14F3NO
MW: 245
ExactMass: 245.102749
CASNO: 0
ID: 604
Comment: DEA SWL
Num Peaks: 84
38 3; 39 41; 40 3; 41 18; 42 63; 
43 5; 44 3; 46 2; 50 19; 51 52; 
52 13; 53 6; 54 5; 55 4; 56 61; 
57 9; 58 3; 62 6; 63 27; 64 10; 
65 98; 66 6; 69 105; 70 6; 71 1; 
72 1; 74 4; 75 5; 76 8; 77 98; 
78 107; 79 45; 80 3; 84 1; 86 1; 
87 1; 88 1; 89 26; 90 11; 91 244; 
92 22; 93 1; 96 5; 97 15; 98 7; 
101 1; 102 12; 103 70; 104 999; 105 174; 
106 33; 107 1; 110 3; 115 3; 116 2; 
117 8; 118 7; 119 6; 120 1; 124 1; 
125 1; 126 672; 127 23; 128 5; 130 3; 
131 1; 132 6; 133 1; 135 1; 140 2; 
146 2; 147 4; 148 1; 152 1; 153 1; 
154 725; 155 40; 156 2; 158 1; 176 10; 
177 1; 178 8; 245 28; 246 3; 
