Name: Methamphetamine TFA derivative
InChIKey: AXAFMXNUGNZMCK-UHFFFAOYSA-N
Formula: C12H14F3NO
MW: 245
ExactMass: 245.102749
CASNO: 0
ID: 605
Comment: DEA SWL
Num Peaks: 80
38 2; 39 35; 40 3; 41 21; 42 202; 
43 6; 44 1; 47 19; 50 12; 51 29; 
52 8; 53 3; 54 5; 55 5; 56 63; 
57 32; 58 19; 60 1; 62 5; 63 22; 
64 6; 65 71; 66 5; 69 100; 70 3; 
71 2; 74 3; 75 3; 76 4; 77 25; 
78 20; 79 5; 80 17; 84 11; 85 1; 
86 1; 87 1; 88 1; 89 23; 90 9; 
91 205; 92 28; 93 1; 96 1; 97 6; 
98 2; 102 6; 103 14; 104 8; 105 4; 
106 1; 109 1; 110 334; 111 12; 115 44; 
116 13; 117 80; 118 375; 119 53; 120 3; 
128 2; 129 1; 130 3; 131 3; 132 4; 
133 5; 135 1; 140 1; 144 1; 146 2; 
147 2; 148 2; 149 1; 152 2; 153 3; 
154 999; 155 58; 156 3; 158 3; 176 6; 
