Name: Cathinone TPC derivative
InChIKey: DJYSWFQRSKUFOF-NUHJPDEHSA-N
Formula: C16H17F3N2O3
MW: 342
ExactMass: 342.119127
CASNO: 0
ID: 607
Comment: DEA SWL
Num Peaks: 88
40 4; 41 36; 42 18; 43 18; 44 72; 
45 2; 47 1; 50 10; 51 40; 52 4; 
53 22; 54 6; 55 15; 56 5; 63 1; 
64 1; 65 1; 66 2; 67 6; 68 21; 
69 96; 70 44; 71 27; 72 1; 73 3; 
74 3; 75 2; 77 144; 78 20; 79 9; 
80 1; 81 1; 82 1; 89 2; 90 1; 
91 14; 92 2; 94 4; 96 63; 97 9; 
98 26; 99 1; 103 6; 105 200; 106 17; 
107 1; 109 2; 110 1; 112 2; 114 2; 
115 2; 116 6; 117 9; 118 3; 122 1; 
124 2; 126 10; 128 10; 129 1; 130 1; 
132 29; 133 9; 134 2; 136 1; 137 2; 
139 54; 140 3; 146 1; 147 5; 148 6; 
149 5; 150 1; 164 7; 166 999; 167 112; 
168 7; 176 2; 194 188; 195 15; 196 1; 
209 1; 220 6; 227 1; 237 295; 238 31; 
239 2; 257 3; 342 1; 
