Name: Cathine TPC derivative
InChIKey: BAIZLVOLZPKUCN-RDWQBYKPSA-N
Formula: C16H19F3N2O3
MW: 344
ExactMass: 344.134777
CASNO: 0
ID: 608
Comment: DEA SWL
Num Peaks: 125
40 5; 41 51; 42 24; 43 50; 44 379; 
45 10; 46 2; 47 2; 50 8; 51 25; 
52 9; 53 32; 54 14; 55 26; 56 9; 
57 14; 58 1; 62 1; 63 4; 64 2; 
65 6; 66 3; 67 8; 68 33; 69 119; 
70 187; 71 40; 72 3; 73 4; 74 2; 
75 1; 77 122; 78 34; 79 104; 80 8; 
81 3; 82 4; 83 1; 84 3; 85 1; 
89 7; 90 5; 91 42; 92 5; 93 3; 
94 6; 96 77; 97 17; 98 75; 99 6; 
100 1; 102 1; 103 4; 104 4; 105 35; 
106 12; 107 60; 108 6; 109 3; 110 2; 
111 1; 112 7; 113 2; 114 4; 115 23; 
116 11; 117 28; 118 18; 119 4; 122 1; 
123 1; 124 3; 125 1; 126 19; 127 1; 
128 12; 129 1; 130 2; 131 1; 132 4; 
133 8; 134 25; 135 3; 136 1; 137 3; 
139 103; 140 6; 141 13; 142 11; 143 1; 
144 1; 145 1; 146 1; 147 6; 148 7; 
149 5; 150 6; 151 2; 152 1; 160 9; 
161 1; 164 5; 166 999; 167 160; 168 12; 
169 3; 175 2; 177 1; 178 1; 179 2; 
188 1; 194 176; 195 15; 196 2; 209 1; 
210 11; 211 1; 220 2; 229 1; 237 98; 
238 256; 239 26; 240 2; 241 1; 259 3; 
