Name: Reduced Pyrilamine by HI/red P method
InChIKey: PBPMFHCGVZTYHV-UHFFFAOYSA-N
Formula: C9H15N3
MW: 165
ExactMass: 165.126597
CASNO: 0
ID: 617
Comment: DEA SWL / Unconfirmed structure
Num Peaks: 51
40 11; 41 15; 42 101; 43 25; 44 22; 
45 3; 50 8; 51 41; 52 31; 53 9; 
54 5; 55 3; 56 29; 57 20; 58 999; 
59 40; 60 1; 63 1; 64 3; 65 6; 
66 8; 67 16; 68 1; 69 1; 70 11; 
71 257; 72 39; 73 2; 75 1; 76 2; 
77 2; 78 117; 79 32; 80 11; 85 2; 
92 4; 93 5; 94 20; 95 113; 96 6; 
104 1; 105 2; 107 83; 108 6; 119 27; 
120 4; 121 20; 122 2; 133 2; 134 1; 
165 3; 
