Name: Oxazolidine l-ephedrine
InChIKey: SXPWYSNMKUDXOU-JQWIXIFHSA-N
Formula: C13H19NO
MW: 205
ExactMass: 205.146665
CASNO: 0
ID: 621
Comment: DEA SWL
Num Peaks: 89
40 5; 41 32; 42 86; 43 82; 44 13; 
50 11; 51 38; 52 10; 53 4; 54 10; 
55 12; 56 193; 57 18; 58 73; 59 4; 
62 5; 63 22; 64 7; 65 27; 66 3; 
67 1; 68 12; 69 6; 70 21; 71 128; 
72 10; 73 1; 74 4; 75 4; 76 6; 
77 94; 78 25; 79 38; 80 3; 81 1; 
82 3; 84 142; 85 9; 86 1; 88 27; 
89 67; 90 71; 91 140; 92 13; 93 1; 
94 1; 95 9; 96 1; 98 13; 99 415; 
100 31; 101 2; 102 8; 103 25; 104 12; 
105 86; 106 16; 107 14; 108 1; 112 2; 
115 64; 116 29; 117 121; 118 25; 119 27; 
120 4; 128 2; 129 6; 130 39; 131 41; 
132 88; 133 79; 134 8; 143 1; 144 13; 
145 3; 146 62; 147 77; 148 999; 149 114; 
150 6; 158 1; 174 4; 188 5; 190 254; 
191 34; 192 2; 203 1; 205 2; 
