Name: 2-Ethylamino-1-(p-methoxyphenyl)propane
InChIKey: USBWBBAUWVUJLA-UHFFFAOYSA-N
Formula: C12H19NO
MW: 193
ExactMass: 193.146665
CASNO: 0
ID: 623
Comment: DEA SWL / TCI lot AW01
Num Peaks: 71
41 11; 42 28; 43 7; 44 215; 45 5; 
50 4; 51 14; 52 10; 53 5; 54 2; 
55 3; 56 25; 57 4; 58 1; 62 1; 
63 8; 64 3; 65 13; 66 2; 67 1; 
68 1; 70 15; 71 6; 72 999; 73 45; 
74 1; 75 1; 76 2; 77 35; 78 37; 
79 8; 80 1; 89 10; 90 4; 91 27; 
92 4; 93 1; 94 2; 102 1; 103 5; 
104 2; 105 4; 106 5; 107 6; 108 2; 
109 1; 115 5; 116 2; 117 5; 118 3; 
119 4; 120 1; 121 77; 122 14; 123 1; 
130 1; 131 1; 132 2; 133 2; 134 4; 
135 3; 146 1; 147 3; 148 3; 149 9; 
150 1; 162 2; 163 1; 176 1; 178 5; 
192 2; 
