Name: N-(3-Dimethylaminopropyl)indole
InChIKey: VZQZKEYQPBNATK-UHFFFAOYSA-N
Formula: C13H18N2
MW: 202
ExactMass: 202.146998
CASNO: 0
ID: 624
Comment: DEA SWL / ChemService 4036B, lot 55-63U
Num Peaks: 84
40 2; 41 14; 42 60; 43 18; 44 39; 
45 2; 50 6; 51 15; 52 4; 53 2; 
54 2; 55 2; 56 17; 57 14; 58 999; 
59 38; 61 1; 62 7; 63 26; 64 6; 
65 5; 66 1; 68 3; 69 1; 70 13; 
71 12; 72 20; 73 1; 74 3; 75 8; 
76 9; 77 71; 78 8; 79 1; 82 1; 
84 16; 85 5; 86 3; 87 3; 88 4; 
89 59; 90 21; 91 10; 92 1; 101 19; 
102 27; 103 60; 104 23; 105 1; 114 3; 
115 21; 116 48; 117 25; 118 5; 127 4; 
128 30; 129 25; 130 460; 131 722; 132 71; 
133 3; 140 1; 141 2; 142 10; 143 27; 
144 24; 145 4; 154 8; 155 3; 156 118; 
157 32; 158 8; 159 1; 170 1; 171 1; 
185 1; 186 5; 187 1; 199 3; 200 1; 
201 2; 202 460; 203 63; 204 4; 
