Name: 1-(3,4-Methylenedioxyphenyl)-2-Butanone
InChIKey: SWKXHWCUDGJLNA-UHFFFAOYSA-N
Formula: C11H12O3
MW: 192
ExactMass: 192.078644
CASNO: 23023134
ID: 625
Comment: DEA SWL
Num Peaks: 52
40 1; 41 1; 42 2; 43 1; 49 1; 
50 36; 51 150; 52 15; 53 15; 54 1; 
55 5; 57 150; 58 5; 61 2; 62 7; 
63 12; 64 3; 65 9; 66 2; 67 18; 
73 1; 74 8; 75 8; 76 22; 77 195; 
78 31; 79 40; 80 2; 89 4; 90 1; 
91 3; 102 1; 103 2; 104 4; 105 58; 
106 12; 107 2; 115 1; 119 1; 121 1; 
133 2; 134 12; 135 999; 136 121; 137 10; 
147 1; 161 1; 162 1; 191 1; 192 177; 
193 21; 194 2; 
