Name: Methamphetamine Birch By-Product
Synon: CMP
Synon: 1-(1,4-cyclohexadienyl)-2-methylaminopropane
InChIKey: DIMNLUIMZVXIKS-UHFFFAOYSA-N
Formula: C10H17N
MW: 151
ExactMass: 151.1361
CASNO: 0
ID: 627
Comment: DEA SWL
Num Peaks: 60
40 5; 41 29; 42 35; 43 15; 44 11; 
50 6; 51 21; 52 9; 53 13; 54 4; 
55 2; 56 47; 57 16; 58 999; 59 35; 
62 2; 63 9; 64 3; 65 28; 66 4; 
67 3; 68 2; 70 2; 71 1; 72 1; 
74 1; 75 1; 76 2; 77 60; 78 29; 
79 24; 80 4; 81 1; 82 1; 89 5; 
90 2; 91 93; 92 13; 93 6; 94 2; 
95 1; 96 1; 102 1; 103 4; 104 1; 
105 8; 106 1; 108 1; 115 4; 116 1; 
117 3; 118 2; 119 6; 120 1; 132 1; 
133 1; 134 2; 136 1; 148 2; 150 4; 
