Name: Docosatetraenylethanolamide
InChIKey: FMVHVRYFQIXOAF-DOFZRALJSA-N
Synon: DEA
Synon: N-(2-Hydroxyethyl)-7Z,10Z,13Z,16Z-docosatetraenamide
Formula: C24H41NO2
MW: 375
ExactMass: 375.31373
CASNO: 150314355
ID: 656
Comment: Jason Nawyn
Num Peaks: 233
39 130; 40 12; 41 553; 42 97; 43 231; 
44 200; 45 78; 51 15; 52 14; 53 146; 
54 127; 55 583; 56 77; 57 105; 58 11; 
59 14; 60 207; 61 25; 62 999; 63 28; 
65 139; 66 119; 67 823; 68 118; 69 227; 
70 143; 71 35; 72 71; 74 16; 75 15; 
77 362; 78 109; 79 948; 80 463; 81 430; 
82 87; 83 101; 84 30; 85 479; 86 81; 
87 8; 88 37; 90 10; 91 693; 92 163; 
93 553; 94 170; 95 246; 96 63; 97 57; 
98 684; 99 142; 100 17; 102 4; 103 456; 
104 64; 105 355; 106 117; 107 208; 108 55; 
109 84; 110 20; 111 24; 112 75; 113 18; 
114 5; 115 53; 116 387; 117 189; 118 36; 
119 247; 120 98; 121 188; 122 46; 123 25; 
124 93; 125 50; 126 59; 127 14; 128 44; 
129 48; 130 80; 131 128; 132 24; 133 86; 
134 62; 135 119; 136 61; 137 22; 138 72; 
139 25; 140 70; 141 11; 142 22; 143 26; 
144 68; 145 85; 146 25; 147 108; 148 32; 
149 79; 150 128; 151 14; 152 147; 153 29; 
154 38; 155 3; 156 17; 157 20; 158 38; 
159 50; 160 13; 161 112; 162 37; 163 96; 
164 64; 165 18; 166 153; 167 32; 168 9; 
169 5; 170 53; 171 11; 172 14; 173 29; 
174 8; 175 60; 176 54; 177 88; 178 69; 
179 27; 180 108; 181 19; 182 10; 183 8; 
184 26; 185 39; 186 28; 187 23; 188 7; 
189 67; 190 27; 192 93; 193 28; 194 35; 
195 17; 196 10; 197 11; 198 13; 199 8; 
200 7; 201 12; 202 4; 203 112; 204 47; 
205 13; 206 167; 210 16; 211 4; 212 21; 
213 3; 215 10; 217 42; 218 45; 219 19; 
220 117; 221 18; 222 12; 223 3; 224 18; 
225 5; 226 30; 227 3; 229 3; 231 29; 
232 83; 233 8; 234 4; 236 16; 237 8; 
238 12; 240 6; 244 3; 245 13; 246 194; 
247 44; 248 10; 250 19; 251 3; 254 7; 
255 1; 257 3; 258 11; 260 32; 261 5; 
262 9; 264 19; 267 3; 272 53; 273 5; 
274 38; 275 3; 276 7; 277 5; 278 14; 
279 3; 282 20; 283 6; 286 52; 287 7; 
290 26; 300 88; 301 10; 304 7; 307 4; 
313 3; 314 52; 315 24; 316 16; 318 6; 
328 18; 331 12; 332 6; 341 3; 342 3; 
343 6; 344 12; 346 3; 355 3; 356 31; 
357 108; 358 12; 375 19; 
