Name: CP 55,940
Synon: rel-5-(1,1-dimethylheptyl)-2-[(1R,2R,5R)-5-hydroxy-2-(3-hydroxypropyl)cyclohexyl]-phenol
InChIKey: YNZFFALZMRAPHQ-SYYKKAFVSA-N
Formula: C24H40O3
MW: 376
ExactMass: 376.297745
CASNO: 83003127
ID: 657
Comment: Jason Nawyn
Num Peaks: 192
39 11; 40 3; 41 113; 42 11; 43 176; 
45 6; 53 13; 55 110; 56 9; 57 102; 
58 2; 65 6; 66 1; 67 62; 68 7; 
69 60; 70 3; 71 111; 72 4; 75 1; 
77 37; 78 12; 79 99; 80 9; 81 37; 
82 1; 83 23; 84 1; 85 65; 86 5; 
87 2; 89 1; 91 97; 92 16; 93 100; 
94 16; 95 74; 97 29; 98 1; 99 4; 
100 2; 102 4; 103 26; 104 6; 105 55; 
106 11; 107 117; 108 13; 109 12; 113 1; 
114 3; 115 42; 116 13; 117 40; 118 6; 
119 40; 120 25; 121 319; 122 34; 123 6; 
125 14; 127 31; 128 44; 129 38; 130 9; 
131 64; 132 19; 133 144; 134 35; 135 159; 
136 31; 137 38; 138 8; 139 68; 140 4; 
141 21; 142 9; 143 15; 144 31; 145 115; 
146 37; 147 555; 148 155; 149 50; 150 6; 
151 2; 152 4; 153 8; 154 7; 155 11; 
156 5; 157 44; 158 24; 159 67; 160 18; 
161 283; 162 67; 163 19; 164 1; 165 6; 
167 1; 169 5; 170 2; 171 87; 172 51; 
173 88; 174 20; 175 29; 176 6; 178 3; 
179 6; 181 2; 183 4; 184 6; 185 58; 
186 21; 187 284; 188 49; 189 29; 190 9; 
195 2; 197 6; 198 1; 199 42; 200 10; 
201 23; 202 4; 203 9; 205 9; 210 1; 
211 5; 212 3; 213 204; 214 42; 215 19; 
216 1; 217 21; 218 2; 219 114; 220 26; 
221 1; 225 2; 227 31; 228 4; 229 6; 
231 123; 232 30; 233 128; 234 26; 241 4; 
245 20; 246 33; 247 22; 248 1; 255 116; 
256 32; 257 108; 258 18; 259 40; 260 5; 
271 8; 272 207; 273 999; 274 374; 275 66; 
276 6; 284 1; 285 4; 287 7; 288 7; 
289 1; 291 82; 292 21; 297 7; 298 5; 
299 43; 300 25; 301 5; 302 17; 304 204; 
305 47; 306 2; 312 2; 315 12; 316 5; 
329 2; 358 163; 359 41; 360 1; 376 372; 
377 102; 378 14; 
