Name: ALPHA
Synon: 1-amino-1-(3,4-methylenedioxyphenyl)propane
InChIKey: VEOUOCLRLNJOLJ-UHFFFAOYSA-N
Formula: C10H13NO2
MW: 179
ExactMass: 179.094628
CASNO: 0
ID: 659
Comment: ENFSI / NFI/ in-house synthesis; alpha-regioisomer of MDA from 3,4-methyleendioxypropiophenone
Num Peaks: 82
37 1; 38 5; 39 25; 40 3; 41 11; 
42 6; 43 3; 44 1; 46 1; 50 9; 
51 17; 52 12; 53 11; 54 9; 55 4; 
56 17; 57 3; 58 9; 61 2; 62 15; 
63 34; 64 12; 65 133; 66 18; 67 7; 
68 1; 75 51; 76 5; 77 46; 78 13; 
79 8; 80 5; 81 2; 82 1; 86 1; 
87 1; 88 1; 89 6; 90 10; 91 14; 
92 12; 93 200; 94 16; 95 66; 96 4; 
102 2; 103 13; 104 12; 105 8; 106 3; 
107 1; 108 1; 117 2; 118 6; 119 2; 
120 11; 121 16; 122 5; 123 69; 124 4; 
131 7; 132 2; 133 3; 134 1; 135 9; 
136 3; 145 1; 146 1; 147 4; 148 31; 
149 18; 150 999; 151 93; 152 7; 161 5; 
162 16; 163 5; 176 2; 177 1; 178 5; 
179 49; 180 5; 
