Name: N-methyl-3,4-methylenedioxyphenylpropan-3-amine
InChIKey: ZPXKZQIHSNWFNW-UHFFFAOYSA-N
Formula: C11H15NO2
MW: 193
ExactMass: 193.110279
CASNO: 0
ID: 669
Comment: ENFSI / synthesised from 3,4-MDphenylpropanal and methylamine (reduction with NaBH4)
Num Peaks: 91
37 1; 38 5; 39 32; 40 5; 41 13; 
42 39; 43 25; 44 999; 45 35; 49 1; 
50 16; 51 74; 52 14; 53 12; 54 4; 
55 4; 56 26; 57 23; 58 28; 59 1; 
61 1; 62 11; 63 29; 64 9; 65 47; 
66 5; 67 3; 68 4; 70 18; 71 34; 
72 2; 73 1; 74 5; 75 5; 76 9; 
77 106; 78 44; 79 19; 80 3; 87 1; 
88 1; 89 26; 90 7; 91 63; 92 9; 
93 2; 94 1; 95 1; 102 5; 103 25; 
104 59; 105 31; 106 45; 107 5; 108 1; 
115 1; 116 1; 117 2; 118 3; 119 24; 
120 5; 121 11; 122 3; 130 2; 131 57; 
132 47; 133 8; 134 10; 135 161; 136 122; 
137 10; 138 1; 145 1; 146 1; 147 33; 
148 45; 149 15; 150 11; 151 1; 159 1; 
160 1; 161 42; 162 262; 163 31; 164 7; 
176 3; 190 2; 191 2; 193 142; 194 14; 
195 2; 
