Name: 1-Methoxy-4-(2'-nitro-2'propenyl)benzene
InChIKey: HAQWIARONBLZPE-UHFFFAOYSA-N
Formula: C10H11NO3
MW: 193
ExactMass: 193.073894
CASNO: 80255238
ID: 678
Comment: ENFSI
Num Peaks: 17
39 30; 51 80; 63 70; 65 50; 77 149; 
78 100; 91 70; 103 299; 115 180; 121 60; 
131 299; 137 10; 146 999; 167 10; 193 180; 
194 21; 195 2; 
