Name: 1-(3,4-methylenedioxyphenyl)propane-1-ol
InChIKey: PXFYAFDHWSXVLU-UHFFFAOYSA-N
Formula: C10H12O3
MW: 180
ExactMass: 180.078644
CASNO: 0
ID: 687
Comment: ENFSI / reduction of 3,4-methylenedioxypropiophenone (precursor of ALPHA and M-ALPHA)
Num Peaks: 95
37 4; 38 14; 39 102; 40 8; 41 13; 
42 4; 43 13; 44 1; 45 1; 46 1; 
49 2; 50 25; 51 48; 52 15; 53 38; 
54 3; 55 17; 56 1; 57 29; 58 1; 
59 2; 60 1; 61 9; 62 34; 63 90; 
64 29; 65 392; 66 37; 67 10; 68 2; 
69 2; 73 2; 74 15; 75 33; 76 11; 
77 68; 78 21; 79 19; 80 3; 81 4; 
82 2; 86 1; 87 2; 88 1; 89 13; 
90 3; 91 32; 92 13; 93 841; 94 66; 
95 22; 96 1; 101 1; 102 7; 103 30; 
104 23; 105 17; 106 2; 107 8; 108 1; 
109 1; 115 1; 117 1; 118 1; 119 11; 
120 4; 121 77; 122 29; 123 196; 124 15; 
125 1; 131 25; 132 5; 133 5; 134 2; 
135 32; 136 3; 137 3; 138 1; 145 1; 
147 10; 148 9; 149 84; 150 33; 151 999; 
152 93; 153 10; 161 13; 162 46; 163 10; 
164 3; 178 2; 180 246; 181 28; 182 3; 
