Name: 4-Phenylethylpyrimidine
InChIKey: AWSXJRCYZQPTSD-UHFFFAOYSA-N
Formula: C12H12N2
MW: 184
ExactMass: 184.100048
CASNO: 0
ID: 689
Comment: ENFSI / Leuckart impurity 1-M-3-PP synthese
Num Peaks: 83
36 4; 37 7; 38 20; 39 83; 40 14; 
41 13; 42 21; 43 10; 44 63; 45 10; 
46 5; 50 34; 51 110; 52 46; 53 16; 
55 7; 56 5; 58 39; 62 40; 63 93; 
64 32; 65 125; 66 52; 72 66; 73 154; 
74 25; 75 24; 76 18; 77 75; 78 37; 
79 50; 84 13; 85 8; 86 19; 87 11; 
88 25; 89 85; 90 38; 91 318; 92 33; 
97 5; 101 11; 102 29; 103 21; 104 20; 
105 23; 106 115; 107 23; 113 19; 114 35; 
115 649; 116 236; 117 193; 118 18; 126 10; 
127 60; 128 121; 129 107; 130 21; 131 15; 
132 70; 133 4; 140 18; 141 17; 142 82; 
143 523; 144 72; 152 4; 153 5; 154 12; 
155 7; 156 101; 157 43; 168 38; 169 90; 
170 6; 177 67; 181 25; 182 17; 183 437; 
184 999; 185 139; 186 12; 
