Name: N-formyl-1-methyl-3-phenylpropylamine
InChIKey: GUVWLUWNBNQKQA-UHFFFAOYSA-N
Formula: C11H15NO
MW: 177
ExactMass: 177.115364
CASNO: 0
ID: 691
Comment: ENFSI / Leuckart impurity 1-M-3-PP synthese
Num Peaks: 76
38 4; 39 69; 40 12; 41 42; 42 78; 
43 33; 44 337; 45 14; 46 22; 50 31; 
51 91; 52 26; 53 15; 54 20; 55 12; 
56 18; 57 11; 58 174; 59 7; 62 16; 
63 47; 64 14; 65 201; 66 17; 67 4; 
70 10; 72 473; 73 964; 74 45; 75 11; 
76 11; 77 171; 78 100; 79 84; 80 5; 
84 3; 85 31; 86 94; 87 4; 88 3; 
89 50; 90 12; 91 721; 92 96; 93 8; 
102 24; 103 76; 104 99; 105 75; 106 13; 
107 12; 113 3; 114 3; 115 109; 116 40; 
117 999; 118 100; 119 4; 127 4; 128 10; 
129 18; 130 13; 131 99; 132 479; 133 64; 
134 7; 135 4; 136 3; 144 3; 147 2; 
160 2; 162 11; 175 5; 176 5; 177 327; 
178 34; 
