Name: 2,5-Dimethoxythiophenol
InChIKey: SESUUAOAUZDHHP-UHFFFAOYSA-N
Formula: C8H10O2S
MW: 170
ExactMass: 170.040151
CASNO: 0
ID: 699
Comment: ENFSI
Num Peaks: 104
31 4; 37 7; 38 15; 39 92; 40 4; 
41 21; 42 3; 43 6; 44 7; 45 80; 
46 4; 47 16; 48 4; 49 7; 50 34; 
51 74; 52 26; 53 83; 54 43; 55 46; 
56 4; 57 31; 58 28; 59 16; 60 5; 
61 14; 62 18; 63 40; 64 10; 65 68; 
66 9; 67 6; 68 7; 69 46; 70 38; 
71 14; 72 4; 73 7; 74 6; 75 11; 
76 1; 77 18; 78 7; 79 43; 80 9; 
81 15; 82 23; 83 26; 84 49; 85 58; 
86 6; 87 4; 91 2; 92 11; 93 24; 
94 13; 95 67; 96 59; 97 38; 98 10; 
99 13; 101 2; 105 2; 106 2; 107 14; 
108 38; 109 53; 110 9; 111 235; 112 75; 
113 7; 114 4; 119 2; 122 8; 123 116; 
124 35; 125 23; 126 15; 127 109; 128 11; 
129 6; 135 3; 136 1; 137 5; 138 5; 
139 14; 140 9; 141 3; 142 1; 152 2; 
153 11; 154 8; 155 999; 156 87; 157 56; 
158 5; 162 1; 167 7; 168 3; 169 3; 
170 664; 171 66; 172 40; 173 1; 
