Name: 2,5-Dimethoxybenzenesulfonyl chloride
InChIKey: SHELADVIRCCTFN-UHFFFAOYSA-N
Formula: C8H9ClO4S
MW: 236
ExactMass: 235.991008
CASNO: 0
ID: 700
Comment: ENFSI / 2C-T-2 intermediate; J. of the CLIC Assoc., Vol. 9, no.4. October 1999, pp 17-20
Num Peaks: 132
35 2; 36 16; 37 1; 38 7; 39 48; 
40 5; 41 86; 42 4; 43 36; 49 2; 
50 6; 51 29; 52 8; 53 31; 54 2; 
55 20; 56 1; 57 12; 58 2; 59 7; 
61 1; 62 2; 63 10; 64 9; 65 20; 
66 3; 67 10; 68 1; 69 2; 70 2; 
71 4; 74 1; 75 3; 76 7; 77 59; 
78 15; 79 31; 80 2; 81 4; 82 4; 
83 9; 84 5; 85 5; 86 2; 87 2; 
88 1; 89 6; 90 2; 91 50; 92 6; 
93 10; 94 17; 95 8; 97 8; 98 1; 
99 1; 100 1; 101 3; 102 8; 103 13; 
104 7; 105 41; 106 5; 107 2; 108 1; 
113 1; 114 1; 115 69; 116 16; 117 27; 
118 3; 119 58; 120 6; 121 9; 122 2; 
123 1; 125 1; 126 4; 127 39; 128 149; 
129 180; 130 34; 131 52; 132 5; 133 3; 
135 1; 139 46; 140 6; 141 48; 142 42; 
143 71; 144 199; 145 62; 146 8; 147 1; 
149 1; 151 2; 152 12; 153 17; 154 10; 
155 26; 156 28; 157 45; 158 16; 159 999; 
160 139; 161 9; 165 10; 166 1; 167 4; 
168 2; 169 10; 170 59; 171 22; 172 3; 
180 16; 181 1; 182 4; 183 2; 184 3; 
185 82; 186 14; 187 1; 198 1; 199 1; 
200 21; 201 10; 202 2; 236 74; 237 13; 
238 21; 239 3; 
