Name: 4-tert-Butyl-ethylamphetamine
Synon: 4-tB-ethylamphetamine
InChIKey: GLPKXYRWKJNKAU-UHFFFAOYSA-N
Formula: C15H25N
MW: 219
ExactMass: 219.1987
CASNO: 0
ID: 706
Comment: ENFSI / synthesised from N-acetyl-4-tBA and LiAlH
Num Peaks: 76
41 11; 42 10; 43 3; 44 72; 45 1; 
51 2; 52 1; 53 2; 55 2; 56 13; 
57 12; 58 1; 63 2; 64 2; 65 6; 
66 1; 67 2; 70 17; 72 999; 73 48; 
74 1; 76 1; 77 7; 78 4; 79 3; 
81 9; 88 2; 89 4; 90 1; 91 28; 
92 3; 93 1; 95 3; 102 2; 103 6; 
104 5; 105 13; 106 1; 115 27; 116 9; 
117 49; 118 7; 119 5; 120 1; 127 3; 
128 11; 129 6; 130 4; 131 11; 132 19; 
133 6; 134 1; 141 2; 142 1; 143 2; 
144 2; 145 5; 146 2; 147 19; 148 4; 
158 1; 159 7; 160 3; 161 1; 162 2; 
174 1; 175 4; 188 3; 202 4; 203 1; 
204 8; 205 1; 207 1; 217 1; 218 5; 
219 1; 
