Name: N,N-dimethyl-4-tert-butylamphetamine
Synon: N,N-dimethyl-4-tBA
InChIKey: PGZKZVQUKNTNTC-UHFFFAOYSA-N
Formula: C15H25N
MW: 219
ExactMass: 219.1987
CASNO: 0
ID: 707
Comment: ENFSI
Num Peaks: 64
39 7; 40 1; 41 15; 42 26; 43 4; 
44 27; 45 1; 51 4; 52 1; 53 2; 
54 1; 55 5; 56 32; 57 22; 58 6; 
63 2; 64 1; 65 4; 70 15; 71 10; 
72 999; 73 44; 74 1; 75 1; 76 1; 
77 5; 78 3; 79 3; 81 7; 87 1; 
88 2; 89 3; 90 1; 91 20; 92 2; 
102 2; 103 3; 104 4; 105 6; 115 18; 
116 5; 117 30; 118 3; 119 2; 127 2; 
128 5; 129 4; 130 1; 131 6; 132 10; 
133 2; 141 1; 144 1; 145 3; 146 1; 
147 12; 148 2; 159 4; 160 1; 174 1; 
175 1; 188 1; 202 3; 204 2; 
