Name: MDbenzylMDMA
Synon: 1-(1,3-benzodioxol-5-yl)-N-(1,3-benzodioxol-4-ylmethyl)-N-methylpropan-2-amine
InChIKey: ONDPRSNJGYVXQF-UHFFFAOYSA-N
Formula: C19H21NO4
MW: 327
ExactMass: 327.147058
CASNO: 0
ID: 713
Comment: ENFSI / from MDMA and piperonal
Num Peaks: 63
39 5; 41 1; 42 13; 43 1; 44 1; 
50 4; 51 37; 52 4; 53 3; 54 1; 
55 2; 56 15; 57 2; 58 3; 62 1; 
63 5; 64 2; 65 7; 66 1; 67 1; 
75 1; 76 5; 77 111; 78 18; 79 23; 
80 1; 89 3; 90 1; 91 4; 92 1; 
93 1; 96 2; 102 1; 103 5; 104 3; 
105 41; 106 6; 107 1; 117 1; 118 2; 
119 1; 121 2; 122 1; 131 2; 132 1; 
133 3; 135 999; 136 91; 137 8; 146 2; 
147 3; 148 2; 149 2; 160 1; 161 1; 
162 3; 163 3; 164 1; 176 3; 190 4; 
192 386; 193 49; 194 4; 
