Name: 1-(3,4-methylenedioxyphenyl)-1-methoxypropan-2-one
InChIKey: VETFAJGMROKZBZ-UHFFFAOYSA-N
Formula: C11H12O4
MW: 208
ExactMass: 208.073559
CASNO: 0
ID: 718
Comment: ENFSI / PMK impurity (Wacker oxidation)
Num Peaks: 76
37 2; 38 9; 39 21; 40 6; 41 4; 
42 4; 43 54; 44 4; 45 2; 49 1; 
50 27; 51 28; 52 7; 53 16; 54 1; 
55 2; 56 1; 59 1; 61 3; 62 11; 
63 39; 64 19; 65 27; 66 5; 67 1; 
69 1; 73 2; 74 5; 75 6; 76 25; 
77 31; 78 6; 79 28; 80 2; 81 2; 
89 3; 90 1; 91 24; 92 12; 93 3; 
94 1; 95 1; 102 1; 103 1; 104 5; 
105 4; 106 1; 107 25; 108 2; 109 2; 
119 47; 120 9; 121 29; 122 5; 123 1; 
133 2; 134 12; 135 17; 136 4; 147 18; 
148 3; 149 234; 150 284; 151 22; 152 2; 
161 1; 162 7; 163 1; 165 999; 166 90; 
167 11; 177 1; 178 1; 207 2; 208 8; 
209 1; 
