Name: 3-[3,4-Methylenedioxyphenyl]-3-buten-2-one
Synon: 3-(1,3-benzodioxol-5-yl)but-3-en-2-one
InChIKey: QFFMFPGEDLBDRQ-UHFFFAOYSA-N
Formula: C11H10O3
MW: 190
ExactMass: 190.062994
CASNO: 0
ID: 722
Comment: ENFSI / MDMA impurity synthesised from PMK with formaldehyde in glacial acetic acid
Num Peaks: 35
38 2; 39 29; 43 77; 44 13; 50 17; 
51 26; 53 4; 61 3; 62 42; 63 132; 
64 5; 65 17; 73 15; 74 8; 75 1; 
77 17; 86 5; 87 10; 88 7; 89 310; 
90 28; 91 27; 92 10; 103 2; 117 141; 
118 11; 135 33; 145 24; 146 5; 147 999; 
148 107; 149 6; 190 613; 191 75; 192 2; 
