Name: 3,4-Methylenedioxyphenylacetic acid, ethyl ester
InChIKey: AAPLOOSRPPYKGO-UHFFFAOYSA-N
Formula: C11H12O4
MW: 208
ExactMass: 208.073559
CASNO: 0
ID: 724
Comment: ENFSI
Num Peaks: 53
37 1; 38 5; 39 16; 40 1; 42 2; 
43 2; 44 1; 45 1; 49 1; 50 33; 
51 114; 52 11; 53 12; 54 1; 55 2; 
61 1; 62 5; 63 7; 64 2; 65 9; 
66 3; 67 27; 73 1; 74 7; 75 7; 
76 22; 77 143; 78 24; 79 28; 80 2; 
82 1; 90 1; 91 1; 92 1; 93 2; 
104 4; 105 46; 106 10; 107 3; 121 2; 
122 1; 135 999; 136 95; 137 8; 149 2; 
151 1; 162 5; 163 2; 179 4; 180 3; 
208 202; 209 25; 210 3; 
