Name: Piperonyl isopropyl ether
InChIKey: WDSIVDVPIUCFMQ-UHFFFAOYSA-N
Formula: C11H14O3
MW: 194
ExactMass: 194.094295
CASNO: 0
ID: 727
Comment: ENFSI / prepared from piperonyl alcohol and IPA (+conc. H2SO4)
Num Peaks: 82
37 3; 38 9; 39 59; 40 19; 41 58; 
42 14; 43 105; 44 23; 45 5; 50 28; 
51 127; 52 12; 53 22; 55 31; 56 9; 
57 28; 58 3; 61 3; 62 13; 63 27; 
64 14; 65 99; 66 21; 67 12; 68 2; 
69 8; 70 2; 71 15; 72 14; 73 11; 
74 6; 75 6; 76 12; 77 157; 78 51; 
79 30; 80 2; 81 5; 82 3; 83 7; 
84 3; 85 3; 90 10; 91 7; 92 4; 
93 202; 94 28; 95 16; 99 6; 103 2; 
104 4; 105 41; 106 78; 107 11; 109 7; 
110 3; 113 2; 119 2; 121 40; 122 54; 
123 86; 124 3; 125 4; 133 2; 135 999; 
136 405; 137 37; 138 3; 139 2; 147 3; 
149 23; 150 10; 151 96; 152 16; 153 10; 
161 2; 165 2; 176 4; 193 7; 194 185; 
195 24; 196 2; 
