Name: N-acetyl-N-isopropyl-3,4-methylenedioxyamphetamine
Synon: N-Acetyl-N-Isopropyl-MDA
InChIKey: YTBZDHBWMJEJPY-UHFFFAOYSA-N
Formula: C15H21NO3
MW: 263
ExactMass: 263.152143
CASNO: 0
ID: 729
Comment: ENFSI
Num Peaks: 99
38 2; 39 18; 40 4; 41 39; 42 46; 
43 178; 44 345; 45 11; 50 8; 51 51; 
52 8; 53 8; 54 4; 55 6; 56 8; 
57 3; 58 14; 60 2; 62 3; 63 11; 
64 2; 65 12; 66 2; 67 3; 68 5; 
69 4; 70 68; 71 4; 72 5; 73 1; 
74 1; 75 3; 76 7; 77 102; 78 27; 
79 25; 80 3; 81 1; 82 4; 83 1; 
84 14; 85 6; 86 999; 87 60; 88 1; 
89 8; 90 2; 91 11; 92 2; 93 2; 
94 1; 100 4; 101 1; 102 7; 103 28; 
104 27; 105 43; 106 9; 107 4; 110 1; 
114 2; 115 2; 116 1; 117 2; 118 2; 
119 3; 120 2; 121 5; 122 2; 128 230; 
129 21; 130 2; 131 25; 132 13; 133 10; 
134 5; 135 121; 136 17; 137 2; 145 1; 
146 1; 147 7; 148 6; 149 1; 151 1; 
160 1; 161 20; 162 543; 163 76; 164 8; 
165 1; 176 1; 178 9; 179 1; 204 1; 
206 1; 220 1; 221 1; 263 1; 
