Name: 1-methylamino-1-(3,4-methylenedioxyphenyl)ethane
InChIKey: USAUUVXZKYYZIL-UHFFFAOYSA-N
Formula: C10H13NO2
MW: 179
ExactMass: 179.094628
CASNO: 0
ID: 731
Comment: ENFSI
Num Peaks: 80
37 2; 38 8; 39 39; 40 4; 41 16; 
42 358; 43 17; 44 2; 47 1; 50 14; 
51 30; 52 13; 53 18; 54 4; 55 4; 
56 62; 57 17; 58 115; 59 5; 61 4; 
62 16; 63 45; 64 15; 65 78; 66 9; 
67 4; 68 2; 75 5; 76 5; 77 33; 
78 11; 79 10; 80 5; 82 86; 86 1; 
87 1; 89 28; 90 10; 91 109; 92 14; 
93 22; 94 4; 95 6; 102 1; 103 2; 
104 9; 105 5; 106 8; 107 5; 108 1; 
117 3; 118 8; 119 66; 120 13; 121 22; 
122 7; 123 10; 131 1; 132 2; 133 2; 
134 5; 135 14; 136 2; 146 4; 147 26; 
148 40; 149 115; 150 15; 151 4; 162 18; 
163 15; 164 999; 165 105; 166 11; 167 1; 
176 1; 177 1; 178 20; 179 81; 180 9; 
