Name: N-acetyl-1-methylamino-1-(3,4-methylenedioxyphenyl)ethane
InChIKey: HMAVTHHBDAOBTI-UHFFFAOYSA-N
Formula: C12H15NO3
MW: 221
ExactMass: 221.105193
CASNO: 0
ID: 732
Comment: ENFSI
Num Peaks: 105
37 2; 38 8; 39 56; 40 8; 41 28; 
42 211; 43 324; 44 10; 45 2; 50 16; 
51 43; 52 16; 53 22; 54 8; 55 11; 
56 256; 57 17; 58 111; 59 4; 60 1; 
61 3; 62 17; 63 66; 64 19; 65 142; 
66 12; 67 4; 68 2; 72 1; 73 4; 
74 8; 75 5; 76 6; 77 50; 78 15; 
79 13; 81 9; 82 3; 84 13; 86 4; 
87 2; 89 58; 90 17; 91 251; 92 26; 
93 30; 94 5; 95 19; 100 5; 101 1; 
102 2; 103 5; 104 16; 105 10; 106 7; 
107 7; 108 2; 116 1; 117 9; 118 10; 
119 205; 120 30; 121 26; 122 8; 123 13; 
124 1; 131 4; 132 5; 133 3; 134 8; 
135 27; 136 7; 137 1; 145 1; 146 13; 
147 108; 148 294; 149 811; 150 91; 151 9; 
161 2; 162 58; 163 33; 164 999; 165 110; 
166 10; 175 1; 176 15; 177 3; 178 64; 
179 7; 189 4; 190 1; 191 1; 202 3; 
203 1; 204 1; 205 1; 206 75; 207 10; 
208 1; 220 88; 221 444; 222 58; 223 6; 
