Name: N-formyl-N-methyl-3,4-methylenedioxybenzylamine
InChIKey: SXDQYVMCVFUPNA-UHFFFAOYSA-N
Formula: C10H11NO3
MW: 193
ExactMass: 193.073894
CASNO: 0
ID: 735
Comment: ENFSI
Num Peaks: 109
36 2; 37 8; 38 23; 39 77; 40 19; 
41 26; 42 257; 43 20; 44 83; 45 3; 
47 2; 49 4; 50 62; 51 236; 52 39; 
53 47; 54 7; 55 10; 56 7; 57 4; 
58 11; 59 2; 60 1; 61 10; 62 30; 
63 66; 64 28; 65 114; 66 18; 67 30; 
69 1; 70 1; 71 6; 72 12; 74 13; 
75 13; 76 29; 77 260; 78 67; 79 43; 
80 12; 82 52; 83 8; 85 4; 86 2; 
87 2; 88 3; 89 7; 90 7; 91 15; 
92 12; 93 152; 94 16; 95 48; 96 5; 
97 1; 102 3; 103 2; 104 20; 105 78; 
106 72; 107 26; 108 5; 109 2; 110 1; 
116 1; 117 6; 118 9; 119 5; 120 11; 
121 41; 122 37; 123 77; 124 6; 131 1; 
132 2; 133 4; 134 41; 135 999; 136 194; 
137 17; 138 1; 146 9; 147 9; 148 20; 
149 22; 150 149; 151 129; 152 17; 153 2; 
160 3; 161 3; 162 25; 163 24; 164 48; 
165 6; 166 1; 174 5; 175 12; 176 12; 
177 3; 178 79; 179 8; 190 1; 191 1; 
192 75; 193 765; 194 85; 195 8; 
