Name: Isosafrole glycol, diacetyl
Synon: Diacetyl isosafrole glycol
InChIKey: CSPDWJCPNYMPNL-UHFFFAOYSA-N
Formula: C14H16O6
MW: 280
ExactMass: 280.094688
CASNO: 0
ID: 739
Comment: ENFSI
Num Peaks: 92
37 2; 38 8; 39 29; 40 3; 41 4; 
42 9; 43 422; 44 10; 45 3; 49 1; 
50 32; 51 23; 52 5; 53 17; 54 1; 
55 4; 59 1; 60 1; 61 4; 62 18; 
63 56; 64 13; 65 137; 66 12; 67 3; 
69 1; 73 1; 74 11; 75 13; 76 46; 
77 21; 78 5; 79 5; 81 3; 82 1; 
87 1; 89 9; 90 2; 91 40; 92 7; 
93 301; 94 22; 95 9; 102 1; 103 2; 
104 13; 105 6; 106 1; 107 2; 109 1; 
118 1; 119 25; 120 3; 121 40; 122 12; 
123 96; 124 8; 125 1; 126 4; 133 2; 
134 28; 135 25; 136 2; 137 1; 145 1; 
147 56; 148 7; 149 110; 150 50; 151 999; 
152 92; 153 10; 154 1; 159 1; 161 1; 
162 14; 163 2; 165 1; 166 2; 168 1; 
175 2; 177 13; 178 5; 179 3; 180 1; 
189 1; 190 2; 193 177; 194 23; 195 2; 
236 39; 237 5; 
