Name: N-cyclohexyl-3,4-methylenedioxyamphetamine
Synon: N-cyclohexyl-MDA
InChIKey: HJVQYUAQAYIFFN-UHFFFAOYSA-N
Formula: C16H23NO2
MW: 261
ExactMass: 261.172878
CASNO: 0
ID: 743
Comment: ENFSI / byproduct found in MDA tablets originating from Colombia; PMK from piperonal nitropropene route with cyclohexylamine as catalyst
Num Peaks: 87
38 1; 39 28; 40 4; 41 85; 42 28; 
43 23; 44 647; 45 18; 50 6; 51 43; 
52 8; 53 20; 54 17; 55 130; 56 22; 
57 3; 58 2; 62 2; 63 8; 64 3; 
65 13; 66 3; 67 12; 68 23; 69 6; 
70 37; 71 2; 74 1; 75 2; 76 6; 
77 94; 78 23; 79 34; 80 6; 81 10; 
82 20; 83 50; 84 10; 89 9; 90 3; 
91 9; 92 2; 93 2; 95 3; 96 7; 
97 2; 98 3; 102 3; 103 19; 104 10; 
105 46; 106 11; 107 4; 108 1; 109 8; 
110 8; 115 2; 116 1; 117 2; 118 2; 
119 1; 120 3; 121 5; 122 3; 124 8; 
126 999; 127 95; 128 4; 130 1; 131 8; 
132 3; 133 12; 134 5; 135 123; 136 16; 
137 1; 146 1; 147 8; 148 6; 149 1; 
161 4; 162 5; 163 10; 164 5; 178 4; 
246 1; 260 1; 
