Name: 3,4-Dimethyl-5-(3,4-methylenedioxy)phenyloxazolidine
InChIKey: WTFVQUJAPQXTSO-UHFFFAOYSA-N
Formula: C12H15NO3
MW: 221
ExactMass: 221.105193
CASNO: 0
ID: 746
Comment: ENFSI / byproduct in MDMA synthesis originating from .alpha.hydroxyMDMA and formaldehyde; J.For.Sci.2000;45(4):898-901 pseudoefedrine
Num Peaks: 106
37 2; 38 6; 39 19; 40 7; 41 14; 
42 71; 43 69; 44 18; 49 2; 50 26; 
51 31; 52 8; 53 11; 54 10; 55 13; 
56 330; 57 14; 58 103; 59 5; 60 1; 
61 3; 62 11; 63 35; 64 7; 65 35; 
66 5; 67 3; 68 4; 69 1; 70 59; 
71 999; 72 56; 73 2; 74 7; 75 5; 
76 31; 77 46; 78 13; 79 8; 80 2; 
81 1; 82 1; 83 3; 84 2; 85 2; 
86 2; 87 2; 88 4; 89 11; 90 4; 
91 28; 92 7; 93 2; 94 2; 95 2; 
96 3; 98 1; 101 2; 102 9; 103 23; 
104 14; 105 12; 106 4; 107 2; 110 3; 
115 2; 116 2; 117 7; 118 10; 119 11; 
120 2; 121 27; 122 5; 123 2; 130 3; 
131 10; 132 8; 133 7; 134 8; 135 46; 
136 6; 137 1; 146 12; 147 6; 148 4; 
149 66; 150 31; 151 3; 152 1; 159 1; 
160 12; 161 6; 162 12; 163 9; 164 2; 
174 2; 175 3; 176 2; 177 5; 178 2; 
179 1; 190 6; 191 2; 192 3; 207 1; 
221 2; 
