Name: 2,2,3,4-tetramethyl-5-phenyloxazolidine
Synon: Oxazolidine pseudoephedrine
InChIKey: SXPWYSNMKUDXOU-UHFFFAOYSA-N
Formula: C13H19NO
MW: 205
ExactMass: 205.146665
CASNO: 0
ID: 749
Comment: ENFSI / oxazolidine from pseudoephedrine and acetone
Num Peaks: 92
38 2; 39 31; 40 5; 41 32; 42 89; 
43 94; 44 13; 50 12; 51 38; 52 10; 
53 4; 54 10; 55 12; 56 181; 57 17; 
58 79; 59 4; 62 4; 63 20; 64 7; 
65 26; 66 3; 67 1; 68 11; 69 5; 
70 20; 71 126; 72 11; 73 1; 74 4; 
75 4; 76 6; 77 88; 78 24; 79 37; 
80 3; 81 1; 82 3; 84 121; 85 7; 
86 1; 88 23; 89 57; 90 65; 91 140; 
92 12; 93 1; 94 1; 95 11; 97 1; 
98 10; 99 494; 100 36; 101 2; 102 7; 
103 26; 104 12; 105 89; 106 17; 107 12; 
108 1; 112 5; 113 1; 114 1; 115 64; 
116 29; 117 124; 118 30; 119 26; 120 3; 
128 2; 129 6; 130 39; 131 48; 132 77; 
133 79; 134 7; 143 1; 144 11; 145 3; 
146 76; 147 71; 148 999; 149 118; 150 6; 
174 3; 184 1; 188 2; 190 242; 191 32; 
192 2; 205 2; 
