Name: Diacetyl-3,4-dihydroxyphenyl-2-propanone
Synon: 3,4-dihydroxyphenyl-2-propanone, diacetyl
InChIKey: YLYBTPCMVVEYJZ-UHFFFAOYSA-N
Formula: C13H14O5
MW: 250
ExactMass: 250.084124
CASNO: 0
ID: 750
Comment: ENFSI
Num Peaks: 60
38 2; 39 24; 40 3; 41 2; 42 9; 
43 423; 44 10; 45 1; 50 5; 51 24; 
52 4; 53 4; 54 1; 55 5; 62 2; 
63 8; 64 4; 65 34; 66 14; 67 4; 
74 1; 75 1; 76 2; 77 40; 78 8; 
79 3; 89 1; 91 3; 92 1; 93 4; 
94 21; 95 3; 105 11; 106 7; 107 3; 
119 1; 121 3; 122 15; 123 999; 124 125; 
125 10; 135 4; 136 1; 137 2; 147 2; 
148 3; 149 2; 150 2; 151 2; 164 1; 
165 11; 166 401; 167 40; 168 4; 179 1; 
208 109; 209 13; 210 2; 250 10; 251 1; 
