Name: 3,4-Dihydroxyphenyl-2-propanone
InChIKey: JQXBETDGCMQLMK-UHFFFAOYSA-N
Formula: C9H10O3
MW: 166
ExactMass: 166.062994
CASNO: 0
ID: 751
Comment: ENFSI / found as impurity in clandestine MDP-2-P
Num Peaks: 79
36 1; 37 2; 38 9; 39 35; 40 11; 
41 10; 42 8; 43 175; 44 6; 45 5; 
46 1; 47 2; 49 1; 50 19; 51 108; 
52 14; 53 17; 54 3; 55 17; 56 1; 
60 1; 62 9; 63 14; 64 4; 65 26; 
66 19; 67 12; 68 3; 69 2; 71 1; 
73 1; 74 5; 75 6; 76 10; 77 132; 
78 18; 79 5; 80 1; 81 2; 82 1; 
86 1; 87 1; 89 4; 90 1; 91 7; 
92 1; 93 9; 94 12; 95 4; 97 1; 
102 1; 103 1; 104 1; 105 33; 106 6; 
107 4; 108 1; 109 1; 110 1; 119 2; 
121 4; 123 999; 124 98; 125 8; 126 1; 
133 1; 134 1; 135 10; 136 2; 137 2; 
138 1; 147 2; 149 7; 150 2; 151 6; 
165 3; 166 201; 167 21; 168 3; 
