Name: 2,4-Dimethyl-3,5-bis(3,4-methylenedioxyphenyl)tetrahydrofuran
InChIKey: HEGDRYPXTDJZMY-UHFFFAOYSA-N
Formula: C20H20O5
MW: 340
ExactMass: 340.131073
CASNO: 0
ID: 753
Comment: ENFSI / impurity in MDP-2-P synthesis from isosafrol with performic or peracidic oxydation
Num Peaks: 177
38 12; 39 152; 40 44; 41 102; 42 11; 
43 131; 44 24; 45 7; 50 67; 51 155; 
52 50; 53 90; 54 8; 55 61; 56 7; 
57 13; 62 37; 63 156; 64 55; 65 275; 
66 34; 67 29; 70 34; 71 13; 73 5; 
74 9; 75 34; 76 186; 77 346; 78 111; 
79 45; 80 9; 81 15; 83 56; 84 7; 
85 6; 87 11; 88 29; 89 159; 90 51; 
91 275; 92 40; 93 34; 94 10; 95 15; 
96 16; 97 32; 98 7; 100 6; 101 26; 
102 69; 103 347; 104 206; 105 93; 106 29; 
107 16; 110 22; 111 175; 113 12; 114 10; 
115 270; 116 129; 117 234; 118 72; 119 82; 
120 22; 121 161; 122 128; 123 18; 124 7; 
125 45; 126 28; 127 62; 128 33; 129 31; 
130 13; 131 255; 132 77; 133 77; 134 116; 
135 473; 136 52; 137 15; 139 43; 140 25; 
141 26; 142 6; 143 36; 144 137; 145 532; 
146 77; 147 140; 148 77; 149 359; 150 107; 
151 40; 152 66; 153 26; 154 6; 155 10; 
159 425; 160 106; 161 167; 162 170; 163 98; 
164 52; 165 197; 166 29; 167 12; 168 9; 
169 8; 170 16; 173 54; 174 209; 175 162; 
176 44; 177 31; 178 87; 179 36; 180 13; 
181 14; 183 5; 185 6; 187 10; 189 49; 
190 55; 191 52; 192 14; 193 33; 194 20; 
195 10; 196 9; 199 8; 205 9; 207 23; 
208 15; 209 23; 210 11; 211 8; 219 6; 
221 44; 222 25; 223 125; 224 27; 225 9; 
235 11; 236 17; 237 32; 238 23; 239 10; 
251 164; 252 33; 253 11; 255 38; 256 11; 
265 35; 266 125; 267 60; 268 11; 278 6; 
279 7; 280 9; 281 706; 282 127; 283 21; 
293 9; 295 156; 296 999; 297 223; 298 28; 
309 14; 322 11; 338 10; 339 13; 340 314; 
341 72; 342 8; 
