Name: 3-Methoxy-4,5-methylenedioxyphenyl-2-propanone
InChIKey: SGJIJKLIZWPKCD-UHFFFAOYSA-N
Formula: C11H12O4
MW: 208
ExactMass: 208.073559
CASNO: 0
ID: 754
Comment: ENFSI / impurity in clandestine MDP-2-P
Num Peaks: 32
39 30; 42 13; 43 90; 50 24; 51 7; 
52 15; 53 38; 62 18; 63 36; 64 62; 
65 22; 66 20; 76 22; 77 76; 78 26; 
79 38; 91 22; 92 54; 94 17; 105 25; 
120 78; 121 15; 122 29; 123 16; 150 18; 
159 22; 165 999; 166 116; 167 13; 174 17; 
208 240; 209 34; 
