Name: (5-Methoxyindol-3-yl)-N,N-diisopropyl-glyoxylamide
InChIKey: CKRKISNXFPSRFT-UHFFFAOYSA-N
Formula: C17H22N2O3
MW: 302
ExactMass: 302.163042
CASNO: 0
ID: 755
Comment: ENFSI / intermediate in 5-MEO-DIPTsynthesis
Num Peaks: 74
39 6; 40 1; 41 30; 42 13; 43 108; 
44 10; 50 4; 51 3; 52 3; 53 7; 
54 1; 56 1; 58 9; 62 3; 63 4; 
64 1; 65 8; 66 1; 68 1; 70 7; 
74 1; 75 6; 76 19; 77 6; 78 2; 
80 3; 81 8; 84 4; 85 1; 86 121; 
87 10; 88 6; 89 9; 90 2; 91 5; 
92 1; 100 108; 101 8; 102 10; 103 29; 
104 9; 105 2; 114 6; 115 8; 116 6; 
117 4; 118 1; 119 27; 120 2; 128 28; 
129 3; 130 7; 131 66; 132 14; 133 1; 
142 2; 143 9; 144 3; 145 1; 146 57; 
147 10; 148 1; 158 18; 159 75; 160 11; 
161 1; 172 4; 173 20; 174 999; 175 116; 
176 10; 207 1; 302 16; 303 3; 
