Name: N-formyl,N-ethyl-3,4-methylenedioxyamphetamine
Synon: N-formyl,N-ethyl-MDA
InChIKey: NNSDLYLAIDHCGV-UHFFFAOYSA-N
Formula: C13H17NO3
MW: 235
ExactMass: 235.120843
CASNO: 0
ID: 758
Comment: ENFSI / impurity in clandestine MDEA sample synthesised with reducive amination
Num Peaks: 113
38 4; 39 26; 40 6; 41 15; 42 47; 
43 12; 44 270; 45 8; 50 18; 51 87; 
52 16; 53 15; 54 5; 55 7; 56 37; 
57 7; 58 16; 61 1; 62 8; 63 24; 
64 7; 65 22; 66 5; 67 4; 68 3; 
69 1; 70 21; 72 470; 73 25; 74 7; 
75 9; 76 16; 77 163; 78 46; 79 33; 
80 5; 82 3; 85 2; 86 1; 87 2; 
89 17; 90 5; 91 22; 92 7; 93 4; 
94 1; 96 1; 98 2; 100 965; 101 58; 
102 12; 103 40; 104 40; 105 61; 106 13; 
107 5; 115 4; 116 2; 117 3; 118 4; 
119 5; 120 2; 121 11; 122 4; 128 2; 
129 1; 130 2; 131 32; 132 17; 133 15; 
134 11; 135 213; 136 37; 137 3; 141 2; 
145 1; 146 2; 147 14; 148 12; 149 16; 
150 2; 151 3; 152 2; 153 2; 155 1; 
159 2; 160 4; 161 42; 162 999; 163 127; 
164 12; 165 3; 166 1; 169 1; 176 2; 
177 2; 178 2; 180 1; 181 1; 183 2; 
184 4; 190 2; 191 2; 192 3; 199 21; 
200 3; 205 4; 206 3; 214 15; 215 2; 
218 1; 235 31; 236 5; 
