Name: Hydroxyethyl-3,4-methylenedioxyamphetamine
Synon: MDHOET
Synon: Hydroxyethyl-MDA
Synon: PIHKAL #107
InChIKey: SCUUYKMQDUDNBP-UHFFFAOYSA-N
Formula: C12H17NO3
MW: 223
ExactMass: 223.120843
CASNO: 0
ID: 760
Comment: ENFSI / found as impurity in a clandestine MDMA sample
Num Peaks: 86
36 1; 38 3; 39 19; 40 4; 41 19; 
42 57; 43 22; 44 126; 45 43; 46 1; 
50 12; 51 58; 52 11; 53 12; 54 6; 
55 8; 56 47; 57 25; 58 16; 59 1; 
60 4; 62 4; 63 14; 64 4; 65 12; 
66 3; 67 3; 68 6; 69 3; 70 227; 
71 11; 72 2; 74 2; 75 3; 76 6; 
77 74; 78 20; 79 18; 80 2; 86 10; 
87 3; 88 999; 89 57; 90 5; 91 11; 
92 2; 93 1; 94 1; 96 7; 102 3; 
103 18; 104 10; 105 39; 106 8; 107 3; 
115 2; 117 3; 118 3; 119 2; 120 1; 
121 5; 122 3; 130 1; 131 9; 132 3; 
133 13; 134 3; 135 112; 136 22; 137 2; 
146 1; 147 8; 148 6; 149 5; 150 1; 
160 1; 161 5; 162 7; 163 27; 164 3; 
177 1; 178 1; 190 1; 192 3; 205 1; 
208 1; 
