Name: 3,4-Methylenedioxyphenyl-1-propanal
InChIKey: IDCKZBGINKOTOL-UHFFFAOYSA-N
Formula: C10H10O3
MW: 178
ExactMass: 178.062994
CASNO: 0
ID: 762
Comment: ENFSI / RUL JB40 10/2/94
Num Peaks: 78
37 6; 38 23; 39 90; 40 27; 41 18; 
42 8; 43 7; 44 15; 45 3; 46 3; 
49 4; 50 50; 51 161; 52 24; 53 46; 
54 3; 55 18; 56 2; 60 3; 61 15; 
62 42; 63 101; 64 34; 65 121; 66 15; 
67 8; 68 3; 69 2; 73 6; 74 19; 
75 13; 76 14; 77 247; 78 35; 79 50; 
80 4; 86 5; 87 5; 88 3; 89 55; 
90 12; 91 133; 92 28; 93 7; 94 2; 
102 6; 103 8; 104 4; 105 68; 106 25; 
107 5; 117 2; 118 2; 119 72; 120 20; 
121 87; 122 233; 123 21; 130 2; 131 8; 
133 2; 134 9; 135 999; 136 126; 137 12; 
145 2; 147 44; 148 22; 149 30; 150 85; 
151 10; 159 2; 160 3; 161 2; 177 11; 
178 463; 179 52; 180 5; 
