Name: N-acetyl-3,4-dimethoxymethamphetamine
InChIKey: ZJVDZDRESIULKY-UHFFFAOYSA-N
Formula: C14H21NO3
MW: 251
ExactMass: 251.1521435
CASNO: 0
ID: 767
Comment: ENFSI
Num Peaks: 103
38 1; 39 16; 40 2; 41 9; 42 29; 
43 90; 44 5; 45 2; 50 3; 51 16; 
52 6; 53 5; 54 3; 55 7; 56 49; 
57 14; 58 999; 59 38; 60 1; 62 1; 
63 7; 64 4; 65 26; 66 5; 67 2; 
68 1; 69 1; 70 2; 71 4; 72 1; 
73 1; 74 1; 75 1; 76 2; 77 27; 
78 24; 79 16; 80 5; 81 2; 82 1; 
83 1; 85 1; 89 12; 90 14; 91 28; 
92 6; 93 3; 94 5; 95 3; 100 282; 
101 17; 102 3; 103 9; 104 3; 105 22; 
106 26; 107 56; 108 13; 109 3; 115 6; 
116 2; 117 5; 118 5; 119 4; 120 3; 
121 7; 122 3; 123 2; 124 1; 130 1; 
131 4; 132 2; 133 4; 134 2; 135 17; 
136 4; 137 8; 138 3; 139 1; 146 2; 
147 10; 148 3; 149 3; 151 83; 152 13; 
153 1; 160 1; 161 2; 162 11; 163 30; 
164 6; 165 1; 176 1; 178 450; 179 60; 
180 5; 190 1; 192 3; 193 1; 194 2; 
207 1; 208 3; 251 3; 
