Name: N-methyliminopropylbenzene
InChIKey: JPRIWVANPACNHS-LUAWRHEFSA-N
Formula: C10H13N
MW: 147
ExactMass: 147.104799
CASNO: 0
ID: 774
Comment: ENFSI / imine from amphetamine and formaldehyde / imine from P-2-P and methylamine
Num Peaks: 73
37 1; 38 4; 39 44; 40 6; 41 41; 
42 6; 43 3; 44 13; 45 1; 50 15; 
51 38; 52 11; 53 4; 54 20; 55 18; 
56 999; 57 38; 61 1; 62 7; 63 23; 
64 5; 65 65; 66 5; 67 3; 68 1; 
69 3; 70 1; 73 1; 74 4; 75 4; 
76 4; 77 35; 78 14; 79 12; 80 1; 
81 2; 82 1; 83 2; 84 1; 85 1; 
86 2; 87 2; 88 1; 89 16; 90 6; 
91 212; 92 18; 93 1; 95 1; 96 1; 
97 1; 98 1; 102 6; 103 18; 104 12; 
105 17; 106 2; 109 1; 111 1; 115 30; 
116 6; 117 29; 118 8; 119 5; 129 1; 
130 7; 131 2; 132 100; 133 10; 144 2; 
146 6; 147 6; 148 1; 
