Name: Piperonyl methyl ether
InChIKey: WXPQEUKGNZMURA-UHFFFAOYSA-N
Formula: C9H10O3
MW: 166
ExactMass: 166.062994
CASNO: 0
ID: 775
Comment: ENFSI / prepared from piperonyl alcohol and methanol (+conc. H2SO4)
Num Peaks: 74
36 1; 37 7; 38 21; 39 72; 40 1; 
41 2; 42 4; 43 1; 45 36; 46 2; 
47 1; 49 7; 50 73; 51 204; 52 29; 
53 48; 54 4; 55 9; 58 1; 60 3; 
61 13; 62 29; 63 68; 64 23; 65 104; 
66 13; 67 21; 68 3; 69 5; 74 14; 
75 12; 76 23; 77 278; 78 70; 79 68; 
80 6; 81 5; 82 3; 83 2; 86 1; 
89 2; 90 1; 91 14; 92 9; 93 67; 
94 6; 95 3; 104 3; 105 71; 106 28; 
107 16; 108 21; 109 4; 119 22; 120 5; 
121 33; 122 6; 123 15; 124 2; 125 1; 
132 1; 133 2; 135 999; 136 156; 137 16; 
138 1; 149 70; 150 55; 151 9; 152 2; 
165 140; 166 430; 167 40; 168 2; 
