Name: 2-Chloro-4,5-methylenedioxyethylamphetamine
InChIKey: GYJXIBZYSYZHIQ-UHFFFAOYSA-N
Formula: C12H16ClNO2
MW: 241
ExactMass: 241.086956
CASNO: 0
ID: 782
Comment: ENFSI / substance found in a tablet containing mainly MDEA
Num Peaks: 141
37 1; 38 1; 39 9; 40 2; 41 25; 
42 30; 43 29; 44 181; 45 9; 50 9; 
51 15; 52 3; 53 7; 54 3; 55 18; 
56 20; 57 20; 58 2; 60 31; 61 8; 
62 4; 63 8; 64 2; 65 3; 66 1; 
67 4; 68 2; 69 10; 70 14; 72 999; 
73 82; 74 9; 75 35; 76 8; 77 37; 
78 6; 79 3; 81 1; 82 2; 83 7; 
84 6; 85 10; 86 2; 87 9; 88 1; 
89 7; 90 1; 91 3; 92 1; 93 1; 
94 1; 95 1; 96 1; 97 6; 98 5; 
99 6; 100 1; 101 5; 102 6; 103 12; 
104 6; 105 3; 107 1; 111 19; 112 4; 
113 10; 114 2; 115 6; 116 2; 117 4; 
118 2; 119 1; 121 1; 123 1; 124 1; 
125 2; 127 1; 128 1; 129 17; 130 2; 
131 6; 132 7; 133 2; 134 1; 135 7; 
136 1; 137 1; 138 1; 139 6; 140 2; 
141 2; 143 4; 145 4; 146 3; 147 2; 
148 1; 149 1; 151 4; 155 2; 156 1; 
157 2; 160 4; 161 3; 162 6; 163 1; 
165 1; 166 1; 167 1; 169 60; 170 10; 
171 22; 172 4; 174 3; 175 5; 176 2; 
177 1; 181 2; 182 1; 183 2; 184 1; 
185 10; 186 1; 188 1; 189 2; 190 8; 
191 1; 193 1; 195 1; 196 2; 197 4; 
198 1; 199 3; 204 3; 205 4; 206 2; 
218 1; 226 8; 227 1; 228 7; 240 4; 
242 1; 
