Name: N-methyl-.alpha.methyl-3,4-methylenedioxyphenethylamine
InChIKey: SHXWCVYOXRDMCX-UHFFFAOYSA-N
Formula: C11H15NO2
MW: 193
ExactMass: 193.110279
CASNO: 0
ID: 793
Comment: ENFSI
Num Peaks: 71
38 3; 39 25; 40 2; 41 10; 42 21; 
43 13; 44 999; 45 29; 49 1; 50 6; 
51 12; 52 7; 53 10; 55 1; 61 2; 
62 7; 63 26; 64 9; 65 53; 66 4; 
67 2; 68 2; 70 4; 74 5; 75 5; 
76 3; 77 17; 78 5; 79 4; 80 2; 
86 1; 87 1; 89 30; 90 8; 91 101; 
92 16; 93 4; 103 6; 104 4; 105 5; 
116 1; 117 5; 118 7; 119 41; 120 10; 
121 6; 122 2; 131 1; 132 2; 133 3; 
134 2; 135 42; 137 1; 146 1; 147 31; 
148 30; 149 51; 150 230; 151 22; 152 2; 
160 1; 161 2; 162 4; 163 2; 176 2; 
177 5; 178 1; 191 2; 192 2; 193 7; 
194 1; 
