Name: N-ethyl-.alpha.methyl-3,4-methylenedioxyphenethylamine
InChIKey: PVXVWWANJIWJOO-UHFFFAOYSA-N
Formula: C12H17NO2
MW: 207
ExactMass: 207.125929
CASNO: 0
ID: 794
Comment: ENFSI
Num Peaks: 76
38 2; 39 18; 40 3; 41 10; 42 11; 
43 6; 44 4; 50 4; 51 14; 52 5; 
53 8; 54 2; 55 2; 56 14; 58 999; 
59 39; 61 1; 62 5; 63 19; 64 6; 
65 41; 66 4; 67 1; 70 2; 72 4; 
74 1; 75 2; 76 3; 77 23; 78 7; 
79 7; 80 1; 87 1; 89 21; 90 6; 
91 69; 92 9; 93 1; 96 1; 102 1; 
103 9; 104 5; 105 10; 106 1; 107 1; 
117 2; 118 4; 119 27; 120 6; 121 5; 
122 2; 131 2; 132 2; 133 4; 134 1; 
135 29; 136 2; 145 1; 146 2; 147 21; 
148 21; 149 37; 150 94; 151 9; 152 1; 
161 2; 162 4; 163 5; 176 1; 177 1; 
190 1; 191 1; 205 1; 206 1; 207 6; 
208 1; 
