Name: 3,4-Methylenedioxyphenylpropan-2-ol, acetyl
InChIKey: YZGQNFFKQXUAEV-UHFFFAOYSA-N
Formula: C12H14O4
MW: 222
ExactMass: 222.089209
CASNO: 0
ID: 795
Comment: ENFSI
Num Peaks: 83
37 1; 38 7; 39 36; 40 3; 41 7; 
42 12; 43 558; 44 15; 45 14; 49 1; 
50 30; 51 127; 52 20; 53 20; 54 2; 
55 7; 60 1; 61 3; 62 13; 63 30; 
64 7; 65 24; 66 5; 67 6; 69 1; 
73 3; 74 8; 75 9; 76 18; 77 205; 
78 53; 79 48; 80 6; 81 2; 86 1; 
87 9; 88 1; 89 17; 90 5; 91 20; 
92 5; 93 3; 94 1; 101 1; 102 9; 
103 49; 104 111; 105 94; 106 17; 107 15; 
108 2; 115 3; 116 1; 117 2; 118 1; 
119 7; 120 2; 121 14; 122 12; 123 1; 
131 98; 132 58; 133 28; 135 736; 136 86; 
137 8; 145 1; 147 16; 148 11; 149 4; 
151 1; 159 1; 161 96; 162 999; 163 143; 
164 15; 165 2; 178 1; 179 12; 180 1; 
207 2; 222 21; 223 2; 
