Name: 3,4,5-Trimethoxyphenyl-2-propanone
InChIKey: WDNDMVGQGRDIBC-UHFFFAOYSA-N
Formula: C12H16O4
MW: 224
ExactMass: 224.104859
CASNO: 0
ID: 798
Comment: ENFSI / found as impurity in MDP-2-P
Num Peaks: 111
38 5; 39 28; 41 13; 42 8; 43 144; 
44 1; 45 6; 50 12; 51 29; 52 36; 
53 25; 54 2; 55 8; 57 4; 59 2; 
62 6; 63 18; 64 20; 65 29; 66 10; 
67 11; 68 3; 69 7; 71 2; 74 4; 
75 5; 76 5; 77 36; 78 25; 79 31; 
80 25; 81 11; 82 3; 83 3; 85 2; 
89 18; 90 19; 91 31; 92 20; 93 18; 
94 7; 95 27; 96 1; 97 3; 103 5; 
104 5; 105 27; 106 18; 107 21; 108 10; 
109 10; 110 2; 111 1; 116 2; 117 1; 
118 4; 119 6; 120 31; 121 22; 122 10; 
123 21; 124 10; 125 3; 128 1; 129 2; 
130 1; 131 4; 132 2; 133 7; 134 9; 
135 34; 136 50; 137 50; 138 23; 139 10; 
141 1; 145 3; 146 1; 147 12; 148 128; 
149 20; 150 3; 151 26; 152 4; 153 3; 
157 1; 158 2; 159 8; 160 6; 161 3; 
164 2; 165 23; 166 7; 167 59; 168 6; 
176 1; 177 2; 178 8; 179 3; 181 999; 
182 114; 183 14; 190 1; 191 1; 193 3; 
202 6; 203 2; 207 2; 224 197; 225 27; 
226 3; 
