Name: 3,4-Diphenyl-3-buten-2-one
InChIKey: PXTNHINUEHWZIX-FOWTUZBSSA-N
Formula: C16H14O
MW: 222
ExactMass: 222.1044655
CASNO: 0
ID: 803
Comment: ENFSI / Aldol condensation product of BMK and benzaldehyde
Num Peaks: 113
37 1; 38 4; 39 26; 40 2; 41 1; 
43 197; 45 1; 50 37; 51 115; 52 20; 
53 3; 55 1; 61 3; 62 17; 63 52; 
64 6; 65 15; 66 1; 69 1; 74 38; 
75 53; 76 79; 77 114; 78 12; 82 4; 
83 1; 85 2; 86 13; 87 21; 88 28; 
89 41; 91 11; 92 1; 95 4; 96 1; 
97 1; 98 12; 99 9; 100 4; 101 15; 
102 49; 103 9; 104 1; 105 3; 107 1; 
109 2; 110 5; 111 8; 112 1; 113 9; 
114 4; 115 28; 116 8; 117 1; 121 2; 
122 2; 123 1; 125 6; 126 27; 127 17; 
128 15; 129 7; 131 2; 137 3; 138 4; 
139 20; 140 2; 144 4; 145 17; 146 2; 
147 1; 149 4; 150 29; 151 71; 152 132; 
153 22; 154 2; 162 1; 163 8; 164 3; 
165 24; 166 4; 174 5; 175 12; 176 149; 
177 113; 178 828; 179 999; 180 146; 181 10; 
187 1; 189 7; 190 2; 191 4; 192 1; 
193 2; 194 2; 200 1; 201 1; 202 6; 
203 7; 204 2; 205 3; 207 97; 208 13; 
209 1; 218 1; 219 2; 220 1; 221 415; 
222 587; 223 97; 224 9; 
