Name: 4-Methyl-5-(3,4-methylenedioxy)-phenylpyrimidine
InChIKey: XYYMQUHSVBGSSO-UHFFFAOYSA-N
Formula: C12H10N2O2
MW: 214
ExactMass: 214.074227
CASNO: 0
ID: 805
Comment: ENFSI / Leuckart impurity MDA synthesis
Num Peaks: 92
37 8; 38 19; 39 20; 40 4; 41 4; 
42 16; 43 7; 44 7; 49 6; 50 47; 
51 47; 52 21; 53 19; 54 3; 55 3; 
56 2; 58 5; 61 14; 62 93; 63 64; 
64 21; 65 14; 66 9; 67 4; 73 73; 
74 42; 75 50; 76 60; 77 37; 78 15; 
79 23; 86 21; 87 48; 88 81; 89 41; 
90 21; 91 6; 92 7; 93 3; 98 7; 
99 6; 100 8; 101 31; 102 80; 103 33; 
104 12; 106 14; 107 14; 113 4; 114 23; 
115 13; 116 33; 117 15; 118 12; 119 2; 
121 3; 122 3; 127 10; 128 32; 129 28; 
130 23; 131 19; 132 5; 140 4; 141 4; 
142 10; 143 12; 144 18; 145 76; 146 85; 
147 12; 154 2; 155 127; 156 64; 157 21; 
158 6; 159 12; 160 6; 168 2; 170 4; 
171 6; 172 8; 173 3; 183 36; 184 10; 
185 6; 186 3; 199 3; 213 445; 214 999; 
215 143; 216 11; 
