Name: Isosafrole Glycol
InChIKey: YIRAEUKOPKEBHB-UHFFFAOYSA-N
Formula: C10H12O4
MW: 196
ExactMass: 196.073559
CASNO: 0
ID: 812
Comment: ENFSI / J. Chromatogr. Sci.,32: 393-402 (1994)
Num Peaks: 102
37 4; 38 16; 39 120; 40 10; 41 11; 
42 8; 43 41; 44 7; 45 71; 46 2; 
47 1; 49 2; 50 25; 51 43; 52 13; 
53 33; 54 3; 55 15; 56 1; 57 5; 
58 1; 59 1; 60 2; 61 7; 62 27; 
63 71; 64 26; 65 396; 66 44; 67 25; 
69 2; 72 1; 73 2; 74 13; 75 25; 
76 24; 77 53; 78 11; 79 12; 80 2; 
81 5; 82 2; 86 1; 87 1; 88 1; 
89 5; 90 2; 91 29; 93 796; 94 72; 
95 26; 96 2; 97 1; 101 1; 102 3; 
103 9; 104 12; 105 13; 106 3; 107 9; 
108 1; 109 3; 117 1; 118 1; 119 16; 
120 4; 121 70; 122 59; 123 178; 124 15; 
125 1; 131 8; 132 1; 133 14; 134 15; 
135 82; 136 8; 137 6; 138 2; 145 1; 
147 9; 148 3; 149 101; 150 50; 151 999; 
152 186; 153 17; 154 1; 161 6; 162 15; 
163 7; 164 4; 165 1; 177 3; 178 15; 
179 3; 180 1; 193 1; 194 1; 196 118; 
197 13; 198 1; 
