Name: 4-Methyl-1,2-(methylenedioxy)benzene
InChIKey: GHPODDMCSOYWNE-UHFFFAOYSA-N
Formula: C8H8O2
MW: 136
ExactMass: 136.052429
CASNO: 0
ID: 814
Comment: ENFSI / A.M.A.Verweij, For.Sci.Rev.,Vol.4,No.2,Dec.1992; user created spectrum
Num Peaks: 8
51 70; 52 50; 77 239; 79 149; 105 50; 
106 70; 135 999; 136 849; 
