Name: 4-(Methylthio)benzylmethylketoxime
InChIKey: CGGJUVDVYNFDKQ-FLIBITNWSA-N
Formula: C10H13NOS
MW: 195
ExactMass: 195.071785
CASNO: 0
ID: 836
Comment: ENFSI / impurity 4-MTA
Num Peaks: 129
37 4; 38 23; 39 99; 40 49; 41 110; 
42 336; 43 19; 44 35; 45 101; 46 11; 
47 27; 48 3; 49 3; 50 40; 51 86; 
52 30; 53 13; 54 9; 55 24; 56 9; 
57 18; 58 34; 59 8; 60 6; 61 8; 
62 39; 63 125; 64 31; 65 63; 66 9; 
67 8; 68 5; 69 70; 70 27; 71 31; 
72 5; 73 6; 74 16; 75 24; 76 27; 
77 145; 78 229; 79 56; 80 7; 81 6; 
82 31; 83 9; 84 9; 85 12; 86 9; 
87 11; 88 7; 89 149; 90 60; 91 417; 
92 83; 93 16; 94 4; 95 24; 96 19; 
97 17; 98 4; 101 3; 102 22; 103 54; 
104 29; 105 35; 106 8; 107 13; 108 22; 
109 19; 110 5; 111 5; 114 6; 115 58; 
116 45; 117 44; 118 12; 119 12; 120 21; 
121 306; 122 372; 123 425; 124 66; 125 22; 
126 4; 128 9; 129 6; 130 192; 131 543; 
132 69; 133 15; 134 30; 135 125; 136 50; 
137 999; 138 407; 139 84; 140 29; 144 10; 
145 7; 146 22; 147 55; 148 40; 149 20; 
150 6; 151 14; 152 11; 153 5; 154 13; 
160 3; 161 9; 162 226; 163 43; 164 179; 
165 21; 166 7; 176 4; 177 12; 178 35; 
179 259; 180 33; 181 17; 182 4; 189 15; 
194 6; 195 508; 196 73; 197 25; 
