Name: 4-Methyl-5-phenylpyrimidine
InChIKey: RPXGYQFOIZMYAF-UHFFFAOYSA-N
Formula: C11H10N2
MW: 170
ExactMass: 170.084398
CASNO: 0
ID: 840
Comment: ENFSI / amphetamine Leuckart impurity
Num Peaks: 74
37 6; 38 9; 39 32; 40 16; 41 5; 
42 15; 44 2; 49 5; 50 59; 51 71; 
52 26; 53 5; 56 1; 58 12; 61 12; 
62 29; 63 72; 64 17; 65 20; 66 3; 
67 3; 71 4; 72 3; 73 5; 74 44; 
75 48; 76 75; 77 51; 78 10; 84 3; 
85 8; 86 11; 87 24; 88 12; 89 47; 
90 7; 91 3; 97 1; 98 6; 99 6; 
100 7; 101 29; 102 531; 103 54; 104 3; 
111 2; 112 1; 113 13; 114 18; 115 259; 
116 94; 117 10; 118 2; 126 2; 127 8; 
128 30; 129 6; 130 5; 140 14; 141 7; 
142 54; 143 25; 144 5; 154 2; 155 31; 
156 3; 163 2; 166 2; 167 4; 168 31; 
169 611; 170 999; 171 127; 172 7; 
