Name: 2,6-Diphenyl-3,4-dimethylpyridine
InChIKey: ZSAQYCPABZZALP-UHFFFAOYSA-N
Formula: C19H17N
MW: 259
ExactMass: 259.136099
CASNO: 0
ID: 848
Comment: ENFSI / amphetamine Leuckart impurity; For.Sci.Rev. 1:1; 1989 pp 1-11
Num Peaks: 120
38 1; 39 12; 40 2; 41 3; 42 1; 
50 8; 51 27; 52 9; 53 4; 62 4; 
63 18; 64 5; 65 9; 74 6; 75 10; 
76 13; 77 49; 78 7; 79 1; 81 1; 
85 1; 86 3; 87 6; 88 7; 89 21; 
90 3; 91 9; 93 1; 94 1; 96 4; 
97 1; 98 1; 99 1; 100 2; 101 6; 
102 15; 103 10; 104 6; 105 1; 107 2; 
108 6; 109 15; 110 1; 112 1; 113 10; 
114 19; 115 98; 120 3; 121 28; 122 20; 
125 1; 126 11; 127 41; 128 42; 130 15; 
137 1; 138 1; 139 19; 140 17; 141 6; 
142 1; 150 2; 151 13; 152 47; 153 47; 
154 13; 155 3; 163 1; 164 2; 165 5; 
166 5; 167 5; 175 1; 176 1; 177 3; 
178 14; 179 4; 180 32; 181 8; 182 8; 
183 1; 189 3; 190 3; 191 2; 200 2; 
201 1; 202 6; 203 2; 204 3; 205 1; 
213 1; 214 1; 215 12; 216 6; 217 5; 
218 3; 226 1; 227 3; 228 7; 229 2; 
230 4; 231 2; 232 1; 239 3; 240 4; 
241 20; 242 29; 243 35; 244 12; 245 1; 
252 1; 253 2; 254 15; 255 20; 256 37; 
257 34; 258 999; 259 420; 260 63; 261 4; 
