Name: 2-Benzyl-2-methyl-5-phenyl-2,3-dihydropyrid-4-one
InChIKey: VQYAZFUPWVQRLT-UHFFFAOYSA-N
Formula: C19H19NO
MW: 277
ExactMass: 277.146664
CASNO: 0
ID: 851
Comment: ENFSI / For.Sci.Rev. 1:1; 1989 pp 1-11
Num Peaks: 69
39 20; 40 5; 41 18; 42 18; 43 2; 
50 6; 51 13; 52 4; 53 9; 54 4; 
62 3; 63 19; 64 5; 65 41; 66 3; 
67 3; 68 5; 75 5; 76 11; 77 17; 
78 5; 79 2; 80 7; 87 3; 88 2; 
89 38; 90 27; 91 145; 92 12; 101 3; 
102 30; 103 14; 104 6; 105 3; 114 4; 
115 48; 116 27; 117 40; 118 15; 119 3; 
127 6; 128 15; 129 7; 130 2; 131 4; 
140 3; 141 14; 142 6; 143 110; 144 23; 
145 3; 153 4; 156 20; 157 12; 158 173; 
159 21; 166 3; 167 5; 168 24; 170 3; 
184 28; 185 26; 186 999; 187 134; 188 8; 
207 4; 276 5; 277 52; 278 12; 
