Name: N-acetyl-3,4-methylenedioxyamphetamine
Synon: N-acetyl-MDA
InChIKey: RSXXYTIHSOOFBG-UHFFFAOYSA-N
Formula: C12H15NO3
MW: 221
ExactMass: 221.105193
CASNO: 0
ID: 872
Comment: ENFSI / NFI/920727vdA/030904TV; derivatised
Num Peaks: 85
37 1; 38 4; 39 21; 40 3; 41 7; 
42 39; 43 151; 44 999; 45 27; 50 22; 
51 113; 52 20; 53 15; 54 2; 55 4; 
56 5; 57 6; 58 2; 60 1; 61 1; 
62 7; 63 19; 64 5; 65 16; 66 4; 
67 4; 68 1; 70 1; 73 1; 74 5; 
75 6; 76 15; 77 165; 78 48; 79 31; 
80 5; 81 1; 86 127; 87 7; 88 1; 
89 9; 90 3; 91 13; 92 3; 93 2; 
94 1; 96 1; 102 5; 103 28; 104 49; 
105 49; 106 19; 107 6; 108 1; 115 1; 
116 1; 117 2; 118 3; 119 3; 120 4; 
121 7; 122 6; 130 1; 131 40; 132 23; 
133 8; 134 10; 135 248; 136 77; 137 7; 
145 1; 146 1; 147 6; 148 5; 149 1; 
160 2; 161 39; 162 799; 163 97; 164 14; 
165 1; 177 2; 178 6; 221 32; 222 4; 
