Name: N-acetyl-3,4-methylenedioxyethylamphetamine
Synon: N-acetyl-MDEA
InChIKey: OOBRHVNSWHOIPN-UHFFFAOYSA-N
Formula: C14H19NO3
MW: 249
ExactMass: 249.136494
CASNO: 0
ID: 873
Comment: ENFSI / NFI/MDEA 961031RL/991123AM derivatised
Num Peaks: 86
38 1; 39 12; 40 3; 41 11; 42 44; 
43 117; 44 117; 45 4; 50 8; 51 52; 
52 8; 53 7; 54 4; 55 4; 56 43; 
57 4; 58 1; 62 3; 63 8; 64 2; 
65 9; 66 2; 67 2; 68 2; 69 1; 
70 19; 72 999; 73 46; 74 2; 75 3; 
76 6; 77 79; 78 21; 79 18; 80 1; 
82 1; 85 2; 86 2; 87 1; 88 1; 
89 8; 90 2; 91 9; 92 1; 93 1; 
94 1; 102 4; 103 21; 104 20; 105 27; 
106 6; 107 3; 114 233; 115 16; 116 2; 
117 2; 118 2; 119 2; 120 1; 121 3; 
122 1; 130 1; 131 16; 132 10; 133 5; 
134 4; 135 93; 136 13; 137 1; 146 1; 
147 6; 148 4; 149 2; 160 1; 161 16; 
162 419; 163 56; 164 5; 176 1; 178 4; 
190 1; 192 2; 205 2; 206 2; 207 2; 
249 2; 
