Name: N-acetyl, N-ethyl-2,3-methylenedioxyphenethylamine
InChIKey: WXPXZAGXQVMAGW-UHFFFAOYSA-N
Formula: C13H17NO3
MW: 235
ExactMass: 235.120843
CASNO: 0
ID: 881
Comment: ENFSI / NFI/13.026; TV_aug2005 derivitised
Num Peaks: 86
38 2; 39 18; 40 2; 41 7; 42 37; 
43 153; 44 12; 45 1; 50 12; 51 66; 
52 11; 53 9; 54 4; 55 5; 56 32; 
58 999; 59 39; 60 1; 62 4; 63 17; 
64 7; 65 37; 66 4; 67 1; 68 1; 
71 2; 72 2; 74 2; 75 4; 76 7; 
77 93; 78 24; 79 25; 80 3; 81 1; 
86 1; 87 1; 88 15; 89 21; 90 8; 
91 58; 92 10; 93 3; 94 1; 100 127; 
101 7; 102 2; 103 3; 104 3; 105 22; 
106 6; 107 5; 115 1; 116 1; 117 2; 
118 7; 119 11; 120 4; 121 2; 122 1; 
130 1; 131 2; 132 1; 133 1; 134 8; 
135 69; 136 9; 137 1; 146 2; 147 23; 
148 363; 149 48; 150 5; 160 1; 162 3; 
163 3; 164 2; 176 3; 178 2; 190 1; 
191 3; 192 7; 220 2; 235 115; 236 17; 
237 2; 
