Name: N,N-diacetylnorpseudoephedrine
Synon: norpseudoefedrine, diacetyl
InChIKey: VJTRUVDRAQEXHL-UHFFFAOYSA-N
Formula: C13H17NO3
MW: 235
ExactMass: 235.120843
CASNO: 0
ID: 883
Comment: ENFSI / NFI/23205, derivatised
Num Peaks: 73
38 1; 39 13; 40 3; 41 8; 42 39; 
43 343; 44 999; 45 30; 50 9; 51 29; 
52 8; 53 3; 54 2; 55 2; 56 6; 
57 6; 58 2; 59 1; 60 4; 62 2; 
63 9; 64 3; 65 12; 66 1; 68 3; 
69 13; 70 1; 72 27; 73 1; 74 3; 
75 2; 76 4; 77 87; 78 18; 79 53; 
80 3; 86 620; 87 145; 88 8; 89 16; 
90 12; 91 42; 92 5; 93 1; 102 4; 
103 7; 104 5; 105 59; 106 12; 107 93; 
108 16; 109 1; 115 34; 116 12; 117 43; 
118 27; 119 15; 120 1; 129 63; 130 10; 
131 3; 132 14; 133 22; 134 47; 135 5; 
136 2; 142 1; 149 4; 150 1; 160 4; 
175 12; 176 23; 177 3; 
