Name: N,N-diacetylnorephedrine
Synon: norephedrine, diacetyl
InChIKey: VJTRUVDRAQEXHL-UHFFFAOYSA-N
Formula: C13H17NO3
MW: 235
ExactMass: 235.120843
CASNO: 0
ID: 884
Comment: ENFSI / NFI/ Aldrich JF 13823PZ, derivatised
Num Peaks: 73
38 2; 39 12; 40 3; 41 8; 42 46; 
43 354; 44 999; 45 33; 50 9; 51 33; 
52 9; 53 3; 54 2; 55 3; 56 6; 
57 6; 58 1; 59 1; 60 9; 62 2; 
63 10; 64 3; 65 11; 66 1; 68 9; 
69 46; 70 2; 72 26; 73 1; 74 2; 
75 2; 76 4; 77 86; 78 19; 79 51; 
80 3; 86 579; 87 137; 88 7; 89 18; 
90 13; 91 37; 92 4; 93 1; 102 4; 
103 7; 104 5; 105 62; 106 11; 107 87; 
108 15; 109 1; 115 30; 116 11; 117 40; 
118 20; 119 11; 120 1; 129 58; 130 10; 
131 3; 132 15; 133 29; 134 64; 135 7; 
136 1; 149 4; 150 2; 160 2; 175 12; 
176 26; 177 3; 192 1; 
