Name: N-acetylfenproporex
Synon: N-acetyl-.(n~)-N-2-Cyanoethylamphetamine
Synon: N-acetylphenproporex
InChIKey: LGTWONHGARGBKH-UHFFFAOYSA-N
Formula: C14H18N2O
MW: 230
ExactMass: 230.141913
CASNO: 0
ID: 889
Comment: ENFSI / NFI/2004.06.24.075
Num Peaks: 68
29 2; 30 3; 38 1; 39 16; 40 2; 
41 17; 42 21; 43 161; 44 12; 50 4; 
51 15; 52 7; 53 3; 54 22; 55 4; 
56 187; 57 15; 62 2; 63 12; 64 3; 
65 50; 66 3; 68 25; 69 3; 70 3; 
71 1; 74 1; 75 1; 76 2; 77 16; 
78 8; 79 5; 81 3; 86 1; 89 11; 
90 5; 91 151; 92 16; 93 1; 95 5; 
97 999; 98 64; 99 1; 102 3; 103 8; 
104 4; 105 4; 113 8; 114 1; 115 19; 
116 5; 117 39; 118 61; 119 11; 129 1; 
130 4; 131 2; 132 4; 133 1; 134 3; 
139 194; 140 15; 141 1; 144 2; 146 4; 
148 2; 173 3; 187 1; 
