Name: N-acetyl-4-methylthioamphetamine
Synon: N-acetyl-4-MTA
InChIKey: BKTUHYUDOIRFKH-UHFFFAOYSA-N
Formula: C12H17NOS
MW: 223
ExactMass: 223.1030855
CASNO: 0
ID: 895
Comment: ENFSI / NFI/in house reference 0497AP, derivatised
Num Peaks: 104
38 2; 39 14; 40 5; 41 8; 42 27; 
43 118; 44 767; 45 37; 46 1; 47 3; 
50 4; 51 11; 52 4; 53 2; 54 1; 
56 2; 57 4; 58 3; 59 1; 60 1; 
61 1; 62 3; 63 15; 64 4; 65 12; 
66 1; 68 1; 69 10; 70 4; 71 3; 
72 1; 74 2; 75 2; 76 2; 77 24; 
78 38; 79 9; 80 1; 81 1; 82 3; 
83 1; 84 1; 85 1; 86 152; 87 8; 
88 1; 89 26; 90 8; 91 49; 92 5; 
93 2; 94 1; 95 3; 96 4; 97 2; 
102 5; 103 8; 104 6; 105 6; 106 1; 
108 4; 109 5; 110 1; 111 1; 115 41; 
116 23; 117 112; 118 19; 119 8; 120 1; 
121 86; 122 138; 123 37; 124 13; 125 2; 
128 1; 129 2; 130 6; 131 3; 132 3; 
133 6; 134 11; 135 13; 136 3; 137 227; 
138 60; 139 14; 140 3; 146 1; 147 6; 
148 5; 149 22; 150 10; 151 3; 152 1; 
162 1; 164 999; 165 123; 166 60; 167 5; 
180 4; 223 41; 224 7; 225 3; 
