Name: 4-tert-Butylamphetamine
Synon: 4-t-BA
InChIKey: PYIVLZVGWKGCGG-UHFFFAOYSA-N
Formula: C13H21N
MW: 191
ExactMass: 191.167399
CASNO: 0
ID: 896
Comment: ENFSI / NFI/inhouse reference; amphetamine impurity, originating from P2P impurity
Num Peaks: 73
40 2; 41 25; 42 20; 44 999; 45 28; 
50 2; 51 10; 52 3; 53 6; 55 4; 
56 3; 57 20; 58 1; 60 1; 62 2; 
63 10; 64 5; 65 19; 67 35; 72 2; 
73 2; 74 7; 75 2; 76 2; 77 22; 
78 9; 79 7; 81 6; 87 1; 89 13; 
90 4; 91 62; 92 9; 93 6; 101 1; 
102 6; 103 12; 104 13; 105 31; 106 3; 
107 1; 114 1; 115 55; 116 17; 117 96; 
118 13; 119 8; 120 8; 127 5; 128 13; 
129 7; 130 4; 131 12; 132 38; 133 85; 
134 12; 141 2; 142 1; 143 2; 144 2; 
145 2; 146 1; 147 20; 148 8; 158 1; 
159 4; 160 5; 174 3; 175 1; 176 5; 
189 2; 190 2; 191 1; 
