Name: N-formyl-3,4-dimethoxymethamphetamine
InChIKey: MMPRWRCCFWTOGG-UHFFFAOYSA-N
Formula: C13H19NO3
MW: 237
ExactMass: 237.136494
CASNO: 0
ID: 907
Comment: ENFSI
Num Peaks: 132
38 3; 39 30; 40 6; 41 19; 42 46; 
43 34; 44 14; 45 5; 50 9; 51 33; 
52 12; 53 12; 54 5; 55 12; 56 72; 
57 17; 58 554; 59 22; 60 3; 62 4; 
63 16; 64 9; 65 52; 66 11; 67 5; 
68 2; 69 2; 70 6; 71 5; 72 5; 
73 1; 74 2; 75 3; 76 6; 77 62; 
78 44; 79 32; 80 9; 81 4; 82 6; 
83 2; 84 2; 86 999; 87 50; 88 4; 
89 24; 90 27; 91 57; 92 12; 93 9; 
94 10; 95 7; 96 2; 97 10; 98 2; 
99 1; 100 12; 101 1; 102 4; 103 18; 
104 8; 105 44; 106 49; 107 98; 108 24; 
109 8; 110 1; 111 1; 112 1; 114 1; 
115 11; 116 4; 117 9; 118 10; 119 10; 
120 7; 121 14; 122 8; 123 4; 124 3; 
128 5; 129 1; 130 2; 131 7; 132 6; 
133 8; 134 6; 135 47; 136 15; 137 24; 
138 8; 139 2; 144 1; 145 1; 146 4; 
147 18; 148 9; 149 12; 150 6; 151 336; 
152 49; 153 5; 160 3; 161 4; 162 41; 
163 54; 164 13; 165 4; 166 1; 167 1; 
174 1; 175 1; 176 5; 178 876; 179 114; 
180 11; 181 1; 190 1; 191 1; 192 4; 
193 2; 194 1; 204 1; 205 1; 206 2; 
207 2; 208 1; 216 1; 219 1; 220 1; 
237 22; 238 4; 
