Name: N-desmethyltramadol
InChIKey: VUMQHLSPUAFKKK-UHFFFAOYSA-N
Formula: C15H23NO2
MW: 249
ExactMass: 249.172879
CASNO: 0
ID: 1097
Comment: AAFS
Num Peaks: 164
43 38; 44 570; 45 22; 50 12; 51 26; 
52 10; 53 30; 54 11; 55 136; 56 26; 
57 20; 58 11; 59 1; 60 4; 62 5; 
63 37; 64 41; 65 62; 66 16; 67 30; 
68 22; 69 40; 70 84; 71 7; 72 11; 
73 12; 74 5; 75 8; 76 22; 77 175; 
78 56; 79 51; 80 49; 81 19; 82 8; 
83 9; 84 19; 85 1; 86 5; 87 5; 
88 1; 89 17; 90 11; 91 96; 92 101; 
93 23; 94 27; 95 7; 96 18; 97 11; 
98 8; 99 1; 100 62; 101 7; 102 15; 
103 26; 104 13; 105 23; 106 7; 107 117; 
108 90; 109 38; 110 7; 111 2; 112 9; 
113 4; 114 16; 115 55; 116 17; 117 24; 
118 11; 119 14; 120 12; 121 117; 122 37; 
123 4; 124 6; 126 3; 127 16; 128 34; 
129 68; 130 17; 131 28; 132 12; 133 22; 
134 170; 135 312; 136 39; 137 10; 138 4; 
139 1; 140 4; 141 14; 142 11; 143 7; 
144 26; 145 54; 146 19; 147 38; 148 22; 
150 223; 151 25; 152 6; 153 4; 154 3; 
155 6; 156 7; 157 73; 158 34; 159 166; 
160 151; 161 30; 162 15; 163 80; 164 13; 
165 2; 168 1; 169 6; 170 3; 171 14; 
172 14; 173 142; 174 27; 175 25; 176 29; 
177 9; 178 5; 179 1; 182 1; 184 6; 
185 8; 186 11; 187 79; 188 999; 189 189; 
190 22; 191 2; 192 21; 193 5; 199 6; 
200 14; 201 9; 202 21; 203 7; 204 2; 
205 2; 206 23; 207 4; 216 7; 217 6; 
218 61; 219 16; 220 4; 221 1; 228 1; 
230 7; 231 29; 232 6; 234 2; 246 1; 
247 1; 249 254; 250 46; 251 5; 
