Name: Levetiracetam
Synon: (S)-2-(2-oxopyrrolidin-1-yl)butanamide
InChIKey: HPHUVLMMVZITSG-LURJTMIESA-N
Formula: C8H14N2O2
MW: 170
ExactMass: 170.105528
CASNO: 102767282
ID: 1098
Comment: AAFS
Num Peaks: 44
42 32; 43 14; 44 36; 45 1; 52 1; 
53 2; 54 13; 55 27; 56 31; 57 5; 
58 68; 59 3; 67 3; 68 18; 69 171; 
70 35; 71 11; 72 31; 73 1; 79 1; 
80 1; 81 4; 82 5; 83 6; 84 30; 
85 2; 86 11; 87 12; 96 11; 97 4; 
98 66; 99 4; 108 2; 110 2; 112 17; 
113 2; 124 4; 126 999; 127 85; 128 5; 
141 1; 142 2; 170 24; 171 2; 
