Name: Norpropoxyphene
InChIKey: IKACRWYHQXOSGM-UHFFFAOYSA-N
Formula: C21H27NO2
MW: 325
ExactMass: 325.20418
CASNO: 3376941
ID: 1108
Comment: AAFS / Probability Based Matching Data Base Entry
Num Peaks: 170
28 18; 29 34; 30 5; 31 3; 32 3; 
39 44; 40 5; 41 28; 42 74; 43 39; 
44 999; 45 48; 50 10; 51 38; 52 11; 
53 32; 54 49; 55 303; 56 42; 57 64; 
58 33; 59 3; 60 4; 62 4; 63 23; 
64 5; 65 45; 66 5; 67 5; 68 10; 
69 34; 70 20; 71 26; 72 21; 73 7; 
74 8; 75 12; 76 20; 77 98; 78 36; 
79 22; 80 3; 81 15; 82 26; 83 38; 
84 7; 85 19; 86 13; 87 11; 88 12; 
89 40; 90 7; 91 431; 92 31; 94 7; 
96 6; 97 5; 98 22; 99 106; 100 134; 
101 23; 102 40; 103 57; 104 17; 105 74; 
107 3; 108 4; 109 4; 110 5; 111 5; 
112 18; 113 48; 114 11; 115 156; 116 37; 
117 26; 118 7; 120 3; 123 3; 125 5; 
126 48; 127 134; 128 186; 129 361; 130 62; 
131 11; 132 7; 133 5; 136 7; 137 4; 
139 16; 140 7; 141 21; 142 40; 143 54; 
144 13; 147 5; 149 10; 151 21; 152 54; 
153 22; 154 160; 155 18; 157 7; 158 28; 
159 5; 160 26; 161 4; 163 8; 164 10; 
165 68; 166 15; 167 10; 168 11; 170 3; 
172 3; 173 6; 174 3; 175 2; 176 33; 
177 21; 178 149; 179 65; 180 10; 181 3; 
186 9; 187 3; 188 9; 189 59; 190 43; 
191 105; 192 44; 193 19; 194 3; 197 47; 
199 5; 200 8; 201 6; 202 46; 203 56; 
204 49; 205 523; 206 109; 207 161; 208 51; 
209 7; 214 2; 215 6; 216 8; 217 8; 
218 6; 219 48; 220 844; 221 173; 222 14; 
224 12; 233 7; 234 10; 235 4; 236 6; 
248 6; 249 3; 250 7; 251 29; 252 7; 
278 3; 286 8; 307 8; 314 16; 315 4; 
