Name: Paraquat
Synon: 1,1'-dimethyl-4,4'-bipyridinium dichloride
Synon: Paraquat dichloride
InChIKey: FIKAKWIAUPDISJ-UHFFFAOYSA-L
Formula: C12H14Cl2N2
MW: 256
ExactMass: 256.053404
CASNO: 1910425
ID: 1109
Comment: AAFS / Probability Based Matching Data Base Entry
Num Peaks: 88
40 3; 41 8; 42 4; 43 5; 44 2; 
47 5; 48 3; 49 12; 50 107; 51 107; 
52 31; 53 7; 55 6; 57 3; 60 3; 
61 13; 62 29; 63 47; 64 7; 65 5; 
66 2; 67 4; 69 4; 71 3; 73 13; 
74 79; 75 98; 76 106; 77 34; 78 44; 
79 18; 80 2; 81 4; 83 5; 84 3; 
85 8; 86 13; 87 19; 88 10; 89 25; 
90 5; 91 3; 92 3; 93 5; 94 3; 
95 3; 97 6; 98 14; 100 17; 101 55; 
102 107; 103 81; 104 18; 105 4; 109 2; 
111 2; 113 2; 114 4; 115 9; 116 41; 
117 9; 118 5; 123 2; 126 3; 127 15; 
128 120; 129 88; 130 70; 131 8; 139 2; 
141 9; 143 10; 144 4; 153 8; 154 510; 
156 999; 157 117; 158 7; 168 3; 169 16; 
170 20; 171 106; 172 13; 184 2; 185 3; 
186 22; 187 4; 195 3; 
