Name: Floctafenine
InChIKey: APQPGQGAWABJLN-UHFFFAOYSA-N
Formula: C20H17F3N2O4
MW: 406
ExactMass: 406.114042
CASNO: 0
ID: 1115
Comment: AAFS
Num Peaks: 162
43 39; 44 15; 45 23; 50 11; 51 16; 
52 6; 57 30; 61 17; 62 5; 63 19; 
64 18; 65 18; 69 14; 74 8; 76 13; 
77 29; 78 5; 81 7; 87 5; 88 7; 
89 30; 90 41; 91 18; 92 31; 93 7; 
95 11; 99 13; 100 8; 105 5; 106 8; 
107 5; 111 8; 114 11; 115 9; 116 19; 
118 10; 119 20; 120 14; 123 5; 124 5; 
125 10; 126 7; 127 5; 128 6; 130 6; 
133 6; 134 21; 137 5; 138 8; 139 7; 
140 6; 143 11; 144 13; 145 9; 147 21; 
148 26; 149 19; 150 16; 151 9; 158 33; 
163 14; 164 18; 165 8; 168 9; 169 56; 
170 14; 175 6; 176 57; 177 21; 178 7; 
182 7; 183 9; 188 14; 189 17; 190 68; 
191 20; 192 8; 193 5; 194 7; 196 8; 
198 7; 200 9; 201 7; 202 6; 203 5; 
207 7; 208 11; 209 5; 212 5; 213 8; 
214 9; 215 27; 216 51; 217 57; 218 58; 
219 23; 220 10; 221 13; 226 8; 227 11; 
228 30; 229 7; 232 10; 233 8; 235 12; 
236 31; 237 10; 238 8; 239 27; 240 18; 
244 17; 245 24; 246 49; 247 70; 248 14; 
257 7; 258 31; 259 7; 264 13; 265 83; 
266 141; 267 248; 268 49; 269 6; 273 14; 
275 43; 276 7; 277 6; 283 6; 284 8; 
286 999; 287 495; 288 81; 289 7; 293 10; 
294 643; 295 388; 296 70; 297 8; 311 6; 
312 8; 313 102; 314 563; 315 429; 316 79; 
317 8; 331 8; 332 66; 333 321; 334 60; 
335 7; 345 6; 347 30; 348 7; 374 8; 
375 90; 376 18; 388 17; 389 16; 406 775; 
407 188; 408 25; 
