Name: Cholesterol
Synon: Cholest-5-en-3.beta.-ol
InChIKey: HVYWMOMLDIMFJA-UHFFFAOYSA-N
Formula: C27H46O
MW: 386
ExactMass: 386.354866
CASNO: 57885
ID: 1121
Comment: AAFS
Num Peaks: 302
42 67; 43 999; 44 76; 45 8; 46 1; 
48 1; 49 1; 50 4; 51 5; 52 1; 
53 109; 54 30; 55 848; 56 92; 57 736; 
58 18; 59 5; 60 4; 61 2; 62 1; 
63 3; 64 1; 65 59; 66 26; 67 534; 
68 68; 69 523; 70 43; 71 343; 72 13; 
73 8; 74 2; 75 5; 76 1; 77 211; 
78 62; 79 572; 80 99; 81 773; 82 100; 
83 364; 84 48; 85 97; 86 21; 87 1; 
88 2; 89 5; 91 681; 92 138; 93 582; 
94 192; 95 812; 96 105; 97 176; 98 23; 
99 22; 100 12; 101 7; 102 9; 103 49; 
104 18; 105 747; 106 217; 107 832; 108 199; 
109 379; 110 54; 111 126; 112 11; 113 18; 
114 6; 115 58; 116 34; 117 215; 118 127; 
119 536; 120 348; 121 392; 122 103; 123 215; 
124 107; 125 114; 126 19; 127 31; 128 69; 
129 134; 130 97; 131 341; 132 137; 133 440; 
134 185; 135 344; 136 93; 137 87; 138 50; 
139 14; 141 12; 142 52; 143 282; 144 146; 
145 711; 146 174; 147 387; 148 106; 149 249; 
150 44; 151 79; 152 35; 153 13; 154 5; 
155 23; 156 15; 157 155; 158 196; 159 498; 
160 294; 161 461; 162 106; 163 376; 164 54; 
165 62; 166 17; 167 6; 168 4; 169 25; 
170 20; 171 163; 172 65; 173 231; 174 84; 
175 94; 176 54; 177 89; 178 206; 179 76; 
180 8; 181 5; 182 5; 183 18; 184 16; 
185 136; 186 68; 187 141; 188 41; 189 73; 
190 22; 191 92; 192 33; 193 44; 194 11; 
195 7; 196 5; 197 41; 198 9; 199 189; 
200 48; 201 93; 202 25; 203 38; 204 4; 
205 41; 206 50; 207 35; 208 10; 209 7; 
210 2; 211 30; 212 9; 213 492; 214 131; 
215 91; 216 19; 217 45; 218 22; 219 71; 
220 50; 221 10; 222 6; 223 2; 225 6; 
226 6; 227 71; 228 101; 229 98; 230 25; 
231 271; 232 61; 233 39; 234 21; 235 2; 
236 1; 238 7; 239 14; 240 9; 241 54; 
242 13; 243 12; 244 8; 245 63; 246 62; 
247 173; 248 34; 249 3; 250 3; 251 3; 
252 1; 253 7; 254 4; 255 340; 256 87; 
257 25; 258 10; 259 39; 260 59; 261 42; 
262 24; 263 8; 267 4; 268 1; 269 11; 
270 8; 271 13; 272 18; 273 321; 274 221; 
275 752; 276 154; 277 17; 278 1; 281 4; 
283 21; 284 3; 285 22; 286 12; 287 29; 
288 12; 289 8; 290 5; 291 2; 294 1; 
295 2; 297 12; 298 7; 299 12; 300 13; 
301 624; 302 157; 303 26; 304 3; 307 1; 
309 2; 310 1; 311 22; 312 8; 313 40; 
314 40; 315 22; 316 8; 317 2; 318 1; 
320 1; 323 2; 324 2; 325 4; 326 83; 
327 51; 328 11; 329 29; 330 9; 331 5; 
332 2; 333 2; 337 1; 339 8; 340 7; 
341 14; 342 10; 343 27; 344 6; 349 3; 
351 1; 353 361; 354 92; 355 15; 356 5; 
357 11; 358 6; 359 3; 363 1; 367 4; 
368 401; 369 109; 370 13; 371 360; 372 97; 
373 12; 379 1; 384 6; 386 912; 387 260; 
388 46; 389 5; 
