Name: 2-Amino-5-chloropyridine
Synon: Zopiclone artifact
InChIKey: MAXBVGJEFDMHNV-UHFFFAOYSA-N
Formula: C5H5ClN2
MW: 128
ExactMass: 128.014126
CASNO: 1072986
ID: 1152
Comment: AAFS
Num Peaks: 57
41 55; 42 8; 43 6; 47 17; 48 4; 
49 20; 50 47; 51 30; 52 23; 53 8; 
54 8; 60 8; 61 3; 62 12; 63 17; 
64 49; 65 49; 66 137; 67 14; 68 13; 
71 3; 72 16; 73 80; 74 59; 75 43; 
76 36; 77 6; 78 1; 79 1; 84 2; 
85 5; 86 4; 87 2; 88 4; 89 1; 
90 3; 91 5; 92 22; 93 89; 94 5; 
98 2; 99 7; 100 38; 101 628; 102 43; 
103 200; 104 10; 111 1; 112 3; 113 1; 
114 1; 126 1; 127 16; 128 999; 129 69; 
130 318; 131 20; 
