Name: 1-[2-(Trifluoromethyl)phenyl]piperazine
Synon: 2-TFMPP
Synon: 2-Trifluoromethylphenylpiperazine
Synon: 1-(o-Trifluoromethylphenyl) piperazine
Synon: o-TFMPP
Synon: ortho-TFMPP
InChIKey: VZUBMIDXJRGARE-UHFFFAOYSA-N
Formula: C11H13F3N2
MW: 230
ExactMass: 230.103083
CASNO: 0
ID: 1156
Comment: AAFS
Num Peaks: 130
42 36; 43 19; 44 10; 50 10; 51 14; 
52 4; 53 2; 54 11; 55 14; 56 157; 
57 86; 58 5; 59 1; 61 1; 62 4; 
63 9; 64 3; 65 3; 66 1; 67 2; 
68 3; 69 9; 70 2; 71 1; 74 5; 
75 26; 76 9; 77 17; 78 5; 79 1; 
81 6; 82 2; 83 8; 84 2; 85 4; 
87 2; 88 4; 89 4; 90 3; 91 14; 
92 1; 93 2; 94 4; 95 34; 96 5; 
99 6; 100 3; 101 13; 102 3; 103 2; 
104 3; 105 4; 106 2; 107 13; 108 3; 
109 20; 110 2; 112 1; 113 3; 114 5; 
115 4; 116 3; 117 6; 118 11; 119 9; 
120 2; 121 1; 122 1; 125 28; 126 23; 
127 71; 128 9; 129 1; 130 4; 131 5; 
132 7; 133 4; 134 10; 135 5; 136 5; 
137 1; 138 5; 139 3; 140 3; 141 2; 
143 3; 144 4; 145 158; 146 15; 147 2; 
148 9; 149 1; 151 2; 152 11; 153 3; 
154 34; 155 6; 156 2; 159 45; 160 8; 
161 1; 162 4; 163 1; 166 5; 167 1; 
168 12; 169 2; 170 1; 171 4; 172 167; 
173 108; 174 13; 175 9; 180 4; 181 2; 
182 5; 186 3; 188 999; 189 100; 190 5; 
191 1; 200 5; 201 1; 211 6; 212 1; 
213 1; 228 2; 230 142; 231 16; 232 1; 
