Name: 1-[4-(Trifluoromethyl)phenyl]piperazine
Synon: 4-TFMPP
Synon: 4-Trifluoromethylphenylpiperazine
Synon: p-TFMPP
Synon: 1-(para-Trifluoromethylphenyl)piperazine
Synon: para-TFMPP
InChIKey: IBQMAPSJLHRQPE-UHFFFAOYSA-N
Formula: C11H13F3N2
MW: 230
ExactMass: 230.103083
CASNO: 0
ID: 1157
Comment: AAFS
Num Peaks: 125
42 24; 43 9; 44 4; 50 8; 51 10; 
52 3; 53 1; 54 9; 55 9; 56 98; 
57 44; 58 3; 62 2; 63 7; 64 2; 
65 2; 68 3; 69 8; 70 1; 74 4; 
75 22; 76 8; 77 10; 78 2; 80 1; 
81 4; 82 1; 83 5; 84 1; 85 2; 
87 1; 88 3; 89 3; 90 2; 91 3; 
93 1; 94 2; 95 35; 96 7; 97 1; 
99 5; 100 3; 101 3; 102 2; 103 3; 
104 6; 105 8; 106 1; 107 6; 108 1; 
109 14; 110 1; 112 1; 113 4; 114 5; 
115 12; 116 1; 117 6; 118 15; 119 19; 
120 2; 121 1; 122 2; 123 1; 125 30; 
126 26; 127 26; 128 2; 130 6; 131 5; 
132 4; 133 4; 134 3; 135 1; 138 1; 
139 3; 140 5; 141 4; 142 1; 143 2; 
145 228; 146 19; 147 1; 148 2; 151 2; 
152 3; 153 2; 154 29; 155 5; 156 1; 
158 1; 159 56; 160 8; 161 2; 166 6; 
168 3; 169 8; 170 1; 172 196; 173 115; 
174 47; 175 13; 176 1; 180 2; 182 1; 
185 2; 186 6; 188 999; 189 123; 190 5; 
198 3; 199 2; 200 11; 201 2; 202 2; 
211 77; 212 9; 213 2; 215 1; 227 2; 
228 3; 229 5; 230 268; 231 35; 232 2; 
