Name: N-Propyl-3,4-methylenedioxyamphetamine
Synon: N-propyl-MDA
Synon: 3,4-Methylenedioxy-N-propylamphetamine
Synon: MDPR
Synon: MDPA
InChIKey: LBXMQBTXOLBCCA-UHFFFAOYSA-N
Formula: C13H19NO2
MW: 221
ExactMass: 221.141579
CASNO: 74698365
ID: 1160
Comment: ENFSI
Num Peaks: 79
38 1; 39 14; 40 2; 41 32; 42 22; 
43 34; 44 224; 45 6; 50 6; 51 35; 
52 6; 53 6; 54 3; 55 3; 56 25; 
57 12; 58 5; 62 2; 63 10; 64 3; 
65 10; 66 2; 67 3; 68 2; 70 12; 
71 1; 74 2; 75 3; 76 6; 77 75; 
78 20; 79 18; 80 3; 84 21; 86 999; 
87 57; 88 2; 89 8; 90 3; 91 8; 
92 2; 93 1; 96 6; 102 3; 103 17; 
104 11; 105 32; 106 9; 107 3; 115 1; 
116 1; 117 2; 118 3; 119 1; 120 1; 
121 5; 122 2; 131 8; 132 3; 133 9; 
134 4; 135 123; 136 21; 137 2; 146 1; 
147 7; 148 5; 149 3; 160 1; 161 5; 
162 7; 163 19; 164 2; 176 1; 190 1; 
192 2; 206 5; 219 2; 220 2; 
