Name: Dehydronorketamine
Synon: 6-Amino-6-(2-chlorophenyl)-2-cyclohexen-1-one
Synon: 5,6-Dehydronorketamine
InChIKey: BXBPJMHHWPXBJL-UHFFFAOYSA-N
Formula: C12H12ClNO
MW: 221
ExactMass: 221.060741
CASNO: 57683622
ID: 1163
Comment: AAFS
Num Peaks: 128
42 67; 43 4; 44 1; 49 3; 50 45; 
51 85; 52 36; 53 43; 54 35; 55 15; 
56 16; 57 3; 59 3; 61 5; 62 13; 
63 36; 65 46; 67 7; 68 49; 69 5; 
70 4; 71 1; 72 4; 73 8; 74 30; 
75 100; 76 55; 77 126; 78 31; 79 10; 
80 20; 81 7; 82 59; 83 1; 84 4; 
85 9; 86 8; 87 11; 88 8; 89 62; 
90 31; 91 135; 92 13; 93 3; 94 1; 
97 2; 98 3; 99 11; 100 7; 101 50; 
102 210; 103 53; 104 134; 105 12; 106 1; 
109 1; 110 6; 111 14; 112 22; 113 16; 
114 18; 115 75; 116 38; 117 100; 118 402; 
119 39; 120 2; 123 2; 124 1; 125 34; 
126 11; 127 30; 128 33; 129 20; 130 98; 
131 53; 132 13; 133 1; 136 7; 137 14; 
138 480; 139 90; 140 184; 141 79; 142 30; 
143 115; 144 19; 145 1; 149 20; 150 4; 
151 12; 153 999; 154 135; 155 414; 156 71; 
157 41; 158 83; 159 10; 162 2; 164 18; 
165 4; 166 51; 167 9; 168 22; 169 12; 
170 3; 175 6; 176 3; 177 12; 178 12; 
179 4; 180 4; 186 20; 187 3; 190 6; 
191 1; 192 43; 193 10; 194 13; 195 3; 
203 1; 204 2; 205 1; 206 2; 221 234; 
222 33; 223 78; 224 10; 
