Name: Memantine
Synon: 3,5-dimethyladamantan-1-amine
Synon: Ebixa
Synon: Abixa
Synon: Akatinol
Synon: Axura
Synon: Namenda
Synon: Memary
Synon: Memox
Synon: 3,5-dimethyltricyclo[3.3.1.13,7]decan-1amine
InChIKey: BUGYDGFZZOZRHP-UHFFFAOYSA-N
Formula: C12H21N
MW: 179
ExactMass: 179.167399
CASNO: 19982082
ID: 1164
Comment: AAFS
Num Peaks: 69
43 15; 44 6; 47 1; 48 3; 50 1; 
51 7; 52 4; 53 26; 54 14; 55 37; 
56 14; 57 60; 58 31; 59 3; 61 5; 
63 2; 65 21; 66 9; 67 24; 68 9; 
69 8; 70 8; 71 3; 73 2; 74 2; 
77 46; 78 7; 79 38; 80 19; 81 20; 
82 15; 83 4; 84 1; 89 2; 91 51; 
92 8; 93 69; 94 40; 95 14; 96 5; 
97 1; 102 1; 103 4; 104 2; 105 26; 
106 21; 107 131; 108 999; 109 89; 110 7; 
115 3; 116 1; 117 3; 118 1; 119 7; 
120 10; 122 973; 123 99; 124 6; 134 1; 
135 1; 136 5; 137 1; 148 1; 164 40; 
165 6; 179 143; 180 20; 181 1; 
