Name: Varenicline
Synon: Chantix
Synon: Champix
Synon: 7,8,9,10-tetrahydro- 6,10-methano- 6H-pyrazino (2,3-h)(3) benzazepine
InChIKey: JQSHBVHOMNKWFT-DTORHVGOSA-N
Formula: C13H13N3
MW: 211
ExactMass: 211.110948
CASNO: 249296444
ID: 1165
Comment: AAFS
Num Peaks: 78
43 33; 44 226; 45 5; 50 7; 51 12; 
52 7; 53 2; 61 1; 62 5; 63 19; 
64 11; 65 4; 66 1; 70 1; 74 6; 
75 11; 76 11; 77 21; 78 8; 79 1; 
86 3; 87 6; 88 9; 89 8; 90 4; 
91 4; 92 3; 98 2; 99 3; 100 4; 
101 13; 102 16; 103 4; 104 1; 106 1; 
113 31; 114 48; 115 23; 116 6; 117 1; 
125 3; 126 41; 127 107; 128 58; 129 7; 
130 1; 138 1; 139 3; 140 17; 141 17; 
142 7; 143 3; 151 1; 152 5; 153 9; 
154 24; 155 11; 156 3; 166 1; 167 66; 
168 999; 169 321; 170 50; 171 4; 179 3; 
180 11; 181 99; 182 26; 183 4; 193 1; 
194 1; 195 1; 207 1; 208 2; 209 1; 
210 2; 211 24; 212 3; 
