Name: Stiripentol
Synon: (RS)-(E)-4,4-dimethyl-1-[3,4(methylenedioxy)-phenyl]-1-penten-3-ol
InChIKey: IBLNKMRFIPWSOY-FNORWQNLSA-N
Formula: C14H18O3
MW: 234
ExactMass: 234.125594
CASNO: 49763964
ID: 1166
Comment: AAFS
Num Peaks: 106
42 2; 43 12; 45 1; 50 4; 51 11; 
52 3; 53 7; 55 46; 56 2; 57 38; 
58 2; 62 6; 63 22; 64 7; 65 45; 
66 4; 67 1; 69 2; 71 1; 73 1; 
74 3; 75 6; 76 4; 77 21; 78 5; 
79 6; 80 1; 81 2; 86 1; 87 4; 
88 10; 89 42; 90 11; 91 111; 92 13; 
93 3; 94 2; 95 1; 100 1; 101 6; 
102 10; 103 18; 104 2; 105 4; 106 1; 
107 2; 114 1; 115 14; 116 4; 117 12; 
118 13; 119 99; 120 11; 121 12; 122 11; 
123 2; 127 5; 128 12; 129 7; 130 5; 
131 13; 132 2; 133 2; 134 1; 135 69; 
136 7; 141 2; 142 1; 143 6; 144 2; 
145 15; 146 11; 147 344; 148 50; 149 16; 
150 2; 151 1; 157 2; 158 1; 159 75; 
160 17; 161 4; 162 1; 163 1; 164 1; 
171 7; 172 2; 173 4; 175 15; 176 13; 
177 999; 178 118; 179 12; 185 1; 186 3; 
187 3; 201 13; 202 3; 203 1; 216 10; 
217 3; 218 2; 219 3; 234 94; 235 14; 
236 1; 
