Name: Ropinirole
Synon: Requip
Synon: 4-[2-(dipropylamino)ethyl]-1,3-dihydro-2H-indol-2-one
InChIKey: UHSKFQJFRQCDBE-UHFFFAOYSA-N
Formula: C16H24N2O
MW: 260
ExactMass: 260.188864
CASNO: 91374219
ID: 1167
Comment: AAFS
Num Peaks: 92
42 45; 43 49; 44 14; 51 3; 52 3; 
53 1; 54 3; 55 3; 56 6; 57 4; 
58 20; 59 1; 63 3; 64 1; 65 7; 
66 2; 68 1; 69 1; 70 11; 71 17; 
72 63; 73 3; 76 1; 77 14; 78 5; 
79 4; 80 2; 82 1; 84 14; 85 1; 
86 51; 87 4; 89 6; 90 5; 91 22; 
92 3; 93 1; 95 1; 98 2; 100 1; 
101 7; 102 4; 103 9; 104 6; 105 10; 
106 2; 112 6; 113 1; 114 999; 115 105; 
116 12; 117 21; 118 7; 119 3; 120 1; 
128 3; 129 1; 130 37; 131 13; 132 31; 
133 5; 142 1; 143 1; 144 2; 145 6; 
146 18; 147 5; 152 1; 157 1; 158 2; 
159 7; 160 63; 161 8; 162 1; 165 2; 
167 1; 171 2; 172 1; 174 3; 179 1; 
185 1; 186 1; 187 3; 188 1; 201 3; 
229 2; 231 26; 232 4; 245 1; 258 1; 
259 4; 260 1; 
