Name: Ramelteon
Synon: Rozerem
Synon: (S)-N-[2-(1,6,7,8-tetrahydro-2H-indeno-[5,4-b]furan-8-yl)ethyl]propionamide
InChIKey: YLXDSYKOBKBWJQ-LBPRGKRZSA-N
Formula: C16H21NO2
MW: 259
ExactMass: 259.157228
CASNO: 196597269
ID: 1168
Comment: AAFS
Num Peaks: 138
43 42; 44 180; 45 19; 46 3; 50 21; 
51 90; 52 31; 53 51; 54 16; 55 73; 
57 399; 58 129; 59 22; 60 2; 62 15; 
63 66; 64 24; 65 71; 66 10; 67 9; 
68 4; 69 6; 70 10; 71 5; 72 33; 
74 38; 75 23; 76 31; 77 144; 78 51; 
79 35; 80 5; 81 5; 82 2; 83 1; 
84 8; 86 81; 87 567; 88 36; 89 44; 
91 195; 92 21; 93 3; 94 2; 95 1; 
96 1; 98 10; 100 51; 101 39; 102 61; 
103 74; 104 23; 105 36; 106 6; 107 13; 
108 2; 109 1; 111 1; 112 1; 113 7; 
115 419; 116 154; 117 66; 118 17; 119 6; 
120 2; 121 2; 122 1; 124 1; 126 29; 
127 153; 128 370; 129 293; 130 98; 131 180; 
132 52; 133 50; 134 4; 135 1; 137 1; 
139 31; 141 138; 142 50; 143 82; 144 161; 
145 98; 146 27; 147 5; 148 3; 149 1; 
150 1; 151 9; 152 31; 153 39; 154 17; 
155 36; 157 357; 158 345; 159 450; 160 242; 
161 33; 162 2; 165 5; 166 3; 167 7; 
168 11; 169 41; 171 606; 172 209; 173 548; 
174 121; 175 13; 181 1; 182 3; 183 11; 
185 234; 186 999; 187 150; 188 21; 198 1; 
199 1; 200 3; 202 42; 203 9; 212 1; 
213 2; 214 1; 216 1; 229 5; 230 18; 
231 3; 242 3; 255 1; 256 3; 259 710; 
260 127; 261 10; 262 1; 
