Name: Solifenacin
Synon: Vesicare
Synon: 1-azabicyclo[2.2.2]oct-8-yl (1S)-1-phenyl-3,4-dihydro-1H-isoquinoline-2-carboxylate
InChIKey: FBOUYBDGKBSUES-KEKNWZKVSA-N
Formula: C23H26N2O2
MW: 362
ExactMass: 362.199429
CASNO: 242478382
ID: 1169
Comment: AAFS
Num Peaks: 150
40 5; 41 67; 42 148; 43 32; 44 77; 
45 2; 50 3; 51 14; 52 5; 53 25; 
54 27; 55 112; 56 28; 57 9; 58 6; 
63 5; 64 1; 65 14; 66 3; 67 17; 
68 26; 69 35; 70 54; 71 3; 73 1; 
74 1; 75 4; 76 6; 77 49; 78 15; 
79 34; 80 22; 81 95; 82 178; 83 69; 
84 6; 87 1; 88 2; 89 12; 90 5; 
91 115; 92 11; 93 11; 94 32; 95 8; 
96 49; 97 15; 98 109; 99 9; 100 1; 
101 4; 102 11; 103 44; 104 24; 105 81; 
106 11; 107 4; 108 80; 109 773; 110 692; 
111 95; 112 35; 113 4; 115 158; 116 23; 
117 12; 118 2; 124 2; 126 999; 127 87; 
128 20; 129 8; 130 118; 131 59; 132 39; 
133 4; 135 1; 139 6; 140 2; 141 3; 
142 3; 150 3; 151 10; 152 24; 153 6; 
154 1; 156 1; 158 40; 159 5; 160 3; 
163 5; 164 8; 165 71; 166 15; 167 3; 
174 2; 175 1; 176 32; 177 19; 178 261; 
179 113; 180 21; 181 10; 186 1; 187 1; 
188 1; 189 6; 190 5; 191 28; 192 16; 
193 198; 194 32; 195 2; 202 3; 203 3; 
204 14; 205 7; 206 43; 207 15; 208 58; 
209 11; 210 1; 217 1; 218 1; 219 1; 
220 2; 221 1; 222 88; 223 16; 224 1; 
228 1; 234 5; 235 7; 236 63; 237 11; 
238 1; 248 7; 249 4; 250 2; 251 4; 
252 33; 253 9; 254 4; 281 1; 285 2; 
334 4; 335 1; 362 195; 363 50; 364 7; 
