Name: Palmitoleic Acid
Synon: Fatty Acid: Palmitoleic
Synon: cis-Palmitoleic acid
Synon: 9-cis-Hexadecenoic acid
Synon: hexadec-9-enoic acid
InChIKey: SECPZKHBENQXJG-FPLPWBNLSA-N
Formula: C16H30O2
MW: 254
ExactMass: 254.22458
CASNO: 373499
ID: 1174
Comment: AAFS
Num Peaks: 132
42 130; 43 423; 44 19; 45 88; 51 7; 
52 6; 53 82; 54 215; 55 999; 56 332; 
57 224; 58 15; 59 29; 60 140; 61 15; 
65 28; 66 22; 67 311; 68 240; 69 811; 
70 322; 71 137; 72 10; 73 209; 74 12; 
77 28; 78 8; 79 85; 80 47; 81 300; 
82 266; 83 610; 84 421; 85 96; 86 14; 
87 89; 88 8; 91 26; 92 7; 93 38; 
94 50; 95 200; 96 331; 97 470; 98 331; 
99 59; 100 60; 101 89; 102 12; 103 3; 
105 19; 106 8; 107 32; 108 35; 109 126; 
110 183; 111 209; 112 100; 113 50; 114 108; 
115 45; 116 10; 118 4; 119 37; 120 15; 
121 32; 122 22; 123 135; 124 103; 125 100; 
126 39; 127 77; 128 18; 129 26; 130 7; 
133 39; 134 32; 135 30; 136 21; 137 98; 
138 78; 139 42; 140 17; 141 26; 142 4; 
143 8; 144 5; 147 29; 148 25; 149 23; 
150 11; 151 69; 152 74; 153 29; 154 10; 
155 15; 156 3; 157 5; 158 9; 161 21; 
162 5; 163 8; 164 6; 165 41; 166 19; 
167 9; 169 5; 171 8; 172 6; 175 12; 
176 4; 177 3; 179 26; 180 9; 181 4; 
185 3; 189 5; 192 51; 193 36; 194 46; 
195 9; 207 19; 208 9; 211 6; 218 10; 
219 3; 221 4; 236 110; 237 26; 238 2; 
254 25; 255 5; 
