Name: N-acetyl-2-fluoroamphetamine
Synon: N-acetyl-o-fluoroamphetamine
InChIKey: WOSUETSVEIEXFW-UHFFFAOYSA-N
Formula: C11H14FNO
MW: 195
ExactMass: 195.105943
CASNO: 0
ID: 1180
Comment: ENFSI / NFI in house reference
Num Peaks: 82
38 2; 39 19; 40 3; 41 12; 42 49; 
43 202; 44 999; 45 28; 50 7; 51 12; 
52 3; 53 1; 54 1; 56 6; 57 40; 
58 6; 59 11; 60 21; 61 2; 62 8; 
63 27; 64 4; 65 6; 66 1; 68 2; 
69 3; 70 6; 74 3; 75 10; 76 2; 
77 5; 78 2; 80 1; 81 9; 82 3; 
83 91; 84 5; 85 3; 86 505; 87 26; 
88 3; 89 20; 90 4; 91 10; 92 1; 
94 2; 95 4; 96 8; 97 1; 101 10; 
102 3; 103 2; 105 1; 107 25; 108 8; 
109 218; 110 24; 111 2; 115 18; 116 6; 
117 10; 118 8; 119 1; 120 2; 121 5; 
122 4; 130 2; 131 1; 132 2; 133 16; 
134 4; 135 55; 136 84; 137 14; 138 35; 
139 3; 150 1; 151 2; 152 10; 153 1; 
195 6; 196 2; 
