Name: N-acetyl-4-fluoroamphetamine
Synon: N-acetyl-p-fluoroamphetamine
InChIKey: ULCAARWSYAQPHN-UHFFFAOYSA-N
Formula: C11H14FNO
MW: 195
ExactMass: 195.105943
CASNO: 0
ID: 1182
Comment: ENFSI / NFI inhouse reference
Num Peaks: 82
38 2; 39 20; 40 3; 41 14; 42 50; 
43 203; 44 999; 45 28; 50 7; 51 11; 
52 2; 53 1; 54 1; 56 7; 57 41; 
58 5; 59 12; 60 28; 61 2; 62 8; 
63 23; 64 3; 65 4; 67 1; 68 2; 
69 3; 70 5; 74 3; 75 11; 76 2; 
77 3; 78 1; 80 1; 81 9; 82 3; 
83 89; 84 6; 85 2; 86 373; 87 20; 
88 2; 89 14; 90 2; 91 5; 94 2; 
95 7; 96 9; 97 2; 101 11; 102 2; 
103 2; 105 1; 106 1; 107 26; 108 10; 
109 229; 110 28; 111 2; 115 15; 116 7; 
117 5; 118 3; 120 3; 121 6; 122 5; 
123 1; 124 1; 132 1; 133 20; 134 6; 
135 103; 136 275; 137 32; 138 22; 139 2; 
148 1; 150 1; 151 3; 152 8; 175 2; 
195 4; 196 1; 
