Name: N-Ethyl-2C-B
Synon: N-ethyl-4-Bromo-2,5-dimethoxyphenethylamine
InChIKey: FTXAZQUDSNEXMB-UHFFFAOYSA-N
Formula: C12H18BrNO2
MW: 287
ExactMass: 287.052092
CASNO: 0
ID: 1187
Comment: ENFSI / SKL
Num Peaks: 128
29 15; 30 69; 31 1; 38 1; 39 7; 
40 1; 41 3; 42 10; 43 7; 44 2; 
50 6; 51 13; 52 3; 53 15; 54 2; 
55 1; 56 23; 57 10; 58 999; 59 38; 
61 1; 62 3; 63 13; 64 7; 65 10; 
66 2; 67 3; 68 1; 74 2; 75 6; 
76 7; 77 39; 78 14; 79 8; 80 2; 
81 1; 87 1; 88 1; 89 14; 90 11; 
91 22; 92 11; 93 4; 94 1; 102 1; 
103 2; 104 4; 105 23; 106 12; 107 5; 
108 4; 117 2; 118 2; 119 5; 120 6; 
121 10; 122 4; 123 1; 129 3; 130 3; 
131 1; 132 2; 133 5; 134 6; 135 4; 
136 4; 137 2; 143 6; 144 1; 145 5; 
146 1; 147 2; 148 6; 149 3; 150 3; 
151 1; 155 1; 156 1; 157 2; 158 1; 
159 1; 160 1; 162 1; 163 1; 164 4; 
169 3; 170 1; 171 5; 172 1; 173 2; 
175 1; 176 1; 177 1; 178 1; 184 2; 
185 2; 186 5; 187 2; 188 3; 192 1; 
199 9; 200 1; 201 9; 202 1; 213 6; 
214 1; 215 11; 216 2; 217 5; 227 1; 
228 4; 229 9; 230 71; 231 13; 232 64; 
233 6; 240 1; 242 2; 243 3; 244 1; 
245 2; 254 1; 255 1; 256 2; 257 1; 
258 1; 287 2; 289 1; 
