Name: 4-Hydroxy-N-methyl-N-ethyltryptamine
Synon: 4-HO-MET
InChIKey: ORWQBKPSGDRPPA-UHFFFAOYSA-N
Formula: C13H18N2O
MW: 218
ExactMass: 218.141913
CASNO: 0
ID: 1192
Comment: ENFSI / SKL
Num Peaks: 61
29 12; 30 5; 32 1; 39 11; 41 7; 
42 35; 43 13; 44 153; 45 5; 50 3; 
51 12; 52 3; 53 5; 54 2; 55 2; 
56 10; 57 5; 58 12; 62 3; 63 11; 
64 3; 65 15; 68 2; 70 4; 72 999; 
73 51; 74 3; 75 4; 76 4; 77 15; 
78 6; 86 2; 89 13; 90 14; 91 17; 
92 4; 101 4; 102 4; 103 6; 104 6; 
105 2; 113 4; 114 4; 115 13; 116 4; 
117 23; 118 13; 128 2; 129 4; 130 24; 
131 6; 132 3; 133 3; 145 3; 146 31; 
147 4; 158 3; 159 11; 160 14; 218 92; 
219 12; 
