Name: 1-(3-Chlorophenyl)-4-(3-chloropropyl)piperazine
Synon: mCPCPP
InChIKey: NDQKGEFMUGSRNS-UHFFFAOYSA-N
Formula: C13H18Cl2N2
MW: 272
ExactMass: 272.084703
CASNO: 0
ID: 1196
Comment: ENFSI
Num Peaks: 175
36 5; 37 3; 38 8; 39 50; 40 11; 
41 231; 42 441; 43 283; 44 22; 49 30; 
50 27; 51 55; 52 11; 53 7; 54 55; 
55 49; 56 233; 57 47; 58 11; 61 6; 
62 7; 63 29; 64 11; 65 13; 66 3; 
67 5; 68 25; 69 22; 70 589; 71 54; 
72 6; 73 9; 74 14; 75 111; 76 34; 
77 98; 78 20; 79 8; 80 5; 81 4; 
82 24; 83 13; 84 51; 85 13; 86 3; 
87 33; 89 26; 90 22; 91 21; 92 5; 
93 1; 94 3; 95 2; 96 18; 97 21; 
98 295; 99 36; 100 3; 101 7; 102 13; 
103 19; 105 152; 106 67; 107 9; 108 16; 
109 2; 110 4; 111 258; 112 44; 113 85; 
114 14; 115 5; 116 8; 117 44; 118 107; 
119 19; 120 49; 121 4; 122 7; 123 1; 
124 3; 125 106; 126 13; 127 36; 128 6; 
129 3; 130 38; 131 33; 132 311; 133 31; 
134 96; 135 7; 136 5; 137 6; 138 354; 
139 431; 140 251; 141 146; 142 46; 143 10; 
144 8; 145 6; 146 3; 147 3; 148 1; 
150 2; 151 8; 152 16; 153 35; 154 50; 
155 16; 156 15; 157 4; 158 1; 159 4; 
160 3; 161 3; 163 1; 164 6; 165 7; 
166 291; 167 51; 168 111; 169 17; 170 6; 
171 1; 172 1; 173 3; 174 14; 175 2; 
178 6; 179 8; 180 8; 181 95; 182 11; 
183 29; 184 3; 191 2; 192 1; 193 7; 
194 65; 195 29; 196 22; 197 7; 198 1; 
206 1; 207 16; 208 11; 209 999; 210 133; 
211 319; 212 40; 213 2; 223 4; 225 1; 
230 5; 232 3; 235 2; 236 2; 237 5; 
238 2; 239 2; 257 16; 258 2; 259 9; 
260 1; 261 2; 270 4; 271 14; 272 297; 
273 54; 274 190; 275 30; 276 31; 277 4; 
