Name: BAY 59-3074
Synon: 3-[2-Cyano-3-(trifluoromethyl)phenoxy]phenyl 4,4,4-trifluoro-1-butanesulfonic acid ester
InChIKey: LWUSZIVDPJPVBW-UHFFFAOYSA-N
Formula: C18H13F6NO4S
MW: 453
ExactMass: 453.046947
CASNO: 406205741
ID: 1202
Comment: ENFSI / Jason Nawyn, United States Army Criminal Investigation Laboratory
Num Peaks: 206
37 2; 38 16; 39 32; 40 3; 41 19; 
42 1; 45 2; 47 110; 48 5; 49 1; 
50 10; 51 25; 52 27; 53 8; 54 1; 
55 3; 57 2; 59 5; 61 4; 62 12; 
63 87; 64 115; 65 94; 66 11; 67 1; 
68 2; 69 28; 70 1; 71 21; 72 1; 
74 3; 75 12; 76 8; 77 9; 78 1; 
79 5; 80 15; 81 9; 82 2; 83 1; 
87 2; 88 4; 89 6; 90 2; 91 139; 
92 63; 93 55; 94 5; 95 15; 96 1; 
99 3; 100 5; 101 2; 102 1; 106 1; 
107 2; 108 6; 109 3; 110 1; 111 14; 
112 2; 113 1; 115 1; 117 1; 119 2; 
120 7; 124 2; 125 4; 126 5; 127 3; 
131 1; 132 7; 133 1; 138 3; 139 11; 
140 9; 141 2; 143 4; 144 1; 145 2; 
146 1; 150 6; 151 9; 152 5; 153 29; 
154 12; 155 2; 156 1; 157 3; 158 3; 
159 2; 160 4; 163 1; 164 3; 165 1; 
168 1; 169 3; 170 15; 171 6; 172 13; 
173 2; 174 1; 175 9; 176 10; 177 3; 
180 4; 181 9; 182 17; 183 7; 184 6; 
185 1; 186 1; 187 3; 188 1; 189 3; 
190 13; 191 19; 192 4; 193 8; 194 3; 
195 15; 196 6; 197 1; 198 2; 200 2; 
201 2; 202 44; 203 46; 204 8; 205 2; 
206 1; 208 1; 209 24; 210 7; 211 38; 
212 12; 213 4; 214 3; 215 9; 216 1; 
217 1; 218 16; 219 2; 220 1; 221 3; 
222 10; 223 38; 224 14; 225 3; 229 2; 
230 23; 231 138; 232 25; 233 7; 234 3; 
235 2; 236 3; 237 44; 238 15; 239 3; 
240 13; 241 2; 242 14; 243 2; 248 1; 
249 2; 250 45; 251 51; 252 9; 253 5; 
258 106; 259 23; 260 7; 261 2; 262 5; 
263 2; 264 4; 265 5; 266 2; 277 2; 
279 999; 280 160; 281 13; 292 24; 293 4; 
294 1; 306 2; 308 2; 320 1; 330 1; 
348 1; 350 4; 370 1; 372 2; 388 10; 
389 9; 390 1; 414 5; 415 1; 434 33; 
435 7; 436 2; 453 501; 454 105; 455 36; 
456 5; 
