Name: HU-308
Synon: [(1R,2R,5R)-2-[2,6-dimethoxy-4-(2-methyloctan-2-yl)phenyl]-7,7-dimethyl-4-bicyclo[3.1.1]hept-3-enyl] methanol
InChIKey: CFMRIVODIXTERW-HWELCPFYSA-N
Formula: C27H42O3
MW: 414
ExactMass: 414.313395
CASNO: 256934391
ID: 1203
Comment: ENFSI / Estonian Forensic Service Centre, Cayman Chemical
Num Peaks: 335
31 6; 39 10; 41 80; 42 6; 43 149; 
45 4; 51 2; 52 1; 53 14; 54 1; 
55 57; 56 7; 57 108; 58 5; 59 8; 
63 2; 64 1; 65 11; 66 4; 67 28; 
68 3; 69 65; 70 5; 71 153; 72 8; 
73 3; 75 2; 76 2; 77 35; 78 11; 
79 76; 80 8; 81 29; 82 4; 83 24; 
84 2; 85 118; 86 8; 87 2; 88 1; 
89 8; 90 3; 91 133; 92 17; 93 46; 
94 9; 95 19; 96 5; 97 9; 98 4; 
99 4; 100 3; 101 4; 102 5; 103 22; 
104 14; 105 91; 106 17; 107 43; 108 12; 
109 18; 110 5; 111 8; 112 6; 113 9; 
114 6; 115 54; 116 24; 117 60; 118 19; 
119 135; 120 41; 121 63; 122 13; 123 13; 
124 12; 125 9; 126 8; 127 35; 128 56; 
129 43; 130 12; 131 55; 132 63; 133 58; 
134 74; 135 78; 136 12; 137 19; 138 13; 
139 36; 140 10; 141 52; 142 39; 143 22; 
144 14; 145 25; 146 22; 147 45; 148 76; 
149 54; 150 25; 151 87; 152 45; 153 36; 
154 15; 155 28; 156 20; 157 18; 158 19; 
159 29; 160 15; 161 42; 162 38; 163 34; 
164 18; 165 105; 166 35; 167 32; 168 18; 
169 20; 170 11; 171 25; 172 17; 173 33; 
174 17; 175 34; 176 15; 177 72; 178 63; 
179 168; 180 173; 181 54; 182 20; 183 29; 
184 17; 185 24; 186 14; 187 33; 188 18; 
189 61; 190 24; 191 89; 192 79; 193 64; 
194 49; 195 44; 196 21; 197 36; 198 21; 
199 31; 200 24; 201 34; 202 23; 203 48; 
204 23; 205 86; 206 44; 207 29; 208 46; 
209 58; 210 25; 211 34; 212 24; 213 33; 
214 21; 215 153; 216 32; 217 23; 218 14; 
219 27; 220 14; 221 26; 222 39; 223 38; 
224 21; 225 37; 226 16; 227 71; 228 23; 
229 43; 230 12; 231 24; 232 14; 233 171; 
234 136; 235 33; 236 14; 237 57; 238 20; 
239 95; 240 30; 241 57; 242 44; 243 39; 
244 10; 245 35; 246 13; 247 15; 248 12; 
249 13; 250 7; 251 19; 252 8; 253 34; 
254 18; 255 80; 256 57; 257 35; 258 8; 
259 16; 260 7; 261 28; 262 18; 263 26; 
264 42; 265 57; 266 14; 267 22; 268 31; 
269 60; 270 37; 271 29; 272 11; 273 32; 
274 14; 275 13; 277 999; 278 198; 279 36; 
280 8; 281 21; 282 8; 283 39; 284 28; 
285 54; 286 64; 287 23; 288 5; 289 6; 
290 22; 291 73; 292 16; 293 269; 294 55; 
295 15; 296 10; 297 55; 298 28; 299 26; 
300 13; 301 11; 302 5; 303 45; 304 12; 
305 51; 306 13; 307 3; 309 16; 310 15; 
311 291; 312 239; 313 61; 314 17; 315 12; 
316 6; 317 16; 318 955; 319 220; 320 29; 
321 3; 322 2; 323 3; 324 2; 325 11; 
326 25; 327 28; 328 16; 329 37; 330 31; 
331 51; 332 15; 333 3; 337 2; 338 2; 
339 12; 340 26; 341 138; 342 37; 343 23; 
344 9; 345 21; 346 30; 347 7; 348 1; 
350 1; 351 3; 353 882; 354 248; 355 62; 
356 21; 357 11; 358 33; 359 8; 360 1; 
365 75; 366 22; 367 13; 368 8; 369 41; 
370 46; 371 52; 372 14; 373 2; 379 1; 
381 123; 382 48; 383 196; 384 58; 385 14; 
386 4; 387 1; 394 9; 395 9; 396 220; 
397 66; 398 23; 399 9; 400 2; 412 16; 
413 6; 414 326; 415 95; 416 16; 417 2; 
