Name: 2,5-Dimethoxyphenylethylsulfide
InChIKey: NOJIAOYXQOQUSJ-UHFFFAOYSA-N
Formula: C10H14O2S
MW: 198
ExactMass: 198.07145
CASNO: 0
ID: 1207
Comment: ENFSI / J. of the CLIC Assoc., Vol. 9, no.4. October 1999, pp 17-20
Num Peaks: 137
30 3; 31 3; 35 3; 37 5; 38 11; 
39 84; 40 7; 41 30; 42 2; 43 9; 
44 3; 45 103; 46 7; 47 13; 48 2; 
49 3; 50 25; 51 86; 52 30; 53 94; 
54 43; 55 49; 56 2; 57 29; 58 23; 
59 301; 60 12; 61 25; 62 18; 63 47; 
64 22; 65 61; 66 15; 67 13; 68 5; 
69 48; 70 31; 71 17; 72 3; 73 4; 
74 4; 75 14; 76 5; 77 49; 78 17; 
79 70; 80 12; 81 10; 82 28; 83 32; 
84 28; 85 59; 86 5; 87 3; 89 2; 
90 1; 91 25; 92 35; 93 27; 94 16; 
95 117; 96 77; 97 58; 98 14; 99 25; 
100 1; 101 2; 103 3; 104 5; 105 8; 
106 6; 107 33; 108 73; 109 120; 110 34; 
111 120; 112 33; 113 7; 114 3; 118 2; 
119 4; 120 2; 121 45; 122 35; 123 284; 
124 330; 125 81; 126 38; 127 82; 128 7; 
129 4; 132 1; 133 5; 134 9; 135 34; 
136 8; 137 93; 138 30; 139 37; 140 19; 
141 11; 142 2; 143 1; 144 1; 148 2; 
149 56; 150 116; 151 50; 152 15; 153 69; 
154 230; 155 269; 156 33; 157 13; 158 1; 
161 4; 162 1; 164 1; 165 4; 166 3; 
167 41; 168 109; 169 34; 170 17; 171 3; 
172 1; 181 1; 182 2; 183 360; 184 33; 
185 18; 195 1; 197 1; 198 999; 199 108; 
200 53; 201 5; 
