Name: 2,5-Dimethoxy-4-ethylthionitrostyrene
InChIKey: ZKNRQPAJRMNCMS-AATRIKPKSA-N
Formula: C12H15NO4S
MW: 269
ExactMass: 269.07218
CASNO: 0
ID: 1209
Comment: ENFSI / J. of the CLIC Assoc., Vol. 9, no.4. October 1999, pp 17-20
Num Peaks: 163
38 36; 39 154; 40 54; 41 51; 42 20; 
43 52; 44 98; 45 211; 46 35; 47 33; 
50 80; 51 158; 52 33; 53 209; 54 25; 
55 33; 57 35; 58 62; 59 521; 60 44; 
61 52; 62 55; 63 140; 64 40; 65 105; 
66 51; 67 42; 68 26; 69 190; 70 23; 
71 35; 74 34; 75 69; 76 49; 77 168; 
78 52; 79 97; 80 31; 81 31; 82 63; 
83 34; 84 38; 85 202; 86 27; 87 25; 
88 28; 89 81; 90 64; 91 179; 92 81; 
93 121; 94 104; 95 118; 96 73; 97 110; 
98 20; 99 24; 101 24; 102 46; 103 90; 
104 42; 105 69; 106 40; 107 83; 108 110; 
109 119; 110 75; 111 85; 112 39; 113 32; 
115 39; 116 20; 117 33; 118 81; 119 143; 
120 111; 121 250; 122 131; 123 171; 124 94; 
125 81; 126 41; 127 23; 129 31; 131 99; 
132 82; 133 235; 134 187; 135 102; 136 105; 
137 200; 138 88; 139 44; 140 32; 142 33; 
143 31; 144 22; 145 24; 146 49; 147 258; 
148 265; 149 160; 150 114; 151 163; 152 79; 
153 57; 154 79; 155 50; 157 26; 158 17; 
160 39; 161 85; 162 210; 163 261; 164 130; 
165 164; 166 56; 167 103; 168 110; 169 36; 
173 17; 174 42; 175 24; 176 35; 177 73; 
178 178; 179 151; 180 38; 181 80; 182 66; 
183 59; 184 19; 188 24; 189 51; 190 24; 
191 20; 192 65; 193 147; 194 192; 195 62; 
196 35; 197 59; 207 165; 208 83; 209 47; 
210 32; 211 89; 212 24; 222 591; 223 86; 
224 38; 225 26; 226 226; 227 23; 228 20; 
237 467; 238 75; 239 135; 240 36; 254 30; 
269 999; 270 135; 271 39; 
