Name: Lophophorine
Synon: 6-methoxy-1,2-dimethyl-7,8-methylenedioxy-1,2,3,4-tetrahydroisoquinoline
InChIKey: PNFBXEKHLUDPIM-UHFFFAOYSA-N
Formula: C13H17NO3
MW: 235
ExactMass: 235.120843
CASNO: 0
ID: 1212
Comment: DEA WRL / Peyote Alkaloid
Num Peaks: 114
15 10; 18 1; 27 3; 29 4; 30 2; 
38 1; 39 11; 40 1; 41 4; 42 29; 
44 2; 45 1; 50 5; 51 12; 52 5; 
53 7; 54 2; 55 4; 56 8; 58 1; 
59 3; 60 1; 62 3; 63 11; 64 4; 
65 15; 66 4; 67 3; 68 1; 69 1; 
74 3; 75 3; 76 6; 77 25; 78 10; 
79 8; 80 3; 81 2; 88 7; 89 10; 
90 6; 91 22; 92 5; 93 8; 94 3; 
97 1; 101 1; 102 5; 103 11; 104 7; 
105 7; 106 6; 107 3; 108 2; 110 35; 
115 4; 116 4; 117 8; 118 21; 119 15; 
120 9; 121 12; 122 2; 129 1; 130 5; 
131 9; 132 8; 133 7; 134 4; 135 6; 
136 2; 143 1; 144 1; 145 4; 146 7; 
147 27; 148 14; 149 10; 150 1; 158 1; 
159 4; 160 5; 161 5; 162 10; 163 3; 
164 1; 165 1; 173 2; 174 5; 175 16; 
176 10; 177 13; 178 2; 179 2; 188 5; 
189 4; 190 8; 191 5; 192 20; 193 2; 
203 3; 204 11; 205 111; 206 16; 207 1; 
218 13; 220 999; 221 139; 222 14; 223 1; 
233 1; 234 18; 235 22; 236 3; 
