Name: Anhalonine
Synon: 6-methoxy-1-methyl-7,8-methylenedioxy-1,2,3,4-tetrahydroisoquinoline
InChIKey: YEGBVDVRKMCCON-UHFFFAOYSA-N
Formula: C12H15NO3
MW: 221
ExactMass: 221.105193
CASNO: 519040
ID: 1213
Comment: DEA WRL / Peyote alkaloid
Num Peaks: 121
14 3; 15 7; 16 1; 17 1; 27 3; 
28 8; 29 5; 30 4; 31 1; 36 1; 
38 2; 39 12; 40 1; 41 3; 43 2; 
45 2; 51 13; 52 7; 53 10; 55 3; 
56 5; 58 5; 59 1; 61 1; 62 4; 
63 13; 64 5; 65 16; 66 6; 67 5; 
68 2; 69 1; 73 1; 74 5; 75 5; 
76 8; 77 26; 78 14; 79 11; 80 6; 
81 3; 83 1; 86 1; 87 2; 88 2; 
89 14; 90 7; 91 23; 92 7; 93 11; 
94 4; 95 4; 103 39; 104 22; 105 15; 
106 10; 107 8; 108 2; 109 2; 110 2; 
115 2; 116 3; 117 9; 118 16; 119 11; 
120 7; 121 13; 122 2; 123 1; 130 4; 
131 7; 132 7; 133 27; 134 11; 135 12; 
136 2; 137 1; 144 2; 145 6; 146 6; 
147 12; 148 11; 149 7; 150 1; 151 1; 
158 1; 159 3; 160 5; 161 20; 162 10; 
163 10; 164 3; 165 2; 173 2; 174 2; 
175 9; 176 10; 177 6; 178 5; 179 3; 
188 1; 189 4; 190 11; 191 132; 192 39; 
193 7; 202 1; 203 1; 204 22; 205 34; 
206 999; 207 132; 208 15; 209 1; 217 1; 
218 7; 219 6; 220 66; 221 78; 222 8; 
223 1; 
