Name: 3,4,5-Trimethoxybenzoyl Chloride
InChIKey: BUHYMJLFRZAFBF-UHFFFAOYSA-N
Formula: C10H11ClO4
MW: 230
ExactMass: 230.034587
CASNO: 4521613
ID: 1225
Comment: DEA WRL
Num Peaks: 143
14 4; 15 77; 26 1; 27 11; 29 22; 
30 3; 31 5; 35 3; 36 4; 37 18; 
38 63; 39 25; 40 1; 41 4; 43 11; 
44 1; 45 14; 49 25; 50 108; 51 39; 
52 9; 53 106; 54 5; 55 6; 57 3; 
58 1; 59 6; 60 2; 61 19; 62 29; 
63 45; 64 8; 65 33; 66 136; 67 9; 
69 8; 73 39; 74 13; 75 29; 76 25; 
77 76; 78 33; 79 30; 80 6; 81 73; 
82 6; 83 2; 85 5; 86 2; 87 3; 
89 3; 90 6; 91 10; 92 26; 93 30; 
94 17; 95 20; 96 27; 97 12; 99 8; 
100 2; 101 9; 102 1; 103 5; 104 6; 
105 5; 106 20; 107 32; 108 11; 109 74; 
110 4; 111 4; 112 1; 113 13; 114 2; 
115 3; 116 8; 118 2; 119 12; 120 7; 
121 14; 122 74; 123 15; 124 47; 125 4; 
126 2; 127 11; 129 43; 130 3; 131 12; 
132 3; 133 5; 134 24; 135 12; 136 8; 
137 79; 138 8; 139 21; 140 3; 141 4; 
142 2; 143 2; 144 33; 145 3; 146 8; 
148 1; 149 19; 150 18; 151 26; 152 118; 
153 11; 154 1; 157 2; 159 35; 160 2; 
161 12; 162 1; 163 2; 164 1; 165 7; 
166 3; 167 52; 168 4; 169 1; 171 1; 
173 1; 179 17; 180 4; 187 18; 188 2; 
189 7; 193 1; 195 999; 196 109; 197 14; 
198 1; 213 1; 214 1; 215 1; 230 180; 
231 21; 232 56; 233 6; 
