Name: Thiomescaline
InChIKey: FYTOAZIRBXNPKZ-UHFFFAOYSA-N
Formula: C11H17NO2S
MW: 227
ExactMass: 227.098
CASNO: 0
ID: 1229
Comment: DEA WRL / unconfirmed structure
Num Peaks: 70
14 195; 17 48; 21 45; 27 91; 30 999; 
32 42; 39 67; 40 85; 41 55; 43 51; 
44 58; 45 155; 53 154; 63 76; 64 32; 
66 25; 67 83; 69 56; 71 42; 74 20; 
77 195; 78 58; 79 84; 81 33; 84 23; 
85 52; 90 25; 91 155; 92 44; 93 93; 
95 38; 96 51; 97 67; 99 27; 105 40; 
107 52; 108 97; 109 182; 110 52; 111 109; 
119 42; 120 55; 121 97; 122 105; 123 77; 
124 54; 135 43; 137 171; 138 64; 139 92; 
148 38; 149 22; 150 29; 151 165; 152 245; 
153 115; 154 45; 167 391; 168 104; 169 41; 
181 23; 183 588; 184 51; 185 46; 197 473; 
198 990; 199 100; 200 69; 227 320; 228 53; 
