Name: 1-Piperidino-1-cyclohexene
Synon: PCC Decomposition Product
InChIKey: KPVMGWQGPJULFL-UHFFFAOYSA-N
Formula: C11H19N
MW: 165
ExactMass: 165.15175
CASNO: 2981104
ID: 1233
Comment: DEA WRL
Num Peaks: 89
14 1; 17 4; 19 4; 20 2; 24 3; 
26 10; 27 79; 28 71; 29 44; 31 2; 
32 13; 34 1; 38 2; 39 145; 40 32; 
41 351; 42 112; 43 15; 44 19; 45 1; 
50 15; 51 43; 52 38; 53 139; 54 208; 
55 177; 56 61; 57 16; 59 1; 63 4; 
64 6; 65 40; 66 36; 67 143; 68 100; 
69 133; 70 22; 71 2; 77 104; 78 39; 
79 158; 80 128; 81 179; 82 147; 83 74; 
84 130; 85 12; 91 16; 92 12; 93 39; 
94 268; 95 196; 96 130; 97 40; 98 46; 
105 13; 106 34; 108 258; 109 80; 110 54; 
111 25; 112 2; 117 1; 118 5; 119 7; 
120 28; 121 11; 122 410; 123 100; 124 63; 
131 3; 132 6; 134 41; 136 634; 137 176; 
138 21; 142 1; 146 2; 148 14; 150 999; 
151 120; 152 6; 160 10; 161 8; 162 20; 
164 660; 165 810; 166 90; 167 5; 
