Name: 2,4,5-Trimethoxyphenylethylamine
InChIKey: GKATTZLSNLYADI-UHFFFAOYSA-N
Formula: C11H17NO3
MW: 211
ExactMass: 211.120843
CASNO: 15394839
ID: 1237
Comment: DEA WRL
Num Peaks: 108
42 14; 43 33; 44 10; 45 17; 46 7; 
47 4; 49 2; 50 15; 51 42; 52 31; 
53 58; 54 17; 55 17; 57 3; 59 13; 
61 8; 62 10; 63 25; 64 33; 65 66; 
66 40; 67 56; 68 17; 69 66; 70 2; 
72 4; 73 1; 74 7; 75 7; 76 10; 
77 76; 78 43; 79 64; 80 65; 81 22; 
82 4; 83 5; 85 6; 87 1; 89 19; 
90 32; 91 88; 92 37; 93 53; 94 28; 
95 64; 96 12; 98 2; 99 1; 100 1; 
103 2; 104 6; 105 17; 106 33; 107 87; 
108 66; 109 44; 110 8; 111 2; 116 3; 
117 1; 118 3; 119 10; 120 12; 121 81; 
122 41; 123 42; 124 35; 125 9; 129 1; 
132 1; 133 2; 134 8; 135 27; 136 261; 
137 62; 138 51; 139 97; 140 10; 146 1; 
147 5; 148 8; 149 12; 150 5; 151 523; 
152 57; 153 29; 154 1; 162 3; 163 2; 
164 8; 165 8; 166 26; 167 392; 168 44; 
178 11; 179 13; 181 795; 182 999; 183 116; 
184 10; 194 3; 195 1; 207 2; 209 4; 
211 251; 212 33; 213 2; 
