Name: Lysergic Acid TMS Derivative
InChIKey: IBNPGZQFRNZDQI-UHFFFAOYSA-N
Formula: C19H24N2O2Si
MW: 340
ExactMass: 340.160704
CASNO: 0
ID: 1241
Comment: DEA WRL
Num Peaks: 108
18 27; 37 30; 40 27; 42 90; 44 108; 
45 201; 46 61; 47 56; 55 53; 61 39; 
69 19; 70 13; 73 606; 74 78; 75 231; 
76 53; 77 48; 80 8; 83 26; 84 29; 
87 10; 88 5; 89 27; 94 38; 96 15; 
99 20; 103 40; 110 62; 111 70; 115 45; 
117 47; 119 28; 125 31; 126 65; 127 165; 
128 73; 129 111; 130 23; 133 11; 138 23; 
139 88; 140 85; 141 123; 144 10; 145 12; 
150 77; 151 234; 152 271; 153 192; 154 472; 
155 83; 163 61; 164 50; 165 65; 166 68; 
167 191; 168 65; 169 23; 177 42; 178 374; 
179 431; 180 469; 181 252; 182 58; 184 8; 
190 33; 191 109; 192 267; 193 97; 194 119; 
195 135; 196 161; 197 25; 205 232; 206 219; 
207 999; 208 296; 209 61; 210 10; 213 10; 
219 39; 220 139; 221 638; 222 184; 223 395; 
224 81; 234 5; 237 28; 238 37; 240 8; 
252 21; 253 9; 254 12; 264 11; 265 16; 
267 14; 269 12; 281 22; 282 373; 283 89; 
284 25; 296 26; 297 68; 325 22; 339 60; 
340 639; 341 201; 342 48; 
