Name: Codeine TMS Derivative
InChIKey: RXSDDUCBUIPWHI-UHFFFAOYSA-N
Formula: C21H29NO3Si
MW: 371
ExactMass: 371.19167
CASNO: 74367149
ID: 1243
Comment: DEA WRL
Num Peaks: 288
42 408; 43 55; 44 168; 45 217; 46 13; 
47 26; 48 3; 49 5; 50 3; 51 14; 
52 21; 53 31; 54 9; 55 41; 56 13; 
57 30; 58 55; 59 203; 60 24; 61 22; 
63 20; 64 7; 65 29; 66 10; 67 21; 
69 12; 70 122; 71 16; 73 999; 74 92; 
75 164; 76 27; 77 80; 78 21; 79 29; 
80 21; 81 100; 82 38; 83 17; 84 6; 
85 7; 86 5; 87 7; 88 5; 89 34; 
90 9; 91 64; 92 22; 93 23; 94 171; 
95 25; 96 58; 97 12; 98 8; 99 6; 
101 16; 102 22; 103 69; 104 19; 105 31; 
106 32; 107 34; 108 18; 109 20; 110 21; 
111 15; 112 7; 113 12; 114 12; 115 127; 
116 32; 117 38; 118 30; 119 17; 120 20; 
121 18; 122 21; 123 9; 124 14; 125 5; 
126 18; 127 61; 128 84; 129 128; 130 60; 
131 51; 132 43; 133 23; 134 35; 135 24; 
136 19; 137 14; 138 13; 139 42; 140 29; 
141 59; 142 33; 143 20; 144 61; 145 50; 
146 608; 147 72; 148 29; 149 18; 150 17; 
151 54; 152 129; 153 73; 154 23; 155 60; 
156 44; 157 29; 158 42; 159 37; 160 29; 
161 32; 162 30; 163 28; 164 37; 165 106; 
166 52; 167 39; 168 50; 169 36; 170 38; 
171 43; 172 25; 173 54; 174 40; 175 52; 
176 37; 177 39; 178 797; 179 313; 180 67; 
181 82; 182 73; 183 46; 184 57; 185 67; 
186 55; 187 38; 188 168; 189 70; 190 68; 
191 22; 192 39; 193 60; 194 44; 195 100; 
196 544; 197 128; 198 71; 199 46; 200 32; 
201 38; 202 27; 203 39; 204 42; 205 32; 
206 29; 207 38; 208 39; 209 54; 210 42; 
211 60; 212 42; 213 20; 214 140; 215 32; 
216 55; 217 45; 218 28; 219 23; 220 26; 
221 35; 222 33; 223 70; 224 50; 225 53; 
226 31; 227 31; 228 49; 229 436; 230 103; 
231 21; 232 16; 233 24; 234 544; 235 169; 
236 66; 237 48; 238 56; 239 47; 240 44; 
241 35; 242 48; 243 22; 244 19; 245 11; 
246 8; 247 21; 248 19; 249 14; 250 25; 
251 24; 252 42; 253 75; 254 108; 255 56; 
256 33; 257 26; 258 10; 259 8; 260 7; 
261 3; 262 10; 263 9; 264 18; 265 18; 
266 111; 267 59; 268 59; 269 45; 270 31; 
271 15; 272 14; 273 6; 278 3; 279 11; 
280 179; 281 139; 282 169; 283 47; 284 28; 
285 39; 286 13; 287 9; 288 10; 293 5; 
295 7; 296 22; 297 58; 298 64; 299 29; 
301 7; 302 10; 303 2; 307 2; 308 3; 
309 6; 310 10; 311 6; 312 33; 313 217; 
314 126; 315 32; 316 8; 317 1; 322 6; 
324 29; 325 18; 326 16; 327 10; 328 36; 
329 8; 330 4; 338 4; 339 5; 340 10; 
341 10; 342 8; 343 215; 344 74; 345 18; 
346 5; 352 5; 354 25; 355 16; 356 126; 
357 33; 358 10; 369 12; 370 162; 371 885; 
372 262; 373 65; 374 14; 
