Name: Furosemide TMS Derivative
Synon: Lasix TMS
InChIKey: QHFIJEZTKHVYCC-UHFFFAOYSA-N
Formula: C18H27ClN2O5SSi2
MW: 474
ExactMass: 474.086773
CASNO: 0
ID: 1245
Comment: DEA WRL / Locations of TMS groups on structure unconfirmed
Num Peaks: 333
42 1; 43 16; 44 20; 45 77; 46 13; 
47 21; 48 2; 50 1; 51 8; 53 202; 
54 9; 55 1; 56 2; 58 7; 59 11; 
60 3; 61 12; 62 2; 63 6; 64 1; 
65 3; 68 4; 69 2; 73 174; 74 39; 
75 109; 76 9; 77 8; 78 2; 79 2; 
81 999; 82 52; 83 4; 87 1; 88 2; 
89 5; 90 2; 93 14; 94 3; 95 13; 
96 131; 97 12; 98 1; 99 1; 100 1; 
102 2; 103 2; 104 4; 105 2; 106 1; 
109 2; 110 2; 111 1; 112 1; 113 5; 
114 3; 115 5; 116 2; 117 2; 118 1; 
119 1; 120 2; 121 2; 122 2; 123 1; 
124 4; 125 2; 126 2; 127 2; 128 2; 
129 1; 130 2; 131 1; 132 2; 133 7; 
134 2; 135 2; 136 1; 137 2; 138 7; 
139 8; 140 12; 141 8; 142 2; 143 1; 
144 1; 145 1; 146 3; 147 3; 148 3; 
149 4; 150 2; 151 3; 152 5; 153 4; 
154 3; 155 3; 156 3; 157 2; 158 1; 
160 1; 161 1; 162 4; 163 1; 164 3; 
165 5; 166 4; 167 9; 168 12; 169 6; 
170 6; 171 3; 172 1; 173 1; 174 3; 
175 3; 176 4; 177 4; 178 2; 179 2; 
180 2; 181 2; 182 4; 183 4; 184 3; 
185 1; 186 1; 188 2; 189 1; 190 2; 
191 2; 192 1; 194 1; 195 2; 196 5; 
197 4; 198 4; 199 3; 200 2; 201 1; 
202 5; 203 9; 204 8; 205 7; 206 6; 
207 1; 208 1; 209 1; 210 2; 211 3; 
212 4; 213 2; 214 2; 215 3; 216 1; 
217 1; 218 2; 219 6; 220 3; 221 3; 
222 3; 223 2; 224 2; 225 1; 226 3; 
227 2; 228 2; 229 1; 230 5; 231 30; 
232 9; 233 11; 234 4; 235 2; 236 1; 
237 1; 238 1; 239 2; 240 5; 241 5; 
242 5; 243 2; 244 2; 245 1; 246 1; 
247 3; 248 3; 249 16; 250 3; 251 5; 
252 1; 253 1; 254 1; 255 2; 256 5; 
257 3; 258 3; 259 1; 260 2; 261 2; 
262 4; 263 2; 264 2; 265 1; 266 1; 
267 1; 268 1; 269 1; 270 1; 271 1; 
272 1; 275 3; 276 2; 277 4; 278 3; 
279 2; 280 1; 281 3; 282 1; 283 3; 
284 8; 285 3; 286 4; 287 1; 288 1; 
289 1; 290 3; 291 2; 292 3; 293 3; 
294 2; 295 1; 298 1; 299 1; 300 1; 
301 1; 302 1; 303 2; 304 1; 305 3; 
306 1; 307 1; 308 2; 309 1; 310 1; 
312 2; 313 16; 314 4; 315 8; 316 2; 
317 7; 318 1; 319 5; 320 2; 321 7; 
322 3; 323 2; 324 1; 325 2; 327 1; 
328 4; 329 4; 330 2; 331 2; 333 1; 
336 2; 337 1; 338 1; 339 2; 341 61; 
342 13; 343 27; 344 4; 345 2; 347 1; 
349 3; 350 1; 355 116; 356 136; 357 75; 
358 59; 359 15; 360 5; 361 1; 363 8; 
364 3; 365 4; 366 1; 367 2; 369 47; 
370 11; 371 20; 372 4; 373 2; 379 3; 
380 1; 381 1; 383 16; 384 40; 385 17; 
386 17; 387 4; 388 1; 391 1; 401 2; 
402 2; 403 2; 404 1; 409 1; 427 1; 
428 1; 429 1; 431 1; 439 1; 443 1; 
445 1; 446 4; 447 2; 448 2; 457 2; 
459 74; 460 22; 461 35; 462 9; 463 4; 
464 1; 473 2; 474 241; 475 80; 476 120; 
477 33; 478 15; 479 3; 
