Name: Nandrolone Acetate
InChIKey: TTWYUPSVWLOIRF-UHFFFAOYSA-N
Formula: C20H28O3
MW: 316
ExactMass: 316.203844
CASNO: 0
ID: 1249
Comment: DEA WRL
Num Peaks: 180
41 114; 43 999; 44 18; 51 12; 52 12; 
53 70; 54 14; 55 164; 56 9; 57 23; 
58 5; 59 1; 60 3; 62 1; 63 5; 
64 1; 65 60; 66 24; 67 127; 68 21; 
69 40; 71 12; 72 4; 76 1; 77 194; 
78 56; 79 238; 80 48; 81 107; 82 15; 
83 27; 84 3; 85 2; 86 4; 87 1; 
88 1; 89 2; 90 2; 91 308; 92 60; 
93 132; 94 54; 95 83; 96 17; 97 37; 
98 7; 99 1; 101 1; 102 3; 103 34; 
104 25; 105 171; 106 48; 107 132; 108 55; 
109 83; 110 457; 111 55; 112 2; 113 1; 
115 52; 116 21; 117 94; 118 39; 119 117; 
120 78; 121 65; 122 44; 123 69; 124 22; 
127 12; 128 36; 129 50; 130 20; 131 105; 
132 42; 133 104; 134 53; 135 75; 136 17; 
137 5; 139 3; 141 20; 142 16; 143 34; 
144 33; 145 77; 146 117; 147 175; 148 93; 
149 45; 150 9; 151 11; 152 6; 153 5; 
155 13; 156 11; 157 28; 158 26; 159 63; 
160 70; 161 44; 162 40; 163 26; 164 7; 
165 13; 166 3; 167 4; 168 2; 169 14; 
170 10; 171 29; 172 31; 173 40; 174 38; 
175 19; 176 5; 181 8; 182 8; 183 12; 
184 15; 185 47; 186 29; 187 27; 188 14; 
189 9; 190 2; 195 13; 196 5; 197 27; 
198 13; 199 50; 200 34; 201 17; 202 16; 
203 8; 206 9; 207 3; 209 5; 210 7; 
211 2; 212 20; 213 38; 214 48; 215 60; 
216 21; 217 16; 218 2; 223 14; 224 3; 
227 9; 228 24; 229 12; 230 9; 231 32; 
232 18; 233 2; 237 6; 238 32; 239 9; 
241 39; 242 4; 245 2; 246 13; 255 5; 
256 168; 257 33; 258 4; 259 6; 272 1; 
273 4; 274 110; 275 17; 287 1; 288 10; 
289 1; 298 2; 316 84; 317 16; 318 2; 
