Name: Mercuric bromide
Synon: Mercury (II) Bromide
InChIKey: NGYIMTKLQULBOO-UHFFFAOYSA-L
Formula: Br2Hg
MW: 360
ExactMass: 359.807318
CASNO: 7789471
ID: 1250
Comment: DEA WRL
Num Peaks: 72
50 1; 61 1; 62 1; 64 3; 66 1; 
70 1; 79 149; 81 145; 82 1; 99 1; 
100 9; 101 16; 102 3; 139 1; 140 1; 
157 2; 158 7; 159 2; 160 4; 178 1; 
179 9; 180 24; 181 23; 182 11; 196 1; 
198 109; 199 179; 200 253; 201 146; 202 322; 
204 75; 233 1; 234 2; 235 5; 236 3; 
237 6; 239 2; 268 3; 269 6; 270 11; 
271 7; 272 17; 274 10; 276 2; 277 26; 
278 46; 279 85; 280 75; 281 130; 282 35; 
283 92; 285 17; 312 36; 313 61; 314 132; 
315 128; 316 224; 317 84; 318 184; 319 16; 
320 65; 322 8; 356 116; 357 198; 358 480; 
359 539; 360 967; 361 483; 362 999; 363 148; 
364 486; 366 79; 
