Name: Stanolone Acetate
InChIKey: ILCTUFVQFCIIDS-UHFFFAOYSA-N
Formula: C21H32O3
MW: 332
ExactMass: 332.235146
CASNO: 0
ID: 1252
Comment: DEA WRL
Num Peaks: 169
41 118; 42 29; 43 999; 44 13; 51 4; 
52 4; 53 54; 54 16; 55 222; 56 19; 
57 26; 58 1; 61 5; 65 29; 66 11; 
67 140; 68 58; 69 47; 70 6; 71 11; 
77 76; 78 13; 79 168; 80 33; 81 148; 
82 28; 83 27; 84 5; 85 5; 86 2; 
91 137; 92 26; 93 137; 94 146; 95 126; 
96 18; 97 30; 98 6; 99 4; 101 1; 
103 9; 104 6; 105 101; 106 31; 107 123; 
108 41; 109 64; 110 25; 111 20; 112 3; 
113 1; 114 1; 115 14; 116 6; 117 29; 
118 15; 119 64; 120 28; 121 71; 122 46; 
123 67; 124 95; 125 14; 127 2; 128 6; 
129 12; 130 5; 131 38; 132 10; 133 54; 
134 23; 135 48; 136 20; 137 31; 138 4; 
139 1; 141 4; 142 2; 143 13; 144 11; 
145 37; 146 19; 147 58; 148 65; 149 162; 
150 23; 151 5; 152 1; 153 2; 155 2; 
156 2; 157 13; 158 9; 159 33; 160 12; 
161 72; 162 33; 163 64; 164 10; 165 6; 
169 2; 171 13; 172 8; 173 22; 174 14; 
175 22; 176 12; 177 9; 178 5; 179 8; 
183 4; 185 19; 186 5; 187 17; 188 5; 
189 15; 190 8; 191 4; 192 1; 197 5; 
198 2; 199 17; 200 25; 201 29; 202 13; 
203 9; 204 10; 205 2; 211 5; 212 1; 
213 18; 214 8; 215 25; 216 10; 217 23; 
218 6; 219 2; 225 1; 226 1; 227 1; 
228 1; 229 17; 230 13; 231 61; 232 11; 
233 6; 234 1; 239 15; 240 1; 243 3; 
244 24; 245 5; 246 7; 247 4; 254 3; 
255 2; 257 110; 258 22; 259 2; 260 4; 
261 1; 262 2; 271 3; 272 104; 273 22; 
274 1; 275 2; 317 1; 332 17; 
