Name: Penfluridol
Synon: 1-[4,4-bis(4-fluorophenyl)butyl]-4-[4-chloro-3-(trifluoromethyl)phenyl]piperidin-4-ol
InChIKey: MDLAAYDRRZXJIF-UHFFFAOYSA-N
Formula: C28H27ClF5NO
MW: 523
ExactMass: 523.17013
CASNO: 26864562
ID: 1266
Comment: AAFS
Num Peaks: 224
41 16; 42 174; 43 21; 44 24; 45 1; 
51 1; 53 3; 54 6; 55 15; 56 60; 
57 28; 58 8; 60 9; 63 1; 67 1; 
68 12; 69 9; 70 23; 71 5; 72 3; 
73 1; 74 1; 75 5; 77 2; 80 2; 
81 2; 82 13; 83 14; 84 24; 85 3; 
86 9; 87 1; 89 2; 91 1; 94 4; 
95 4; 96 12; 97 4; 98 15; 99 5; 
101 14; 103 8; 107 3; 109 113; 110 9; 
111 1; 112 4; 115 5; 116 1; 119 1; 
120 4; 121 12; 122 8; 123 9; 124 1; 
125 5; 126 1; 127 5; 128 7; 129 13; 
130 2; 131 3; 132 1; 133 15; 134 5; 
135 7; 136 3; 138 2; 139 1; 141 1; 
143 3; 144 6; 145 5; 146 8; 147 31; 
148 5; 149 13; 150 3; 151 8; 152 2; 
153 1; 156 1; 157 3; 158 3; 159 5; 
160 3; 161 4; 162 3; 163 5; 164 8; 
165 5; 166 4; 167 6; 168 1; 169 6; 
170 11; 171 3; 172 3; 173 1; 174 1; 
175 4; 176 3; 177 12; 178 5; 179 35; 
180 6; 181 16; 182 7; 183 114; 184 18; 
185 6; 186 1; 187 9; 188 10; 189 11; 
190 2; 191 4; 192 1; 193 37; 194 6; 
195 17; 196 9; 197 11; 198 18; 199 6; 
201 225; 202 45; 203 145; 204 22; 205 35; 
206 7; 207 62; 208 8; 209 19; 210 4; 
211 3; 212 2; 213 4; 214 12; 215 12; 
216 9; 217 7; 218 1; 219 2; 220 3; 
221 2; 222 4; 223 1; 224 2; 225 2; 
226 12; 227 7; 228 2; 229 3; 230 1; 
231 1; 232 3; 233 8; 234 3; 235 7; 
236 3; 237 3; 238 3; 239 11; 240 3; 
241 1; 242 7; 243 2; 244 5; 245 4; 
246 2; 247 2; 248 1; 250 2; 251 9; 
252 3; 253 4; 254 1; 255 1; 257 20; 
258 7; 259 3; 260 15; 261 203; 262 39; 
263 68; 264 16; 265 2; 266 2; 272 87; 
273 17; 274 265; 275 40; 276 88; 277 13; 
278 16; 279 103; 280 18; 281 35; 282 5; 
286 22; 287 5; 288 2; 289 3; 290 4; 
292 999; 293 151; 294 343; 295 49; 296 4; 
300 6; 301 2; 302 3; 304 1; 305 23; 
306 4; 307 8; 308 1; 318 4; 320 2; 
386 3; 388 1; 488 3; 489 1; 
