Name: Dibenzylketone
Synon: 1,3-Diphenylacetone
InChIKey: YFKBXYGUSOXJGS-UHFFFAOYSA-N
Formula: C15H14O
MW: 210
ExactMass: 210.1044655
CASNO: 102045
ID: 1269
Comment: ENFSI / byproduct synthesis of BMK from phenylacetic acid; J.For.Sci.,Vol.37 (5) 1992, pp 1311-1318 & J.For.Sci.Vol.37 (1) 1992,301-322
Num Peaks: 40
37 1; 38 6; 39 45; 40 3; 41 11; 
45 1; 50 9; 51 23; 52 6; 53 1; 
61 1; 62 9; 63 35; 64 10; 65 154; 
66 8; 74 2; 75 2; 76 3; 77 6; 
78 1; 86 1; 87 1; 89 35; 91 999; 
92 74; 93 2; 103 1; 104 1; 115 2; 
118 93; 119 126; 120 10; 152 1; 165 2; 
166 1; 178 1; 210 54; 211 9; 212 1; 
