Name: Phloroglucinol
Synon: 1,3,5-benzenetriol
InChIKey: QCDYQQDYXPDABM-UHFFFAOYSA-N
Formula: C6H6O3
MW: 126
ExactMass: 126.031694
CASNO: 108736
ID: 1278
Comment: DEA SWL
Num Peaks: 45
40 17; 41 104; 42 75; 43 104; 44 9; 
45 7; 48 3; 49 10; 50 43; 51 68; 
52 158; 53 73; 54 20; 55 86; 56 6; 
57 3; 61 11; 62 14; 63 46; 65 3; 
66 20; 67 10; 68 14; 69 235; 70 22; 
71 16; 77 6; 78 3; 79 37; 80 124; 
81 18; 83 8; 84 24; 85 166; 86 8; 
87 6; 97 137; 98 25; 108 5; 111 45; 
112 6; 125 9; 126 999; 127 67; 128 10; 
