Name: Halothane
Synon: 1,1,1-Trifluoro-2-bromo-2-chloroethane
InChIKey: BCQZXOMGPXTTIC-UHFFFAOYSA-N
Formula: C2HBrClF3
MW: 196
ExactMass: 195.890224
CASNO: 151677
ID: 1279
Comment: AAFS / Unverified / Probability Based Matching Data Base Entry
Num Peaks: 36
44 16; 47 9; 48 8; 50 11; 51 10; 
67 47; 69 46; 79 27; 81 22; 82 10; 
91 9; 92 13; 93 11; 98 67; 100 22; 
110 26; 112 20; 117 306; 118 10; 119 103; 
126 90; 128 107; 130 42; 141 11; 143 10; 
160 8; 162 11; 176 151; 177 15; 178 199; 
180 54; 195 729; 196 24; 197 999; 198 27; 
199 241; 
