Name: Corticosterone
Synon: 11-.beta.,21-Dihydroxypregn-3,20-dione
Synon: 4-Pregnene-11.beta.,21-diol-3,20-dione
Synon: (11.beta.)-11,21-Dihydroxypregn-4-ene-3,20-dione
Synon: 11,21-Dihydroxypregn-4-ene-3,20-dione
InChIKey: OMFXVFTZEKFJBZ-UHFFFAOYSA-N
Formula: C21H30O4
MW: 346
ExactMass: 346.214409
CASNO: 50226
ID: 1280
Comment: AAFS / Probability Based Matching Data Base Entry
Num Peaks: 146
41 170; 42 50; 43 207; 44 20; 45 252; 
51 16; 53 76; 54 21; 55 334; 56 46; 
57 129; 59 43; 60 40; 65 60; 66 30; 
67 214; 68 52; 69 203; 70 54; 71 153; 
73 53; 77 210; 78 68; 79 341; 80 62; 
81 275; 82 74; 83 161; 84 86; 85 123; 
86 29; 87 40; 91 415; 92 94; 93 219; 
94 65; 95 272; 96 75; 97 174; 98 58; 
99 91; 101 26; 103 50; 104 26; 105 243; 
106 75; 107 239; 108 58; 109 151; 110 43; 
111 86; 112 26; 113 75; 115 82; 116 35; 
117 98; 118 26; 119 154; 120 59; 121 236; 
122 80; 123 136; 124 83; 125 43; 126 16; 
127 43; 128 51; 129 100; 130 42; 131 131; 
132 27; 133 165; 134 64; 135 120; 136 43; 
137 70; 138 22; 139 16; 141 40; 142 30; 
143 87; 144 27; 145 306; 146 55; 147 180; 
148 51; 149 116; 150 17; 151 16; 153 24; 
155 57; 157 72; 158 23; 159 103; 160 22; 
161 182; 162 34; 163 71; 165 19; 167 24; 
169 37; 171 65; 172 19; 173 96; 174 25; 
175 80; 177 16; 179 15; 181 16; 183 22; 
185 50; 186 19; 187 36; 189 27; 195 31; 
197 24; 198 15; 199 47; 201 33; 209 29; 
211 36; 213 60; 215 16; 223 19; 225 24; 
227 188; 228 34; 229 18; 239 15; 241 34; 
243 18; 251 104; 252 15; 255 25; 257 18; 
269 516; 270 113; 271 22; 287 19; 297 31; 
301 25; 315 999; 316 205; 317 45; 328 90; 
329 26; 
