Name: Tenocyclidine
Synon: TCP
Synon: 1-[1-(2-thienyl)cyclohexyl]piperidine
Synon: TPCP
InChIKey: JUZZEWSCNBCFRL-UHFFFAOYSA-N
Formula: C15H23NS
MW: 249
ExactMass: 249.155121
CASNO: 21500981
ID: 1281
Comment: DEA SWL
Num Peaks: 151
40 10; 41 151; 42 73; 43 15; 44 11; 
45 59; 46 1; 47 4; 50 5; 51 20; 
52 9; 53 59; 54 30; 55 123; 56 55; 
57 16; 58 12; 59 7; 60 1; 61 1; 
62 2; 63 12; 64 3; 65 52; 66 19; 
67 55; 68 15; 69 31; 70 13; 71 10; 
72 1; 73 3; 74 3; 75 2; 76 3; 
77 58; 78 17; 79 80; 80 27; 81 171; 
82 31; 83 25; 84 221; 85 48; 86 71; 
87 6; 89 7; 90 3; 91 55; 92 7; 
93 5; 94 6; 95 6; 96 17; 97 999; 
98 82; 99 54; 100 5; 101 1; 102 4; 
103 11; 104 6; 105 7; 106 4; 107 2; 
108 24; 109 117; 110 171; 111 51; 112 13; 
113 2; 115 21; 116 9; 117 10; 118 5; 
119 4; 120 3; 121 26; 122 18; 123 231; 
124 64; 125 26; 126 13; 127 4; 128 10; 
129 12; 130 7; 131 14; 132 5; 133 3; 
134 22; 135 101; 136 87; 137 32; 138 16; 
139 4; 140 1; 144 2; 145 1; 146 2; 
147 10; 148 8; 149 59; 150 32; 151 18; 
152 18; 153 2; 154 1; 158 2; 159 1; 
160 12; 161 4; 162 5; 163 25; 164 357; 
165 636; 166 174; 167 51; 168 8; 169 1; 
172 1; 174 2; 176 1; 177 1; 178 16; 
179 6; 180 10; 181 1; 186 1; 188 3; 
190 2; 192 135; 193 49; 194 12; 195 2; 
202 2; 204 1; 206 356; 207 55; 208 18; 
209 1; 216 4; 220 16; 221 2; 222 1; 
234 1; 248 41; 249 208; 250 38; 251 12; 
252 1; 
