Name: Methylprednisolone Acetate
Synon: 6.alpha.-Methylprednisolone acetate
Synon: 6.alpha.-Methylprednisolone 21-acetate
Synon: 6-Methylprednisolone acetate
Synon: Depo-methylprednisolone acetate
Synon: 11.beta.,17,21-Trihydroxy-6.alpha.-methylpregna-1,4-diene-3,20-dione 21-acetate
Synon: M-Predrol
Synon: Medrol acetate
Synon: Medrol Enpak
Synon: Mepred
Synon: Methylprednisolone 21-acetate
InChIKey: PLBHSZGDDKCEHR-UHFFFAOYSA-N
Formula: C24H32O6
MW: 416
ExactMass: 416.219889
CASNO: 53361
ID: 1282
Comment: AAFS / Probability Based Matching Data Base Entry
Num Peaks: 205
41 26; 42 30; 43 415; 52 5; 53 24; 
55 42; 65 31; 66 11; 67 50; 68 14; 
69 25; 70 2; 71 1; 73 8; 74 21; 
77 87; 78 22; 79 117; 80 17; 81 45; 
82 6; 83 9; 91 336; 92 42; 93 71; 
94 18; 95 58; 96 9; 97 32; 98 5; 
105 147; 106 43; 107 152; 108 41; 109 60; 
110 17; 111 13; 112 1; 113 2; 115 100; 
116 32; 117 80; 118 19; 119 75; 121 321; 
122 39; 123 17; 124 7; 125 5; 126 5; 
127 15; 128 45; 129 49; 130 22; 131 83; 
132 19; 133 72; 135 999; 136 830; 137 98; 
138 16; 139 10; 140 4; 141 29; 142 22; 
143 41; 144 21; 145 70; 146 28; 147 83; 
148 56; 149 46; 150 27; 151 8; 152 12; 
153 15; 154 9; 155 17; 156 8; 157 33; 
158 23; 159 71; 160 43; 161 181; 162 31; 
163 17; 164 7; 165 24; 166 10; 167 11; 
168 6; 169 14; 170 8; 171 35; 172 16; 
173 44; 174 19; 175 41; 176 11; 177 21; 
178 10; 179 17; 180 5; 181 12; 182 6; 
183 13; 184 8; 185 58; 186 17; 187 30; 
188 8; 189 22; 190 6; 191 7; 192 3; 
193 10; 194 6; 195 12; 196 8; 197 26; 
198 11; 199 17; 200 13; 201 15; 202 6; 
203 29; 204 8; 205 5; 206 4; 207 11; 
208 6; 209 18; 210 10; 211 24; 212 10; 
213 13; 214 4; 215 6; 219 5; 221 17; 
222 8; 223 21; 224 12; 225 20; 226 10; 
227 13; 228 7; 229 4; 235 11; 237 47; 
238 17; 239 56; 240 16; 241 12; 242 4; 
249 7; 250 6; 251 15; 252 37; 253 22; 
254 17; 255 9; 257 3; 258 3; 261 4; 
263 10; 264 11; 265 8; 266 3; 267 9; 
268 6; 269 15; 270 10; 271 5; 277 13; 
278 7; 279 42; 280 11; 281 21; 282 6; 
286 3; 295 10; 296 8; 297 44; 298 11; 
299 4; 305 6; 309 6; 310 4; 313 5; 
314 7; 315 13; 316 4; 320 4; 321 4; 
323 8; 325 4; 327 4; 338 14; 339 6; 
356 26; 357 7; 398 3; 416 18; 417 6; 
