Name: Trimeperidine
Synon: 1,2,5-Trimethyl-4-phenyl-4-propionoxypiperidine
InChIKey: UVITTYOJFDLOGI-UHFFFAOYSA-N
Formula: C17H25NO2
MW: 275
ExactMass: 275.18853
CASNO: 64391
ID: 1287
Comment: AAFS / Probability Based Matching Data Base Entry
Num Peaks: 81
29 70; 30 13; 32 9; 39 18; 41 41; 
42 187; 43 48; 44 68; 51 25; 53 6; 
54 6; 55 28; 56 152; 57 160; 58 52; 
63 6; 65 24; 68 6; 69 5; 70 226; 
71 148; 72 26; 73 3; 74 8; 75 6; 
76 12; 77 164; 78 34; 79 25; 81 13; 
82 17; 84 52; 85 13; 89 6; 91 133; 
92 20; 93 20; 96 12; 98 98; 99 6; 
102 14; 103 42; 104 5; 105 178; 106 18; 
108 18; 110 29; 115 71; 116 17; 117 109; 
118 15; 120 7; 124 39; 127 16; 128 56; 
129 61; 131 19; 141 15; 142 5; 143 19; 
144 21; 145 22; 157 5; 158 32; 159 16; 
170 21; 171 17; 172 6; 173 18; 184 39; 
185 5; 186 999; 187 147; 188 13; 200 51; 
201 203; 202 90; 203 12; 207 8; 260 11; 
275 33; 
