Name: 1,2-Dichloroethane
Synon: Ethylene chloride
InChIKey: WSLDOOZREJYCGB-UHFFFAOYSA-N
Formula: C2H4Cl2
MW: 98
ExactMass: 97.9690056
CASNO: 107062
ID: 1289
Comment: DEA SWL / Sigma-Aldrich lot 09235TC
Num Peaks: 45
13 1; 14 4; 15 1; 17 1; 18 3; 
24 6; 25 31; 26 140; 27 425; 28 51; 
29 3; 31 2; 32 4; 35 36; 36 17; 
37 13; 38 5; 39 2; 40 1; 41 1; 
47 27; 48 30; 49 244; 50 14; 51 76; 
59 4; 60 33; 61 95; 62 999; 63 133; 
64 299; 65 27; 70 2; 82 2; 83 34; 
84 2; 85 19; 87 3; 95 1; 96 1; 
98 53; 99 3; 100 29; 101 1; 102 5; 
