Name: 1,2-dimethyl-3-phenylaziridine
InChIKey: MKCZABZZOZOQTK-UHFFFAOYSA-N
Formula: C10H13N
MW: 147
ExactMass: 147.104799
CASNO: 936436
ID: 1290
Comment: ENFSI / impurity synthesis of methamphetamine from ephedrine; For.Sci.Rev. 1:1; 1989 pp 1-11
Num Peaks: 51
38 11; 39 53; 40 12; 41 21; 42 178; 
43 10; 44 6; 50 33; 51 83; 52 28; 
53 7; 54 39; 56 55; 57 9; 58 34; 
62 23; 63 86; 64 23; 65 105; 68 7; 
70 15; 72 32; 74 13; 75 9; 76 22; 
77 179; 78 47; 79 91; 87 7; 89 114; 
90 56; 91 215; 92 19; 102 12; 103 76; 
104 55; 105 484; 106 53; 115 57; 116 26; 
117 125; 118 77; 119 9; 130 45; 131 99; 
132 243; 133 24; 144 12; 146 999; 147 142; 
148 7; 
