Name: LSD TMS Derivative
Synon: Monotrimethylsilyl derivative of Lysergide
Synon: Lysergide TMS Derivative
Synon: 1-(Trimethylsilyl)LSD
InChIKey: PZJVZQDQWFCAMQ-UHFFFAOYSA-N
Formula: C23H33N3OSi
MW: 395
ExactMass: 395.239288
CASNO: 55760264
ID: 1297
Comment: DEA WRL
Num Peaks: 199
41 11; 42 99; 43 51; 44 265; 45 125; 
46 8; 47 5; 51 5; 54 7; 55 29; 
56 39; 57 24; 58 106; 59 29; 60 5; 
61 11; 62 10; 63 22; 64 4; 65 2; 
66 5; 68 11; 69 11; 70 6; 71 12; 
72 202; 73 407; 74 71; 75 14; 76 3; 
85 2; 86 37; 89 8; 90 4; 92 4; 
94 3; 96 7; 97 4; 98 4; 100 45; 
101 7; 103 4; 109 5; 114 7; 116 7; 
118 5; 119 6; 121 3; 127 5; 128 13; 
132 2; 133 4; 139 2; 140 4; 147 3; 
150 3; 151 5; 152 12; 153 9; 154 5; 
155 7; 156 3; 159 9; 165 12; 166 4; 
167 8; 168 3; 169 4; 171 3; 174 5; 
177 5; 178 21; 179 14; 180 33; 181 3; 
182 17; 183 6; 184 4; 186 3; 190 11; 
191 22; 192 29; 193 14; 194 23; 195 12; 
196 20; 197 8; 200 5; 201 5; 203 9; 
204 6; 205 55; 206 48; 207 45; 208 23; 
209 25; 210 3; 211 3; 215 6; 216 3; 
217 2; 218 12; 219 49; 220 68; 221 110; 
222 49; 223 19; 224 18; 225 9; 226 49; 
227 10; 228 6; 232 3; 233 17; 234 11; 
235 19; 236 12; 237 21; 238 12; 239 90; 
240 41; 241 15; 245 4; 246 1; 247 11; 
248 5; 249 23; 250 42; 251 42; 252 167; 
253 999; 254 238; 255 70; 261 17; 262 4; 
263 50; 264 85; 265 36; 266 32; 267 79; 
268 297; 269 89; 270 7; 276 6; 277 53; 
278 70; 279 414; 280 170; 281 60; 282 13; 
283 3; 284 4; 286 7; 287 2; 290 7; 
291 28; 292 67; 293 648; 294 353; 295 319; 
296 83; 297 31; 298 2; 302 2; 304 4; 
307 22; 309 11; 314 3; 315 6; 316 2; 
321 26; 322 27; 323 21; 324 4; 326 4; 
330 3; 337 144; 338 49; 339 22; 342 3; 
344 9; 350 14; 351 23; 352 35; 353 15; 
364 12; 365 3; 372 2; 376 3; 380 10; 
381 5; 382 3; 391 3; 393 10; 394 37; 
395 724; 396 240; 397 66; 398 13; 
