Name: 1-Piperonylpiperazine
InChIKey: NBOOZXVYXHATOW-UHFFFAOYSA-N
Formula: C12H16N2O2
MW: 220
ExactMass: 220.121178
CASNO: 32231064
ID: 1298
Comment: DEA SWL
Num Peaks: 92
41 14; 42 59; 43 20; 44 24; 45 3; 
50 15; 51 105; 52 13; 53 8; 54 12; 
55 13; 56 251; 57 30; 58 49; 59 2; 
62 2; 63 7; 64 2; 65 8; 66 2; 
67 3; 68 2; 69 1; 70 4; 71 10; 
72 1; 74 1; 75 2; 76 7; 77 117; 
78 19; 79 16; 80 2; 81 2; 83 7; 
84 2; 85 172; 86 9; 89 6; 90 1; 
91 3; 92 1; 93 1; 97 1; 98 1; 
99 7; 103 1; 104 5; 105 38; 106 9; 
107 2; 117 1; 118 2; 119 1; 120 1; 
121 2; 122 1; 132 2; 133 2; 134 8; 
135 999; 136 109; 137 9; 146 1; 147 2; 
148 42; 149 12; 150 7; 160 1; 161 2; 
162 41; 163 26; 164 70; 165 8; 174 1; 
175 25; 176 19; 177 6; 178 81; 179 10; 
188 1; 189 2; 190 13; 191 16; 192 2; 
202 2; 203 3; 205 3; 219 5; 220 73; 
221 10; 222 1; 
