Name: PCC
Synon: 1-Piperidinocyclohexanecarbonitrile
InChIKey: WWSAYKJWUZJLRT-UHFFFAOYSA-N
Formula: C12H20N2
MW: 192
ExactMass: 192.162648
CASNO: 3867150
ID: 1299
Comment: DEA SWL
Num Peaks: 74
40 19; 41 240; 42 117; 43 19; 44 13; 
50 5; 51 20; 52 27; 53 111; 54 117; 
55 171; 56 81; 57 16; 65 21; 66 32; 
67 67; 68 55; 69 66; 70 13; 77 36; 
78 11; 79 63; 80 58; 81 80; 82 57; 
83 44; 84 80; 85 8; 91 10; 92 8; 
93 29; 94 70; 95 70; 96 65; 97 15; 
98 19; 104 2; 105 10; 106 15; 107 25; 
108 100; 109 27; 110 70; 111 60; 112 3; 
119 2; 120 13; 121 43; 122 193; 123 68; 
124 147; 125 22; 133 3; 134 14; 135 90; 
136 231; 137 51; 138 16; 147 7; 148 7; 
149 999; 150 381; 151 42; 152 10; 160 7; 
162 10; 163 86; 164 197; 165 183; 166 34; 
177 14; 191 97; 192 58; 193 7; 
