Name: 1-phenyl-2-propanol
InChIKey: WYTRYIUQUDTGSX-UHFFFAOYSA-N
Formula: C9H12O
MW: 136
ExactMass: 136.088815
CASNO: 14898874
ID: 1303
Comment: DEA SWL / Aldrich lot 3019KH
Num Peaks: 52
40 4; 41 11; 42 2; 43 36; 44 3; 
45 169; 46 4; 50 18; 51 43; 52 11; 
53 5; 55 1; 57 3; 58 2; 61 5; 
62 13; 63 40; 64 10; 65 124; 66 10; 
74 6; 75 5; 76 5; 77 37; 78 13; 
79 9; 85 1; 86 3; 87 3; 88 1; 
89 39; 90 15; 91 727; 92 999; 93 78; 
94 3; 102 10; 103 39; 104 5; 105 2; 
115 18; 116 4; 117 12; 118 3; 119 2; 
120 2; 121 27; 122 2; 134 1; 135 3; 
136 18; 137 1; 
