Name: 1-Phenyl-1-propanone
Synon: Propiophenone
Synon: Phenyl ethyl ketone
Synon: Ethyl phenyl ketone
InChIKey: KRIOVPPHQSLHCZ-UHFFFAOYSA-N
Formula: C9H10O
MW: 134
ExactMass: 134.073165
CASNO: 93550
ID: 1305
Comment: ENFSI / found as impurity in phenyl-2-propanone (P-2-P; BMK)
Num Peaks: 45
37 2; 38 7; 39 17; 40 1; 41 1; 
42 1; 43 1; 49 4; 50 63; 51 182; 
52 14; 53 5; 55 8; 56 2; 57 6; 
61 2; 62 6; 63 11; 64 2; 65 7; 
66 2; 73 4; 74 23; 75 14; 76 25; 
77 502; 78 39; 79 5; 85 1; 86 1; 
87 1; 89 5; 90 1; 91 7; 92 1; 
102 1; 103 3; 105 999; 106 82; 107 5; 
115 4; 133 11; 134 165; 135 18; 136 1; 
