Name: 1-(para-methoxyphenyl)-2-propanone
InChIKey: WFWKNGZODAOLEO-UHFFFAOYSA-N
Formula: C10H12O2
MW: 164
ExactMass: 164.08373
CASNO: 122849
ID: 1311
Comment: ENFSI / precursor PMA and PMMA
Num Peaks: 52
38 4; 39 17; 40 1; 41 6; 42 4; 
43 73; 44 2; 50 16; 51 40; 52 32; 
53 11; 54 1; 55 5; 61 2; 62 7; 
63 21; 64 7; 65 21; 66 2; 67 1; 
74 4; 75 3; 76 5; 77 97; 78 101; 
79 13; 80 1; 86 1; 87 1; 89 26; 
90 13; 91 64; 92 7; 93 2; 102 1; 
103 4; 104 1; 105 7; 106 14; 107 10; 
108 1; 115 1; 118 1; 119 1; 121 999; 
122 101; 123 6; 133 2; 135 1; 164 107; 
165 12; 166 1; 
