Name: Azapetine
Synon: 1-Allyl-2,7-dihydro-3,4:5,6-dibenzazepine
InChIKey: NYGHGTMKALXFIA-UHFFFAOYSA-N
Formula: C17H17N
MW: 235
ExactMass: 235.1361
CASNO: 146361
ID: 1321
Comment: AAFS / Probability Based Matching Data Base Entry
Num Peaks: 111
29 2; 39 37; 40 5; 41 103; 42 103; 
43 4; 50 3; 51 11; 52 3; 54 4; 
56 4; 57 5; 62 6; 63 30; 64 9; 
65 16; 66 1; 68 60; 70 25; 74 9; 
75 21; 76 104; 77 27; 78 5; 81 3; 
82 23; 83 6; 86 5; 87 14; 88 40; 
89 207; 91 21; 95 15; 96 16; 98 4; 
99 4; 100 2; 101 11; 102 23; 104 43; 
108 7; 109 3; 113 14; 114 7; 115 51; 
116 22; 117 10; 118 2; 125 2; 126 16; 
127 13; 128 24; 129 6; 130 1; 137 8; 
138 7; 139 63; 140 18; 141 9; 144 6; 
149 5; 150 18; 151 49; 152 148; 153 28; 
154 6; 158 19; 162 8; 163 74; 164 118; 
165 853; 166 272; 167 102; 168 16; 175 4; 
176 53; 177 51; 178 306; 179 414; 180 83; 
181 14; 188 2; 189 10; 190 51; 191 50; 
192 177; 193 846; 194 279; 195 35; 202 16; 
203 18; 204 23; 205 36; 206 38; 207 21; 
208 328; 209 50; 210 2; 215 1; 216 4; 
217 10; 218 12; 219 5; 220 36; 221 7; 
230 4; 232 9; 234 999; 235 660; 236 107; 
237 9; 
