Name: Eucalyptol
Synon: 1,8-Cineole
InChIKey: WEEGYLXZBRQIMU-UHFFFAOYSA-N
Formula: C10H18O
MW: 154
ExactMass: 154.135765
CASNO: 470826
ID: 1324
Comment: ENFSI / constituant of sassefras oil
Num Peaks: 70
36 6; 38 9; 39 247; 40 59; 41 357; 
42 63; 43 999; 44 98; 45 24; 46 6; 
50 16; 51 40; 52 27; 53 149; 54 83; 
55 336; 56 76; 57 32; 58 132; 59 132; 
60 13; 63 16; 64 24; 65 60; 66 31; 
67 305; 68 391; 69 384; 70 27; 71 452; 
72 31; 75 7; 77 106; 78 36; 79 160; 
80 50; 81 603; 82 76; 83 216; 84 431; 
85 32; 91 85; 92 60; 93 470; 94 98; 
95 172; 96 232; 97 85; 98 22; 99 7; 
103 7; 105 22; 106 16; 107 92; 108 504; 
109 49; 110 15; 111 417; 112 39; 119 9; 
121 101; 122 9; 125 59; 126 47; 136 83; 
137 13; 139 302; 140 37; 154 319; 155 37; 
