Name: Norgestrel
Synon: (n~)-13-Ethyl-17-hydroxy-18,19-dinor-17-.alpha.-pregn-4-en-20-yn-3-one
Synon: 18,19-Dinorpregn-4-en-20-yn-3-one, 13-ethyl-17-hydroxy-, (17.alpha.)-(n~)-
InChIKey: WWYNJERNGUHSAO-UHFFFAOYSA-N
Formula: C21H28O2
MW: 312
ExactMass: 312.208931
CASNO: 6533002
ID: 1325
Comment: AAFS / Probability Based Matching Data Base Entry
Num Peaks: 201
41 181; 42 11; 43 11; 51 53; 52 36; 
53 422; 54 65; 55 376; 57 3; 63 14; 
65 216; 66 95; 67 501; 68 200; 69 67; 
76 2; 77 603; 78 181; 79 788; 80 121; 
81 420; 82 61; 83 72; 87 8; 89 11; 
90 11; 91 999; 92 179; 93 322; 94 95; 
95 200; 96 29; 97 87; 99 3; 101 14; 
103 134; 104 81; 105 462; 106 120; 107 402; 
108 144; 109 253; 110 558; 111 67; 112 2; 
113 3; 114 2; 115 226; 116 72; 117 302; 
118 77; 119 309; 120 146; 121 203; 122 239; 
123 202; 124 49; 125 6; 127 54; 128 141; 
129 174; 131 228; 132 104; 133 300; 134 243; 
135 519; 136 18; 137 39; 138 37; 139 13; 
141 88; 142 61; 143 106; 144 47; 145 180; 
146 124; 147 221; 148 28; 149 129; 151 37; 
152 22; 153 31; 154 29; 155 97; 156 41; 
157 104; 158 70; 159 203; 160 292; 161 206; 
162 203; 163 65; 164 13; 165 33; 166 24; 
169 63; 170 55; 171 81; 172 54; 173 189; 
174 95; 175 106; 176 18; 177 11; 178 34; 
179 10; 180 2; 181 35; 182 21; 183 47; 
184 48; 185 100; 186 42; 187 174; 188 66; 
189 93; 190 20; 191 14; 193 19; 194 12; 
195 38; 196 23; 197 67; 198 43; 199 54; 
200 61; 201 76; 202 85; 203 182; 204 36; 
205 28; 207 5; 208 10; 209 42; 210 24; 
211 53; 212 53; 213 118; 214 72; 215 132; 
216 59; 217 25; 219 12; 220 8; 221 14; 
222 8; 223 45; 224 19; 225 42; 226 46; 
227 195; 228 58; 229 422; 230 94; 231 98; 
232 47; 233 7; 236 12; 237 56; 238 32; 
239 25; 240 29; 241 78; 242 110; 243 46; 
244 60; 245 762; 246 151; 247 30; 248 9; 
251 29; 252 16; 253 14; 254 101; 255 93; 
256 34; 257 21; 258 11; 261 12; 265 106; 
266 69; 267 16; 268 10; 269 152; 270 58; 
271 15; 277 12; 279 25; 283 195; 284 120; 
285 31; 286 13; 293 10; 294 73; 295 29; 
296 8; 297 36; 298 11; 312 496; 313 131; 
314 21; 
