Name: Desoximetasone
Synon: 17-Desoxymethasone
Synon: Pregna-1,4-diene-3,20-dione, 9-fluoro-11-.beta.,21-dihydroxy-16-.alpha.-methyl-
InChIKey: VWVSBHGCDBMOOT-UHFFFAOYSA-N
Formula: C22H29FO4
MW: 376
ExactMass: 376.204988
CASNO: 382672
ID: 1326
Comment: AAFS
Num Peaks: 229
42 23; 43 112; 44 13; 45 8; 47 10; 
51 19; 52 14; 53 83; 54 18; 55 210; 
56 25; 57 25; 58 9; 59 34; 60 5; 
61 9; 63 18; 64 8; 65 122; 66 38; 
67 236; 68 33; 69 333; 70 24; 71 34; 
72 5; 73 37; 74 5; 75 44; 76 11; 
77 369; 78 90; 79 271; 80 47; 81 106; 
82 33; 83 93; 84 16; 85 38; 86 6; 
87 16; 88 12; 89 26; 90 5; 91 721; 
92 135; 93 228; 94 69; 95 235; 96 46; 
97 57; 98 5; 99 24; 100 10; 101 42; 
102 19; 103 81; 104 26; 105 168; 106 42; 
107 208; 108 49; 109 276; 110 36; 111 52; 
112 10; 113 33; 114 10; 115 189; 116 66; 
117 91; 118 22; 119 115; 120 55; 121 891; 
122 999; 123 172; 124 21; 125 41; 126 8; 
127 59; 128 109; 129 108; 130 34; 131 124; 
132 35; 133 166; 134 77; 135 274; 136 47; 
137 64; 138 12; 139 55; 140 8; 141 69; 
142 41; 143 53; 144 38; 145 119; 146 85; 
147 337; 148 51; 149 63; 150 26; 151 33; 
152 47; 153 51; 154 21; 155 42; 156 45; 
157 78; 158 44; 159 195; 160 98; 161 136; 
162 29; 163 81; 164 21; 165 83; 166 27; 
167 36; 168 17; 169 33; 170 25; 171 150; 
172 36; 173 87; 174 19; 175 40; 176 18; 
177 47; 178 38; 179 57; 180 17; 181 41; 
182 18; 183 40; 184 23; 185 77; 186 27; 
187 81; 188 18; 189 49; 190 17; 191 72; 
192 17; 193 22; 194 12; 195 39; 196 24; 
197 39; 198 17; 199 39; 200 15; 201 19; 
202 12; 203 32; 204 10; 205 24; 206 8; 
207 23; 208 19; 209 53; 210 22; 211 46; 
212 16; 213 64; 214 18; 215 14; 217 9; 
219 9; 220 5; 221 16; 222 14; 223 105; 
224 33; 225 29; 226 12; 227 27; 228 12; 
229 12; 231 7; 233 6; 234 6; 235 15; 
236 10; 237 50; 238 25; 239 22; 240 13; 
241 21; 242 13; 243 10; 245 5; 246 5; 
249 11; 250 5; 251 19; 252 5; 253 149; 
254 35; 255 33; 256 8; 261 6; 263 8; 
264 15; 265 9; 267 5; 268 5; 269 19; 
277 6; 279 120; 280 28; 281 10; 289 6; 
297 20; 299 20; 300 5; 304 5; 307 5; 
313 5; 328 18; 329 6; 341 5; 345 68; 
346 15; 356 306; 357 77; 358 11; 
