Name: Nandrolone
Synon: 17.beta.-Hydroxyestr-4-en-3-one
InChIKey: NPAGDVCDWIYMMC-UHFFFAOYSA-N
Formula: C18H26O2
MW: 274
ExactMass: 274.19328
CASNO: 434220
ID: 1327
Comment: DEA SWL
Num Peaks: 196
40 21; 41 209; 42 21; 43 102; 44 28; 
45 14; 50 4; 51 24; 52 25; 53 106; 
54 23; 55 192; 56 14; 57 120; 58 17; 
59 2; 63 14; 64 13; 65 95; 66 42; 
67 224; 68 35; 69 44; 70 6; 71 19; 
72 6; 73 5; 75 2; 77 296; 78 93; 
79 391; 80 94; 81 156; 82 25; 83 40; 
84 9; 85 10; 86 6; 87 1; 88 2; 
89 9; 91 531; 92 109; 93 216; 94 81; 
95 130; 96 43; 97 83; 98 9; 99 6; 
101 4; 102 14; 103 64; 104 56; 105 333; 
106 90; 107 239; 108 123; 109 182; 110 650; 
111 70; 112 6; 113 4; 115 115; 116 50; 
117 187; 118 79; 119 203; 120 180; 121 160; 
122 102; 123 161; 124 45; 125 4; 126 3; 
127 23; 128 74; 129 109; 130 46; 131 200; 
132 100; 133 214; 134 126; 135 170; 136 41; 
137 22; 138 3; 139 6; 141 43; 142 32; 
143 77; 144 62; 145 157; 146 137; 147 249; 
148 136; 149 71; 150 18; 151 29; 152 19; 
153 16; 154 9; 155 31; 156 24; 157 72; 
158 50; 159 166; 160 169; 161 94; 162 69; 
163 40; 164 51; 165 69; 166 19; 167 14; 
168 6; 169 26; 170 27; 171 59; 172 48; 
173 196; 174 133; 175 99; 176 16; 177 8; 
178 6; 179 6; 180 2; 181 14; 182 8; 
183 36; 184 24; 185 75; 186 48; 187 111; 
188 73; 189 47; 190 38; 191 6; 192 11; 
193 1; 195 12; 196 10; 197 117; 198 42; 
199 104; 200 42; 201 49; 202 94; 203 61; 
204 20; 205 5; 206 1; 207 5; 208 1; 
209 4; 210 5; 211 12; 212 48; 213 50; 
214 86; 215 234; 216 60; 217 92; 218 40; 
219 6; 223 12; 224 5; 225 2; 227 19; 
228 20; 229 14; 230 58; 231 179; 232 194; 
233 27; 234 3; 237 3; 238 23; 239 6; 
241 45; 242 11; 243 2; 245 10; 246 77; 
247 16; 254 2; 256 191; 257 39; 258 4; 
259 15; 260 3; 272 4; 274 999; 275 197; 
276 21; 
