Name: Mesterolone
Synon: 17.beta.-Hydroxy-1.alpha.-methyl-5.alpha.-androstan-3-one
InChIKey: UXYRZJKIQKRJCF-UHFFFAOYSA-N
Formula: C20H32O2
MW: 304
ExactMass: 304.24023
CASNO: 1424006
ID: 1330
Comment: DEA SWL
Num Peaks: 214
40 39; 41 516; 42 123; 43 238; 44 68; 
45 16; 46 1; 50 1; 51 15; 52 16; 
53 199; 54 48; 55 514; 56 42; 57 216; 
58 37; 59 6; 60 3; 61 1; 62 1; 
63 3; 65 93; 66 51; 67 567; 68 165; 
69 443; 70 55; 71 154; 72 10; 73 6; 
74 13; 77 289; 78 65; 79 600; 80 111; 
81 520; 82 84; 83 91; 84 39; 85 42; 
86 18; 87 10; 88 7; 89 7; 91 541; 
92 91; 93 567; 94 233; 95 468; 96 92; 
97 155; 98 20; 99 8; 100 2; 101 5; 
102 6; 103 38; 105 538; 106 198; 107 462; 
108 197; 109 284; 110 84; 111 72; 112 30; 
113 5; 115 52; 116 22; 117 109; 118 93; 
119 343; 120 158; 121 301; 122 118; 123 315; 
124 93; 125 60; 126 14; 127 15; 128 33; 
129 48; 130 23; 131 192; 132 72; 133 254; 
134 114; 135 173; 136 126; 137 114; 138 127; 
139 45; 140 6; 141 15; 142 13; 143 58; 
144 38; 145 221; 146 144; 147 322; 148 106; 
149 122; 150 60; 151 75; 152 13; 153 8; 
154 2; 155 10; 156 8; 157 70; 158 63; 
159 465; 160 118; 161 287; 162 135; 163 104; 
164 29; 165 27; 166 8; 167 15; 168 1; 
169 9; 171 45; 172 80; 173 118; 174 312; 
175 241; 176 92; 177 101; 178 36; 179 38; 
180 6; 181 2; 182 2; 183 22; 185 230; 
186 44; 187 109; 188 33; 189 94; 190 85; 
191 25; 192 34; 193 13; 194 5; 195 6; 
196 2; 197 22; 198 24; 200 632; 201 717; 
202 145; 203 97; 204 21; 205 22; 206 7; 
207 6; 208 2; 211 6; 212 4; 213 69; 
214 21; 215 82; 216 53; 218 999; 219 505; 
220 104; 221 13; 225 6; 226 3; 227 30; 
228 9; 229 44; 230 11; 231 19; 232 9; 
233 21; 234 22; 235 4; 239 2; 240 1; 
241 2; 243 27; 245 139; 246 47; 247 42; 
248 13; 249 3; 253 25; 254 4; 255 1; 
257 11; 258 6; 259 2; 260 24; 261 36; 
262 7; 263 1; 268 3; 269 2; 271 53; 
272 9; 275 7; 276 3; 281 1; 286 41; 
287 8; 289 58; 290 12; 291 1; 302 7; 
304 631; 305 123; 306 16; 307 1; 
