Name: Methyltestosterone
Synon: 17.beta.-Hydroxy-17.alpha.-methylandrost-4-en-3-one
Synon: Testred
InChIKey: GCKMFJBGXUYNAG-UHFFFAOYSA-N
Formula: C20H30O2
MW: 302
ExactMass: 302.22458
CASNO: 58184
ID: 1332
Comment: DEA SWL
Num Peaks: 198
40 39; 41 425; 43 975; 44 25; 45 48; 
50 8; 51 39; 52 35; 53 232; 54 49; 
55 481; 56 27; 57 174; 58 152; 59 38; 
63 17; 64 16; 65 187; 66 81; 67 489; 
68 75; 69 138; 71 538; 72 87; 73 11; 
77 529; 78 136; 79 767; 80 122; 81 358; 
82 51; 83 98; 84 18; 85 49; 86 15; 
87 14; 89 17; 91 839; 92 135; 93 504; 
94 130; 95 380; 96 85; 97 139; 98 16; 
99 25; 100 4; 101 8; 102 14; 103 100; 
104 69; 105 562; 106 149; 107 514; 108 225; 
109 396; 110 58; 111 85; 112 8; 113 25; 
115 165; 116 62; 117 235; 118 80; 119 405; 
120 233; 121 586; 122 449; 123 395; 124 815; 
125 119; 126 11; 127 34; 128 114; 129 140; 
130 59; 131 229; 132 90; 133 297; 134 204; 
135 208; 136 116; 137 234; 138 53; 139 8; 
141 53; 142 47; 143 110; 144 68; 145 228; 
146 92; 147 261; 148 234; 149 285; 150 56; 
151 28; 152 15; 153 20; 154 16; 155 45; 
156 28; 157 106; 158 61; 159 215; 160 134; 
161 334; 162 117; 163 98; 164 24; 165 41; 
166 20; 167 19; 168 9; 169 29; 170 22; 
171 89; 172 51; 173 127; 174 105; 175 98; 
176 40; 177 32; 178 24; 179 123; 180 18; 
181 13; 182 6; 183 33; 184 33; 185 66; 
186 57; 187 213; 188 85; 189 123; 190 38; 
191 12; 195 15; 196 5; 197 23; 198 48; 
199 136; 200 107; 201 91; 202 288; 203 88; 
204 40; 205 5; 206 3; 207 11; 209 24; 
210 10; 211 85; 212 18; 213 111; 214 36; 
215 43; 216 26; 217 161; 218 30; 223 5; 
224 8; 225 16; 226 54; 227 125; 228 70; 
229 392; 230 73; 231 61; 232 53; 233 9; 
240 62; 241 76; 242 108; 243 29; 244 71; 
245 273; 246 49; 247 5; 251 24; 252 6; 
255 7; 256 8; 258 6; 259 10; 260 71; 
261 14; 266 12; 267 10; 269 78; 270 15; 
274 7; 284 146; 285 34; 287 131; 288 25; 
302 999; 303 238; 304 27; 
