Name: Ethisterone
Synon: 17.alpha.-Pregn-4-en-20-yn-3-one, 17-hydroxy-
Synon: Anhydroxyprogesterone
Synon: 17.alpha.-Ethynyltestosterone
InChIKey: CHNXZKVNWQUJIB-UHFFFAOYSA-N
Formula: C21H28O2
MW: 312
ExactMass: 312.208931
CASNO: 434037
ID: 1339
Comment: DEA WRL
Num Peaks: 242
41 144; 43 155; 45 2; 50 3; 51 59; 
52 53; 53 540; 54 69; 55 540; 56 30; 
57 46; 58 1; 59 1; 63 16; 64 28; 
65 243; 66 98; 67 534; 68 297; 69 110; 
70 9; 71 31; 72 11; 73 7; 75 1; 
76 9; 77 683; 78 184; 79 876; 80 129; 
81 526; 82 73; 83 93; 84 11; 85 12; 
86 13; 87 32; 89 23; 90 15; 91 999; 
92 162; 93 461; 94 114; 95 348; 96 76; 
97 182; 98 16; 99 24; 100 8; 101 26; 
102 19; 103 114; 104 70; 105 635; 106 197; 
107 503; 108 173; 109 376; 110 93; 111 73; 
112 11; 113 22; 114 8; 115 231; 116 71; 
117 287; 118 78; 119 392; 120 224; 121 585; 
122 352; 123 434; 124 762; 125 97; 126 8; 
127 56; 128 148; 129 190; 130 77; 131 280; 
132 88; 133 319; 134 174; 135 233; 136 181; 
137 218; 138 47; 139 11; 140 5; 141 83; 
142 59; 143 146; 144 68; 145 231; 146 105; 
147 266; 148 393; 149 334; 150 67; 151 18; 
152 24; 153 36; 154 22; 155 107; 156 54; 
157 136; 158 60; 159 241; 160 119; 161 245; 
162 122; 163 163; 164 35; 165 30; 166 10; 
167 29; 168 20; 169 77; 170 55; 171 158; 
172 69; 173 194; 174 123; 175 113; 176 72; 
177 78; 178 26; 179 21; 180 10; 181 32; 
182 15; 183 57; 184 45; 185 112; 186 52; 
187 225; 188 136; 189 305; 190 71; 191 28; 
192 16; 193 17; 194 12; 195 44; 196 18; 
197 48; 198 45; 199 78; 200 86; 201 132; 
202 81; 203 49; 204 10; 205 10; 206 3; 
207 17; 209 55; 210 27; 211 123; 212 39; 
213 121; 214 45; 215 54; 216 28; 217 39; 
218 4; 219 7; 220 7; 221 11; 222 11; 
223 42; 224 25; 225 44; 226 52; 227 185; 
228 52; 229 376; 230 71; 231 39; 232 19; 
233 9; 234 8; 235 24; 236 6; 237 61; 
238 27; 239 31; 240 20; 241 24; 242 151; 
243 39; 244 26; 245 346; 246 59; 247 9; 
248 3; 249 3; 250 5; 251 48; 252 33; 
253 19; 254 5; 255 39; 256 17; 257 8; 
258 3; 261 25; 262 2; 265 13; 266 21; 
267 8; 268 6; 269 39; 270 96; 271 28; 
276 5; 277 11; 279 126; 280 31; 281 1; 
283 40; 284 33; 285 9; 286 25; 287 2; 
293 3; 294 29; 295 19; 296 7; 297 271; 
298 52; 299 10; 302 1; 304 2; 307 2; 
311 3; 312 522; 313 118; 314 5; 315 2; 
316 2; 317 1; 
