Name: Norethandrolone
Synon: 17.alpha.-Ethyl-17.beta.-hydroxyestr-4-en-3-one
InChIKey: ZDHCJEIGTNNEMY-UHFFFAOYSA-N
Formula: C20H30O2
MW: 302
ExactMass: 302.22458
CASNO: 52788
ID: 1342
Comment: DEA SWL
Num Peaks: 205
40 38; 41 405; 42 42; 43 481; 44 21; 
45 31; 50 6; 51 43; 52 40; 53 233; 
54 42; 55 471; 57 727; 58 91; 59 30; 
63 18; 64 12; 65 184; 66 90; 67 422; 
68 78; 69 120; 70 16; 71 68; 72 134; 
73 41; 74 5; 77 543; 78 172; 79 766; 
80 140; 81 310; 82 61; 83 131; 85 895; 
86 112; 87 10; 89 27; 91 964; 92 181; 
93 386; 94 92; 95 257; 96 56; 97 111; 
98 14; 99 43; 101 9; 102 19; 103 97; 
104 78; 105 527; 106 147; 107 488; 108 319; 
109 407; 110 778; 111 90; 112 11; 113 21; 
115 184; 116 74; 117 314; 118 118; 119 342; 
120 277; 121 347; 122 236; 123 301; 124 58; 
125 22; 126 5; 127 32; 128 139; 129 183; 
130 90; 131 255; 132 101; 133 294; 134 152; 
135 351; 136 67; 137 24; 138 7; 139 11; 
140 6; 141 66; 142 47; 143 136; 144 62; 
145 279; 146 121; 147 225; 148 155; 149 131; 
150 46; 151 19; 152 20; 153 22; 154 15; 
155 54; 156 46; 157 117; 158 70; 159 260; 
160 145; 161 297; 162 162; 163 98; 164 9; 
165 19; 166 7; 167 15; 168 9; 169 29; 
170 27; 171 82; 172 70; 173 215; 174 118; 
175 187; 176 54; 177 41; 178 14; 179 12; 
180 5; 181 14; 182 6; 183 23; 184 25; 
185 83; 186 114; 187 180; 188 90; 189 104; 
190 74; 191 17; 192 20; 193 37; 194 6; 
195 35; 196 8; 197 66; 198 30; 199 91; 
200 54; 201 53; 202 56; 203 52; 204 10; 
207 9; 208 5; 209 8; 210 5; 211 15; 
212 79; 213 205; 214 92; 215 587; 216 91; 
217 99; 218 136; 219 17; 220 7; 223 3; 
225 3; 227 56; 228 72; 229 31; 230 124; 
231 858; 232 154; 233 25; 234 5; 237 21; 
238 6; 240 14; 241 20; 242 31; 243 7; 
244 5; 245 33; 246 6; 251 5; 255 165; 
256 50; 257 6; 259 3; 260 14; 266 13; 
267 7; 269 19; 270 7; 273 227; 274 52; 
275 4; 281 4; 284 101; 285 30; 286 3; 
287 8; 302 999; 303 244; 304 27; 305 5; 
