Name: Norethindrone Acetate
Synon: 17.alpha.-Ethinyl-19-nortestosterone acetate
Synon: 17.alpha.-Ethinyl-19-nortestosterone 17.beta.-acetate
Synon: 17.alpha.-Ethynyl-17.beta.-acetoxy-19-norandrost-4-en-3-one
Synon: 17.alpha.-Ethynyl-17-hydroxyestr-4-en-3-one acetate
Synon: 17.beta.-Acetoxy-19-nor-17.alpha.-pregn-4-en-20-yn-3-one
Synon: 17.beta.-Hydroxy-19-nor-17.alpha.-pregn-4-en-20-yn-3-one acetate
Synon: 17-Acetoxy-19-nor-17.alpha.-pregn-4-en-20-yn-3-one
Synon: 17-Acetyloxy(17.alpha.)-19-norpregn-4-estren-17.beta.-ol-acetate-3-one
InChIKey: IMONTRJLAWHYGT-UHFFFAOYSA-N
Formula: C22H28O3
MW: 340
ExactMass: 340.203844
CASNO: 51989
ID: 1344
Comment: AAFS / Unverified / Probability Based Matching Data Base Entry
Num Peaks: 214
40 9; 41 112; 42 28; 43 999; 44 28; 
45 13; 50 6; 51 29; 52 19; 53 159; 
54 18; 55 132; 56 8; 57 16; 60 7; 
61 5; 63 11; 64 7; 65 87; 66 32; 
67 124; 68 25; 69 42; 70 8; 71 13; 
72 5; 73 9; 76 5; 77 242; 78 78; 
79 261; 80 38; 81 104; 82 22; 83 32; 
84 4; 85 5; 86 3; 89 13; 90 6; 
91 355; 92 59; 93 97; 94 24; 95 63; 
96 16; 97 32; 98 5; 99 4; 101 10; 
103 55; 104 31; 105 154; 106 36; 107 117; 
108 56; 109 67; 110 139; 111 24; 112 6; 
113 3; 115 92; 116 34; 117 100; 118 36; 
119 90; 120 55; 121 65; 122 56; 123 38; 
124 21; 125 8; 126 6; 127 20; 128 62; 
129 68; 130 26; 131 77; 132 30; 133 68; 
134 41; 135 78; 136 22; 137 19; 138 7; 
141 38; 142 24; 143 42; 144 20; 145 53; 
146 28; 147 62; 148 33; 149 36; 150 11; 
151 7; 152 13; 153 17; 155 34; 156 16; 
157 37; 158 27; 159 60; 160 52; 161 56; 
162 43; 163 23; 164 9; 165 17; 166 9; 
167 15; 168 9; 169 24; 170 21; 171 41; 
172 23; 173 53; 174 27; 175 32; 176 12; 
177 13; 178 13; 179 9; 180 4; 181 14; 
182 8; 183 21; 184 13; 185 24; 186 29; 
187 32; 188 20; 189 26; 190 6; 191 7; 
193 6; 194 4; 195 19; 196 12; 197 26; 
198 14; 199 68; 200 18; 201 25; 202 15; 
203 15; 204 7; 205 6; 207 6; 208 6; 
209 17; 210 13; 211 19; 212 17; 213 76; 
214 22; 215 86; 216 21; 217 15; 218 9; 
219 7; 220 3; 221 6; 222 5; 223 24; 
224 13; 225 14; 226 19; 227 15; 228 46; 
229 24; 230 24; 231 142; 232 23; 233 7; 
236 5; 237 21; 238 15; 239 9; 240 3; 
241 18; 242 9; 243 4; 247 6; 251 18; 
252 19; 253 10; 254 5; 255 14; 256 10; 
262 3; 263 7; 265 38; 266 6; 269 21; 
270 23; 271 4; 279 20; 280 77; 281 21; 
282 4; 283 83; 284 20; 286 10; 297 73; 
298 159; 299 32; 300 5; 325 282; 326 67; 
327 8; 340 431; 341 104; 342 16; 
