Name: Thiobarbituric acid
Synon: 2-thiobarbituric acid
InChIKey: RVBUGGBMJDPOST-UHFFFAOYSA-N
Formula: C4H4N2O2S
MW: 144
ExactMass: 143.999349
CASNO: 504176
ID: 1345
Comment: AAFS / Probability Based Matching Data Base Entry
Num Peaks: 93
41 91; 42 495; 43 331; 44 45; 45 24; 
46 59; 47 57; 48 9; 49 3; 50 3; 
51 4; 52 6; 53 11; 54 11; 55 21; 
56 71; 57 17; 58 56; 59 391; 60 80; 
61 23; 62 6; 63 3; 64 2; 65 13; 
66 4; 67 18; 68 39; 69 511; 70 35; 
71 17; 72 15; 73 28; 74 51; 75 10; 
76 44; 77 4; 78 3; 79 4; 80 3; 
81 10; 82 7; 83 13; 84 81; 85 45; 
87 4; 88 5; 89 1; 90 1; 91 9; 
92 20; 93 6; 94 3; 95 14; 96 6; 
97 8; 98 5; 99 2; 101 24; 103 6; 
104 1; 105 3; 106 2; 107 3; 108 15; 
109 5; 110 3; 111 4; 112 26; 113 3; 
116 605; 117 28; 118 32; 119 9; 120 3; 
121 3; 122 1; 123 4; 124 2; 125 2; 
127 1; 129 3; 131 1; 135 1; 136 1; 
137 3; 138 1; 140 2; 141 2; 144 999; 
145 61; 147 3; 149 5; 
