Name: Isopropyl Alcohol
Synon: 2-propanol
Synon: IPA
Synon: Isopropanol
InChIKey: KFZMGEQAYNKOFK-UHFFFAOYSA-N
Formula: C3H8O
MW: 60
ExactMass: 60.057515
CASNO: 67630
ID: 1347
Comment: DEA SWL
Num Peaks: 31
13 1; 14 5; 15 18; 16 1; 17 3; 
18 11; 19 27; 25 1; 26 11; 27 78; 
28 35; 29 67; 30 4; 31 51; 32 17; 
36 1; 37 9; 38 16; 39 50; 40 9; 
41 68; 42 37; 43 168; 45 999; 46 23; 
47 1; 53 1; 55 1; 57 2; 59 35; 
60 4; 
