Name: Diclofenac artifact
Synon: 2H-Indol-2-one, 1-(2,6-dichlorophenyl)-1,3-dihydro
InChIKey: JCICIFOYVSPMHG-UHFFFAOYSA-N
Formula: C14H9Cl2NO
MW: 277
ExactMass: 277.006119
CASNO: 15362400
ID: 1353
Comment: DEA SWL
Num Peaks: 102
40 6; 49 7; 50 67; 51 139; 52 78; 
53 4; 61 16; 62 46; 63 122; 64 35; 
65 6; 72 1; 73 32; 74 74; 75 117; 
76 91; 77 140; 78 159; 79 11; 84 18; 
85 18; 86 17; 87 23; 89 250; 93 55; 
94 25; 97 10; 98 12; 99 19; 100 27; 
101 14; 102 18; 103 15; 104 14; 107 182; 
108 66; 109 111; 110 26; 111 47; 112 13; 
113 10; 114 6; 116 3; 119 1; 123 4; 
124 18; 125 21; 126 25; 127 17; 128 11; 
133 8; 135 6; 136 25; 137 4; 138 14; 
139 6; 140 7; 145 39; 146 1; 147 31; 
148 3; 149 16; 150 56; 151 192; 152 99; 
153 25; 164 6; 171 13; 172 4; 173 8; 
174 6; 175 7; 176 24; 177 157; 178 212; 
179 343; 180 53; 181 1; 186 12; 187 6; 
188 5; 207 14; 208 9; 212 13; 213 74; 
214 999; 215 169; 216 323; 217 44; 241 18; 
242 599; 243 100; 244 196; 245 30; 248 9; 
250 1; 277 446; 278 71; 279 288; 280 45; 
281 54; 282 7; 
