Name: Delorazepam
Synon: 2H-1,4-Benzodiazepin-2-one, 7-chloro-5-(2-chlorophenyl)-1,3-dihydro-
Synon: B1, Benzodiazepine
Synon: Chlordemethyldiazepam
InChIKey: CHIFCDOIPRCHCF-UHFFFAOYSA-N
Formula: C15H10Cl2N2O
MW: 304
ExactMass: 304.017017
CASNO: 2894679
ID: 1354
Comment: AAFS
Num Peaks: 229
36 2; 37 6; 38 16; 39 24; 40 6; 
42 5; 45 3; 47 1; 48 1; 49 11; 
50 49; 51 62; 52 29; 53 2; 61 16; 
62 55; 63 87; 64 22; 65 16; 66 1; 
68 2; 72 4; 73 26; 74 67; 75 227; 
76 105; 77 85; 78 13; 80 9; 81 12; 
82 4; 85 11; 86 34; 87 39; 89 172; 
90 11; 91 36; 92 12; 93 44; 94 21; 
98 28; 99 58; 100 41; 101 32; 102 221; 
103 61; 104 22; 106 18; 107 41; 108 15; 
109 6; 110 28; 111 93; 112 56; 113 48; 
114 32; 115 10; 116 51; 117 16; 118 4; 
119 5; 120 149; 121 49; 122 6; 123 43; 
124 43; 125 78; 126 43; 127 34; 128 12; 
130 2; 131 3; 132 10; 133 1; 134 10; 
135 3; 136 30; 137 47; 138 178; 139 56; 
140 57; 141 8; 142 1; 144 2; 145 2; 
146 3; 147 15; 148 8; 149 41; 150 149; 
151 149; 152 95; 153 23; 154 3; 155 2; 
157 5; 158 3; 159 5; 160 13; 161 14; 
162 24; 163 148; 164 59; 165 67; 166 34; 
167 14; 168 9; 169 3; 170 2; 172 2; 
173 8; 174 11; 175 35; 176 78; 177 280; 
178 134; 179 73; 180 11; 181 4; 184 8; 
185 8; 186 36; 187 14; 188 22; 189 10; 
190 24; 191 22; 192 24; 193 8; 194 4; 
195 2; 197 4; 198 11; 199 14; 200 12; 
201 10; 202 9; 203 24; 204 26; 205 126; 
206 72; 207 15; 208 2; 209 1; 210 2; 
211 20; 212 38; 213 75; 214 109; 215 40; 
216 37; 217 6; 218 4; 219 1; 220 3; 
221 7; 222 5; 223 4; 224 9; 225 5; 
226 16; 227 38; 228 13; 229 15; 230 3; 
233 23; 234 67; 235 16; 236 2; 237 8; 
238 6; 239 138; 240 119; 241 348; 242 105; 
243 102; 244 21; 245 2; 246 2; 247 15; 
248 71; 249 21; 250 49; 251 14; 252 12; 
253 4; 254 5; 255 8; 257 1; 260 3; 
261 7; 262 21; 263 6; 264 4; 265 1; 
266 3; 267 13; 268 174; 269 950; 270 211; 
271 312; 272 52; 273 10; 274 1; 275 999; 
276 610; 277 837; 278 419; 279 220; 280 77; 
281 24; 282 2; 283 1; 284 1; 293 1; 
294 1; 295 32; 296 24; 297 12; 298 8; 
299 1; 303 669; 304 955; 305 578; 306 615; 
307 163; 308 107; 309 18; 310 1; 
