Name: Methylethylketone
Synon: 2-butanone
Synon: MEK
Synon: Ethylmethylketone
InChIKey: ZWEHNKRNPOVVGH-UHFFFAOYSA-N
Formula: C4H8O
MW: 72
ExactMass: 72.0575147
CASNO: 78933
ID: 1360
Comment: DEA SWL / Sigma lot 110K1690
Num Peaks: 38
13 2; 14 10; 15 44; 16 1; 18 1; 
25 3; 26 42; 27 140; 28 30; 29 185; 
30 6; 31 10; 32 3; 36 2; 37 10; 
38 12; 39 43; 40 5; 41 24; 42 86; 
43 999; 44 20; 45 12; 49 4; 50 9; 
51 5; 52 1; 53 8; 54 2; 55 9; 
57 75; 58 4; 60 1; 61 3; 70 2; 
72 225; 73 13; 74 1; 
