Name: 2-Chloro-1,4-dimethoxybenzene
InChIKey: QMXZSRVFIWACJH-UHFFFAOYSA-N
Formula: C8H9ClO2
MW: 172
ExactMass: 172.029107
CASNO: 2100427
ID: 1362
Comment: ENFSI / J. of the CLIC Assoc., Vol. 9, no.4. October 1999, pp 17-20
Num Peaks: 75
37 17; 38 22; 39 42; 40 4; 41 13; 
42 7; 43 4; 48 9; 49 11; 50 39; 
51 112; 52 7; 53 100; 54 32; 55 4; 
60 21; 61 22; 62 51; 63 136; 64 19; 
65 113; 66 14; 67 5; 69 1; 72 6; 
73 12; 74 22; 75 31; 76 8; 77 45; 
78 5; 79 126; 80 10; 82 10; 84 10; 
85 13; 86 25; 87 13; 88 19; 91 10; 
92 17; 93 10; 94 8; 97 15; 98 13; 
99 13; 100 13; 101 13; 107 127; 108 9; 
111 13; 113 15; 114 26; 115 7; 116 8; 
117 4; 122 9; 123 3; 126 33; 127 5; 
128 15; 129 192; 130 12; 131 64; 138 1; 
141 11; 157 999; 158 65; 159 302; 160 24; 
171 5; 172 497; 173 42; 174 190; 175 17; 
