Name: 2-Bromophenylacetic acid
InChIKey: DWXSYDKEWORWBT-UHFFFAOYSA-N
Formula: C8H7BrO2
MW: 214
ExactMass: 213.962942
CASNO: 18698970
ID: 1365
Comment: DEA SWL
Num Peaks: 55
40 6; 41 11; 42 15; 43 14; 44 7; 
45 433; 49 34; 50 131; 51 150; 52 16; 
53 15; 55 7; 60 6; 61 84; 62 243; 
63 436; 64 116; 65 80; 73 10; 74 63; 
75 57; 76 7; 77 185; 78 85; 79 196; 
80 39; 81 24; 82 8; 85 12; 86 73; 
87 55; 88 8; 89 846; 90 572; 91 414; 
92 15; 105 34; 107 163; 108 7; 117 7; 
119 15; 122 11; 134 58; 135 999; 136 111; 
137 8; 143 22; 145 14; 169 325; 170 30; 
171 341; 172 25; 214 32; 216 45; 217 14; 
