Name: Vitamin E
Synon: dl-.alpha.-Tocopherol
Synon: (n~)-.alpha.-Tocopherol
Synon: 2,5,7,8-Tetramethyl-2-(4,8,12-trimethyltridecyl)-6-chromanol
InChIKey: GVJHHUAWPYXKBD-UHFFFAOYSA-N
Formula: C29H50O2
MW: 430
ExactMass: 430.38108
CASNO: 10191410
ID: 1366
Comment: Jason Nawyn
Num Peaks: 142
39 5; 40 1; 41 57; 42 13; 43 141; 
53 9; 54 3; 55 50; 56 12; 57 71; 
58 3; 65 3; 66 1; 67 14; 68 3; 
69 26; 70 2; 71 31; 72 1; 77 6; 
79 8; 80 2; 81 16; 82 3; 83 12; 
84 1; 85 6; 91 18; 92 3; 93 9; 
94 2; 95 8; 97 6; 103 3; 105 7; 
106 1; 107 11; 108 3; 109 8; 110 1; 
111 3; 115 4; 116 1; 117 4; 118 1; 
119 8; 120 2; 121 48; 122 13; 123 4; 
124 1; 125 4; 127 1; 128 2; 129 2; 
131 4; 132 1; 133 1; 134 1; 135 20; 
136 33; 137 24; 138 4; 139 1; 141 1; 
142 1; 143 1; 144 2; 145 5; 146 2; 
147 3; 148 1; 149 17; 150 3; 151 8; 
152 12; 153 3; 157 1; 159 6; 160 1; 
161 10; 162 7; 163 12; 164 253; 165 807; 
166 93; 167 10; 171 1; 172 2; 173 4; 
174 3; 175 11; 176 6; 177 16; 178 10; 
179 5; 180 2; 185 1; 186 1; 187 5; 
188 1; 189 14; 190 14; 191 12; 192 2; 
201 2; 202 1; 203 18; 204 7; 205 90; 
206 14; 215 1; 217 1; 218 1; 219 3; 
220 1; 221 3; 246 1; 260 2; 274 2; 
288 4; 289 1; 302 4; 303 1; 316 3; 
317 1; 330 1; 344 3; 345 1; 358 2; 
359 1; 372 1; 387 1; 388 2; 414 2; 
415 2; 417 1; 428 5; 430 999; 431 314; 
432 50; 433 5; 
