Name: Benoxaprofen
Synon: 2-(p-Chlorophenyl)-.alpha.-methyl-5-benzoxazoleacetic acid
Synon: 2-(4-Chlorophenyl)-.alpha.-methyl-5-benzoxazoleacetic acid
InChIKey: MITFXPHMIHQXPI-UHFFFAOYSA-N
Formula: C16H12ClNO3
MW: 301
ExactMass: 301.050571
CASNO: 51234287
ID: 1367
Comment: AAFS
Num Peaks: 62
43 6; 45 28; 50 17; 51 28; 52 6; 
53 9; 55 5; 62 11; 63 44; 64 17; 
65 141; 66 11; 73 6; 74 7; 75 26; 
76 15; 77 11; 79 5; 87 6; 88 5; 
89 51; 90 22; 91 261; 92 26; 93 11; 
96 11; 102 11; 111 18; 113 7; 114 6; 
119 169; 120 19; 121 7; 128 48; 129 17; 
137 23; 138 11; 139 22; 140 5; 149 13; 
150 6; 165 6; 191 6; 192 5; 193 5; 
220 6; 221 10; 228 5; 229 12; 230 8; 
231 5; 242 16; 244 5; 254 7; 256 999; 
257 172; 258 342; 259 54; 301 497; 302 95; 
303 172; 304 30; 
