Name: 2,4,6-Trimethoxybenzoic Acid
InChIKey: JATAKEDDMQNPOQ-UHFFFAOYSA-N
Formula: C10H12O5
MW: 212
ExactMass: 212.068474
CASNO: 570025
ID: 1377
Comment: AAFS / Unverified / Probability Based Matching Data Base Entry
Num Peaks: 87
40 4; 41 17; 42 3; 43 12; 45 4; 
49 3; 50 21; 51 50; 52 48; 53 22; 
54 7; 55 13; 56 4; 57 5; 59 21; 
60 3; 61 9; 62 27; 63 57; 64 20; 
65 44; 66 32; 67 28; 68 9; 69 155; 
70 8; 71 7; 73 4; 74 9; 75 5; 
77 52; 78 97; 79 113; 80 41; 81 20; 
82 28; 83 10; 84 14; 85 7; 91 11; 
92 19; 93 53; 94 48; 95 102; 96 26; 
97 16; 105 9; 106 12; 107 85; 108 80; 
109 170; 110 68; 111 10; 119 3; 120 9; 
121 18; 122 72; 123 28; 124 137; 125 272; 
126 24; 135 36; 136 10; 137 98; 138 87; 
139 999; 140 88; 141 9; 148 8; 149 27; 
151 13; 152 19; 153 10; 163 4; 165 20; 
166 19; 167 139; 168 762; 169 85; 170 9; 
180 6; 181 4; 193 3; 195 32; 196 4; 
212 26; 213 4; 
