Name: 2,3-Dimethoxyphenethylamine
InChIKey: XKBUFTXNLBWTFP-UHFFFAOYSA-N
Formula: C10H15NO2
MW: 181
ExactMass: 181.110279
CASNO: 3213294
ID: 1384
Comment: DEA SWL / Aldrich lot 10216EB
Num Peaks: 92
40 23; 41 30; 42 22; 43 22; 44 12; 
45 8; 47 5; 49 3; 50 50; 51 145; 
52 54; 53 57; 54 12; 55 22; 56 3; 
57 1; 59 2; 61 6; 62 26; 63 81; 
64 43; 65 354; 66 90; 67 36; 68 8; 
69 5; 73 1; 74 13; 75 14; 76 21; 
77 240; 78 175; 79 121; 80 32; 81 34; 
82 4; 85 1; 86 3; 87 3; 89 63; 
90 48; 91 471; 92 63; 93 70; 94 73; 
95 25; 96 2; 102 5; 103 9; 104 28; 
105 121; 106 130; 107 95; 108 25; 109 120; 
110 11; 115 1; 116 13; 117 17; 118 19; 
119 16; 120 11; 121 95; 122 97; 123 31; 
124 3; 130 2; 131 3; 132 8; 133 16; 
134 39; 135 112; 136 301; 137 378; 138 39; 
139 5; 146 4; 148 22; 149 159; 150 999; 
151 159; 152 738; 153 75; 154 8; 163 3; 
164 5; 165 9; 166 1; 179 1; 180 1; 
181 7; 182 1; 
