Name: 2,4,5-Trimethoxybenzaldehyde
InChIKey: IAJBQAYHSQIQRE-UHFFFAOYSA-N
Formula: C10H12O4
MW: 196
ExactMass: 196.073559
CASNO: 4460860
ID: 1386
Comment: DEA SWL
Num Peaks: 107
40 9; 41 64; 42 8; 43 41; 44 1; 
45 18; 49 19; 50 157; 51 240; 52 117; 
53 299; 54 40; 55 45; 56 8; 57 7; 
59 145; 60 4; 61 34; 62 73; 63 98; 
64 44; 65 140; 66 107; 67 77; 68 13; 
69 266; 70 8; 71 5; 73 5; 74 23; 
75 36; 76 36; 77 148; 78 47; 79 173; 
80 72; 81 59; 82 80; 83 18; 84 4; 
85 8; 89 3; 90 7; 91 20; 92 54; 
93 138; 94 54; 95 239; 96 26; 97 32; 
98 8; 99 2; 101 1; 102 1; 103 3; 
104 9; 105 15; 106 14; 107 123; 108 47; 
109 186; 110 290; 111 24; 112 2; 118 2; 
119 25; 120 28; 121 64; 122 57; 123 117; 
124 43; 125 469; 126 35; 127 2; 133 11; 
134 16; 135 89; 136 125; 137 95; 138 94; 
139 112; 140 9; 148 9; 149 26; 150 410; 
151 117; 152 39; 153 254; 154 24; 155 2; 
163 10; 164 12; 165 71; 166 15; 167 51; 
168 6; 169 1; 178 15; 179 113; 180 38; 
181 528; 182 54; 183 6; 195 131; 196 999; 
197 110; 198 13; 
