Name: DOET
Synon: HECATE
Synon: PIHKAL #66
Synon: 2,5-Dimethoxy-4-ethylamphetamine
Synon: DOE
InChIKey: HXJKWPGVENNMCC-UHFFFAOYSA-N
Formula: C13H21NO2
MW: 223
ExactMass: 223.157228
CASNO: 22004326
ID: 1390
Comment: DEA SWL / SWGDRUG Monograph available
Num Peaks: 114
40 3; 41 14; 42 24; 43 13; 44 999; 
45 29; 50 4; 51 16; 52 8; 53 21; 
54 4; 55 10; 56 3; 57 5; 58 1; 
59 1; 62 2; 63 12; 64 5; 65 30; 
66 8; 67 17; 68 3; 69 2; 72 1; 
74 3; 75 3; 76 4; 77 75; 78 29; 
79 36; 80 6; 81 5; 82 4; 83 3; 
87 1; 89 14; 90 7; 91 136; 92 17; 
93 20; 94 6; 95 3; 97 10; 101 1; 
102 6; 103 32; 104 22; 105 38; 106 10; 
107 14; 108 8; 109 5; 115 46; 116 13; 
117 39; 118 11; 119 28; 120 9; 121 37; 
122 17; 123 8; 124 1; 127 1; 128 4; 
129 2; 130 5; 131 10; 132 8; 133 18; 
134 28; 135 27; 136 14; 137 15; 138 2; 
143 1; 144 2; 145 3; 146 6; 147 10; 
148 9; 149 32; 150 16; 151 28; 152 3; 
158 1; 159 1; 160 3; 161 6; 162 6; 
163 7; 164 15; 165 262; 166 30; 167 2; 
174 1; 175 2; 176 6; 177 4; 178 4; 
179 52; 180 779; 181 92; 182 8; 190 3; 
191 3; 192 4; 193 2; 206 1; 207 2; 
208 4; 222 2; 223 12; 224 2; 
