Name: Pregnanetriol
Synon: (3R,5R,8R,9S,10S,13S,14S,17R)-17-[(1S)-1-hydroxyethyl]-10,13-dimethyl-1,2,3,4,5,6,7,8,9,11,12,14,15,16-tetradecahydrocyclopenta[a]phenanthrene-3,17-diol-5.beta.-Pregnane-3.alpha.,17.alpha.,20.alpha.-triol
InChIKey: SCPADBBISMMJAW-UHFFFAOYSA-N
Formula: C21H36O3
MW: 336
ExactMass: 336.266445
CASNO: 1098459
ID: 1391
Comment: AAFS / Unverified / Probability Based Matching Data Base Entry
Num Peaks: 170
41 151; 42 38; 43 382; 44 101; 45 381; 
46 33; 47 8; 50 8; 53 106; 54 35; 
55 440; 56 49; 57 179; 58 38; 59 18; 
60 6; 61 8; 65 66; 66 32; 67 445; 
68 90; 69 192; 70 59; 71 101; 72 12; 
73 17; 74 20; 77 194; 78 39; 79 490; 
80 78; 81 411; 82 77; 83 181; 84 69; 
85 30; 86 7; 87 23; 88 19; 89 6; 
91 407; 92 76; 93 421; 94 112; 95 349; 
96 50; 97 112; 98 19; 99 11; 100 15; 
101 34; 102 17; 103 24; 104 19; 105 343; 
106 87; 107 433; 108 123; 109 214; 110 42; 
111 45; 115 33; 116 17; 117 81; 118 31; 
119 199; 120 67; 121 212; 122 58; 123 82; 
124 20; 125 12; 127 6; 128 18; 129 43; 
130 19; 131 125; 132 28; 133 228; 134 59; 
135 231; 136 42; 137 43; 138 8; 139 10; 
140 9; 142 11; 143 35; 144 15; 145 187; 
146 41; 147 237; 148 50; 149 84; 150 18; 
151 25; 153 7; 154 11; 157 32; 158 16; 
159 179; 160 43; 161 186; 162 49; 163 38; 
164 8; 165 22; 171 26; 172 10; 173 128; 
174 41; 175 60; 176 25; 177 23; 178 7; 
179 6; 183 7; 185 38; 186 12; 187 48; 
188 14; 189 23; 190 7; 191 22; 196 6; 
199 92; 200 19; 201 50; 202 14; 203 35; 
204 7; 213 61; 214 17; 215 304; 216 70; 
217 55; 218 17; 219 7; 227 16; 228 35; 
229 31; 230 41; 231 24; 232 8; 233 6; 
239 7; 241 13; 244 9; 246 31; 247 6; 
253 6; 255 999; 256 207; 257 46; 258 7; 
267 13; 272 7; 273 508; 274 107; 275 23; 
276 8; 285 11; 290 46; 291 361; 292 76; 
293 12; 300 11; 303 6; 318 54; 319 14; 
