Name: Fencamfamine
Synon: 3-Phenyl-N-ethyl-2-norbornanamine
InChIKey: IKFBPFGUINLYQI-UHFFFAOYSA-N
Formula: C15H21N
MW: 215
ExactMass: 215.167399
CASNO: 1209989
ID: 1394
Comment: ENFSI / NFI/Merck 4811449
Num Peaks: 135
38 4; 39 59; 40 15; 41 78; 42 37; 
43 15; 44 31; 46 3; 50 9; 51 49; 
52 15; 53 45; 54 30; 55 25; 56 218; 
57 28; 58 297; 59 14; 62 7; 63 32; 
64 10; 65 98; 66 17; 67 112; 68 69; 
69 22; 70 60; 71 145; 72 14; 73 4; 
74 8; 75 12; 76 24; 77 136; 78 51; 
79 49; 80 35; 81 31; 82 93; 83 26; 
84 411; 85 62; 86 6; 87 2; 88 4; 
89 53; 90 21; 91 392; 92 58; 93 17; 
94 28; 95 12; 96 74; 97 120; 98 999; 
99 71; 101 8; 102 38; 103 71; 104 77; 
105 61; 106 10; 108 17; 109 17; 110 79; 
111 12; 113 4; 114 9; 115 267; 116 75; 
117 154; 118 47; 119 28; 120 19; 121 3; 
122 17; 123 139; 124 257; 125 21; 126 8; 
127 38; 128 146; 129 107; 130 110; 131 39; 
132 109; 133 13; 134 6; 136 8; 137 14; 
138 18; 139 12; 140 4; 141 83; 142 71; 
143 63; 144 44; 145 9; 146 27; 147 100; 
148 37; 151 3; 152 12; 153 13; 154 15; 
155 21; 156 23; 157 12; 158 198; 159 26; 
160 106; 161 11; 165 4; 167 6; 168 3; 
169 6; 170 104; 171 29; 172 50; 173 12; 
174 17; 184 9; 185 5; 186 303; 187 161; 
188 16; 198 9; 200 44; 201 7; 212 7; 
213 15; 214 64; 215 835; 216 126; 217 10; 
