Name: m-Tyramine
Synon: 3-Hydroxyphenethylamine
InChIKey: GHFGJTVYMNRGBY-UHFFFAOYSA-N
Formula: C8H11NO
MW: 137
ExactMass: 137.084064
CASNO: 588056
ID: 1399
Comment: DEA SWL / Sigma lot 063K4620
Num Peaks: 78
40 42; 41 50; 42 73; 43 50; 44 6; 
45 3; 46 1; 47 1; 49 7; 50 96; 
51 198; 52 112; 53 171; 54 23; 55 65; 
56 5; 59 5; 60 1; 61 19; 62 57; 
63 147; 64 46; 65 145; 66 59; 67 28; 
68 24; 69 6; 70 1; 73 5; 74 31; 
75 24; 76 19; 77 650; 78 194; 79 197; 
80 79; 81 44; 82 3; 84 1; 85 4; 
86 8; 87 8; 88 3; 89 74; 90 70; 
91 209; 92 26; 93 17; 94 33; 95 4; 
96 1; 98 1; 99 1; 101 3; 102 4; 
103 5; 104 10; 105 23; 106 21; 107 601; 
108 999; 109 80; 110 6; 116 10; 117 23; 
118 47; 119 25; 120 30; 121 4; 122 1; 
132 1; 133 5; 134 31; 135 32; 136 11; 
137 356; 138 34; 139 3; 
