Name: 3,5-Dimethoxyphenethylamine
InChIKey: ZHSFEDDRTVLPHH-UHFFFAOYSA-N
Formula: C10H15NO2
MW: 181
ExactMass: 181.110279
CASNO: 3213283
ID: 1403
Comment: DEA SWL / Aldrich lot 11130JO
Num Peaks: 88
40 4; 41 10; 42 7; 43 7; 44 1; 
45 2; 50 12; 51 36; 52 15; 53 16; 
54 3; 55 7; 56 1; 57 1; 59 3; 
61 1; 62 9; 63 25; 64 11; 65 64; 
66 20; 67 13; 68 4; 69 17; 70 1; 
74 4; 75 5; 77 89; 78 68; 79 43; 
80 11; 81 5; 82 1; 83 1; 86 1; 
87 1; 89 16; 90 11; 91 82; 92 26; 
93 16; 94 14; 95 8; 96 1; 102 1; 
103 3; 104 8; 105 16; 106 13; 107 27; 
108 24; 109 39; 110 4; 116 2; 117 4; 
118 3; 119 6; 120 14; 121 54; 122 28; 
123 68; 124 7; 125 1; 132 2; 133 8; 
134 20; 135 12; 136 8; 137 42; 138 15; 
139 3; 147 1; 148 5; 149 13; 150 8; 
151 100; 152 999; 153 97; 154 8; 164 7; 
165 3; 166 2; 177 1; 178 1; 179 3; 
181 120; 182 15; 183 1; 
