Name: 3,4-Methylenedioxyphenethylamine
Synon: PIHKAL #115
Synon: MDPEA
InChIKey: RRIRDPSOCUCGBV-UHFFFAOYSA-N
Formula: C9H11NO2
MW: 165
ExactMass: 165.078979
CASNO: 1653641
ID: 1406
Comment: DEA SWL  / Aldrich lot 560529
Num Peaks: 69
40 8; 41 8; 42 18; 43 9; 44 2; 
49 4; 50 64; 51 217; 52 41; 53 34; 
54 8; 55 5; 61 8; 62 27; 63 49; 
64 14; 65 26; 66 9; 67 11; 68 3; 
73 2; 74 19; 75 14; 76 30; 77 303; 
78 126; 79 72; 80 15; 82 11; 85 1; 
86 2; 87 2; 88 1; 89 24; 90 7; 
91 14; 92 4; 93 2; 94 1; 102 1; 
103 1; 104 16; 105 76; 106 81; 107 21; 
108 2; 116 2; 117 2; 118 1; 119 1; 
121 13; 122 4; 123 1; 132 1; 133 2; 
135 614; 136 999; 137 80; 138 6; 145 1; 
147 15; 148 11; 149 1; 161 1; 162 2; 
163 8; 165 143; 166 16; 167 1; 
