Name: 3,4-Methylenedioxyphenylacetonitrile
InChIKey: ZQPBOYASBNAXOZ-UHFFFAOYSA-N
Formula: C9H7NO2
MW: 161
ExactMass: 161.047678
CASNO: 4439025
ID: 1408
Comment: DEA SWL / Pfaltz and Bauer lot 35210
Num Peaks: 64
40 7; 41 5; 42 6; 43 2; 46 3; 
49 13; 50 126; 51 136; 52 44; 53 45; 
54 4; 55 3; 60 2; 61 25; 62 64; 
63 128; 64 38; 65 41; 66 16; 67 7; 
68 2; 73 7; 74 39; 75 93; 76 251; 
77 151; 78 50; 79 16; 80 25; 85 2; 
86 3; 87 4; 88 7; 89 8; 90 7; 
91 10; 92 8; 93 2; 99 7; 100 5; 
101 6; 102 61; 103 568; 104 95; 105 68; 
106 9; 107 1; 114 3; 115 4; 116 5; 
119 2; 120 2; 121 9; 130 36; 131 193; 
132 35; 133 4; 134 5; 135 31; 136 3; 
160 999; 161 922; 162 93; 163 7; 
