Name: 3,4-Methylenedioxyphenylacetic acid
InChIKey: ODVLMCWNGKLROU-UHFFFAOYSA-N
Formula: C9H8O4
MW: 180
ExactMass: 180.042258
CASNO: 2861281
ID: 1409
Comment: DEA SWL
Num Peaks: 75
36 2; 37 8; 38 23; 39 50; 40 6; 
41 3; 42 5; 43 4; 44 9; 45 31; 
46 2; 47 1; 49 7; 50 90; 51 253; 
52 32; 53 41; 54 4; 55 10; 56 1; 
60 1; 61 8; 62 20; 63 26; 64 7; 
65 28; 66 10; 67 35; 69 3; 73 3; 
74 22; 75 20; 76 37; 77 285; 78 48; 
79 53; 80 4; 81 3; 82 1; 85 1; 
86 1; 87 1; 89 2; 90 1; 91 2; 
92 2; 93 6; 94 2; 95 2; 96 1; 
103 1; 104 5; 105 88; 106 15; 107 3; 
110 1; 119 1; 120 1; 121 4; 122 2; 
133 1; 134 16; 135 999; 136 91; 137 9; 
138 1; 149 2; 151 1; 161 1; 162 5; 
163 1; 179 9; 180 259; 181 25; 182 2; 
