Name: Piperonylamine
Synon: 3,4-Methylenedioxybenzylamine
InChIKey: ZILSBZLQGRBMOR-UHFFFAOYSA-N
Formula: C8H9NO2
MW: 151
ExactMass: 151.063329
CASNO: 2620500
ID: 1414
Comment: ENFSI
Num Peaks: 67
37 21; 38 39; 39 167; 40 47; 41 36; 
42 25; 43 9; 44 22; 46 18; 47 31; 
48 6; 49 21; 50 86; 51 139; 52 43; 
53 64; 54 44; 55 12; 61 30; 62 87; 
63 185; 64 67; 65 337; 66 128; 67 55; 
68 6; 73 6; 75 59; 76 41; 77 259; 
78 47; 79 45; 80 14; 81 13; 83 60; 
85 41; 87 10; 89 5; 90 17; 91 24; 
92 46; 93 470; 94 60; 95 123; 96 9; 
104 12; 105 60; 106 12; 108 6; 118 10; 
119 9; 120 52; 121 568; 122 116; 123 138; 
124 8; 133 11; 134 20; 135 352; 136 33; 
146 11; 148 70; 149 45; 150 999; 151 965; 
152 82; 153 8; 
