Name: Piperonyl Alcohol
Synon: 3,4-methylenedioxybenzyl alcohol
InChIKey: BHUIUXNAPJIDOG-UHFFFAOYSA-N
Formula: C8H8O3
MW: 152
ExactMass: 152.047344
CASNO: 495761
ID: 1417
Comment: DEA SWL
Num Peaks: 73
40 60; 41 29; 42 16; 43 13; 44 6; 
45 1; 46 4; 47 8; 48 1; 49 16; 
50 139; 51 245; 52 41; 53 133; 54 18; 
55 58; 56 4; 60 7; 61 49; 62 137; 
63 276; 64 65; 65 654; 66 233; 67 49; 
68 11; 69 10; 70 1; 71 1; 73 6; 
74 43; 75 64; 76 43; 77 279; 78 40; 
79 58; 80 5; 81 14; 82 4; 83 1; 
86 1; 89 7; 90 3; 91 32; 92 15; 
93 645; 94 313; 95 48; 96 3; 104 17; 
105 86; 106 11; 107 2; 109 7; 110 1; 
119 12; 120 7; 121 200; 122 315; 123 333; 
124 26; 125 1; 133 1; 134 10; 135 587; 
136 62; 137 5; 149 67; 150 29; 151 311; 
152 999; 153 90; 154 8; 
