Name: 3,4-Methylenedioxyacetophenone
Synon: 3,4-Methylenedioxyacetofenon
InChIKey: BMHMKWXYXFBWMI-UHFFFAOYSA-N
Formula: C9H8O3
MW: 164
ExactMass: 164.047344
CASNO: 3162296
ID: 1420
Comment: ENFSI / Lancaster 10033709
Num Peaks: 61
37 13; 38 18; 39 39; 40 3; 41 1; 
42 12; 43 118; 44 3; 49 6; 50 41; 
51 56; 52 8; 53 34; 54 3; 55 1; 
60 9; 61 26; 62 85; 63 171; 64 23; 
65 191; 66 14; 67 6; 68 9; 69 1; 
73 3; 74 55; 75 10; 76 7; 77 29; 
78 6; 79 11; 80 1; 85 1; 86 1; 
87 1; 88 1; 89 3; 90 2; 91 84; 
92 12; 93 2; 104 1; 105 4; 107 1; 
119 24; 120 17; 121 353; 122 28; 123 2; 
133 1; 135 11; 136 1; 147 1; 149 999; 
150 91; 151 8; 163 10; 164 448; 165 47; 
166 4; 
