Name: 3,4-Dimethoxyphenylacetone
Synon: 3,4-dimethoxyphenyl-2-propanone
InChIKey: UMYZWICEDUEWIM-UHFFFAOYSA-N
Formula: C11H14O3
MW: 194
ExactMass: 194.094295
CASNO: 776998
ID: 1421
Comment: DEA SWL / Aldrich lot 09126HB / found as impurity in MDP2P
Num Peaks: 62
40 3; 41 2; 43 89; 44 2; 45 2; 
50 14; 51 34; 52 12; 53 9; 54 1; 
55 3; 61 1; 62 6; 63 22; 64 13; 
65 63; 66 11; 67 3; 69 1; 74 4; 
75 3; 76 6; 77 49; 78 51; 79 26; 
80 12; 81 2; 86 1; 87 1; 89 25; 
90 33; 91 40; 92 12; 93 6; 94 7; 
95 1; 103 3; 105 56; 106 62; 107 114; 
108 38; 109 5; 118 9; 119 5; 120 3; 
121 5; 122 6; 123 1; 133 2; 135 38; 
136 12; 137 20; 138 1; 147 1; 149 1; 
151 999; 152 94; 153 8; 163 1; 194 162; 
195 21; 196 2; 
