Name: 3,4-Dimethoxyphenethylamine
Synon: DMPEA
Synon: PIHKAL #60
InChIKey: ANOUKFYBOAKOIR-UHFFFAOYSA-N
Formula: C10H15NO2
MW: 181
ExactMass: 181.110279
CASNO: 120207
ID: 1422
Comment: DEA SWL / Aldrich lot 14207MA
Num Peaks: 79
40 4; 41 7; 42 6; 43 5; 44 1; 
45 2; 50 13; 51 41; 52 16; 53 15; 
54 3; 55 7; 57 1; 59 1; 61 1; 
62 7; 63 23; 64 12; 65 72; 66 21; 
67 11; 68 3; 69 2; 74 4; 75 4; 
76 6; 77 68; 78 70; 79 43; 80 17; 
81 12; 82 1; 86 1; 87 1; 89 32; 
90 42; 91 72; 92 15; 93 13; 94 28; 
95 10; 102 1; 103 4; 104 6; 105 54; 
106 77; 107 139; 108 41; 109 51; 110 4; 
116 2; 117 4; 118 13; 119 6; 120 5; 
121 48; 122 26; 123 8; 132 1; 133 6; 
134 8; 135 42; 137 227; 138 22; 139 2; 
147 1; 148 4; 149 9; 151 517; 152 999; 
153 101; 154 8; 164 8; 165 4; 177 1; 
179 3; 181 116; 182 15; 183 1; 
