Name: 3,4,5-Trimethoxyphenyl-2-nitropropene
InChIKey: TUTKQLIXDCWWJG-VMPITWQZSA-N
Formula: C12H15NO5
MW: 253
ExactMass: 253.095022
CASNO: 38059948
ID: 1423
Comment: DEA SWL / Western Biosynthesis lot 118A
Num Peaks: 175
40 40; 41 78; 42 31; 43 83; 44 5; 
45 71; 46 9; 47 19; 49 8; 50 132; 
51 277; 52 133; 53 217; 54 26; 55 59; 
56 21; 57 28; 58 6; 59 85; 60 3; 
61 17; 62 86; 63 279; 64 82; 65 241; 
66 164; 67 68; 68 17; 69 106; 70 6; 
71 5; 72 9; 73 7; 74 51; 75 212; 
76 123; 77 615; 78 399; 79 173; 80 43; 
81 72; 82 67; 83 33; 84 6; 85 39; 
86 18; 87 30; 88 37; 89 273; 90 157; 
91 398; 92 144; 93 142; 94 66; 95 91; 
96 45; 97 22; 98 30; 99 44; 100 8; 
101 33; 102 102; 103 295; 104 97; 105 239; 
106 502; 107 144; 108 98; 109 105; 110 124; 
111 29; 112 11; 113 26; 114 16; 115 277; 
116 61; 117 78; 118 135; 119 173; 120 143; 
121 197; 122 167; 123 112; 124 42; 125 300; 
126 47; 127 126; 128 16; 129 40; 130 26; 
131 215; 132 96; 133 386; 134 206; 135 94; 
136 113; 137 104; 138 230; 139 46; 140 25; 
141 66; 142 6; 143 37; 144 9; 145 101; 
146 137; 147 143; 148 277; 149 371; 150 175; 
151 74; 152 37; 153 223; 154 28; 155 62; 
156 6; 157 28; 158 9; 159 12; 160 42; 
161 488; 162 125; 163 383; 164 94; 165 140; 
166 75; 167 26; 168 87; 169 58; 170 25; 
171 6; 172 3; 173 8; 174 18; 175 56; 
176 261; 177 310; 178 105; 179 54; 180 38; 
181 102; 182 23; 183 11; 184 1; 188 2; 
189 15; 190 39; 191 643; 192 235; 193 99; 
194 28; 195 34; 196 105; 197 31; 198 3; 
204 5; 205 10; 206 433; 207 184; 208 51; 
209 8; 210 8; 220 2; 221 10; 222 64; 
223 18; 224 4; 236 7; 237 9; 238 11; 
239 1; 253 999; 254 136; 255 17; 256 1; 
