Name: 3,4,5-Trimethoxybenzoic Acid
InChIKey: SJSOFNCYXJUNBT-UHFFFAOYSA-N
Formula: C10H12O5
MW: 212
ExactMass: 212.068474
CASNO: 118412
ID: 1427
Comment: AAFS / Unverified / Probability Based Matching Data Base Entry
Num Peaks: 103
40 3; 41 6; 43 9; 45 20; 49 4; 
50 30; 51 22; 52 7; 53 39; 54 5; 
55 30; 57 3; 59 8; 61 9; 62 15; 
63 18; 64 7; 65 56; 66 71; 67 32; 
68 11; 69 75; 70 6; 71 7; 73 4; 
74 8; 75 12; 76 12; 77 56; 78 20; 
79 43; 80 9; 81 57; 82 12; 83 21; 
84 3; 85 5; 91 11; 92 15; 93 139; 
94 25; 95 48; 96 16; 97 12; 98 29; 
99 7; 102 3; 103 3; 104 3; 105 6; 
106 9; 107 30; 108 30; 109 65; 110 47; 
111 145; 112 9; 113 4; 119 20; 120 6; 
121 16; 122 15; 123 51; 124 17; 125 17; 
126 96; 127 9; 133 4; 134 5; 135 17; 
136 29; 137 84; 138 16; 139 134; 140 10; 
141 331; 142 28; 143 4; 149 11; 150 113; 
152 103; 153 14; 154 188; 155 16; 156 3; 
164 5; 165 15; 167 25; 168 5; 169 143; 
170 13; 179 9; 181 29; 182 51; 183 7; 
195 44; 196 31; 197 795; 198 78; 199 11; 
212 999; 213 120; 214 16; 
