Name: Vinylbital
Synon: 5-vinyl-5(1-methylbutyl)barbituric acid
InChIKey: KGKJZEKQJQQOTD-UHFFFAOYSA-N
Formula: C11H16N2O3
MW: 224
ExactMass: 224.116093
CASNO: 2430491
ID: 1430
Comment: DEA SWL
Num Peaks: 74
40 20; 41 163; 42 35; 43 410; 44 39; 
45 2; 50 3; 51 12; 52 14; 53 43; 
54 28; 55 96; 56 8; 57 1; 62 1; 
63 4; 64 2; 65 29; 66 24; 67 61; 
68 11; 69 19; 70 32; 71 110; 72 6; 
77 19; 78 5; 79 26; 80 9; 81 15; 
82 25; 83 213; 84 13; 85 1; 87 1; 
91 6; 92 3; 93 5; 94 9; 95 16; 
96 6; 97 2; 98 12; 106 1; 107 2; 
108 3; 109 7; 110 18; 111 5; 112 14; 
113 1; 120 1; 121 3; 122 2; 123 2; 
124 4; 125 1; 126 10; 127 1; 135 3; 
136 2; 137 3; 138 8; 139 1; 141 5; 
152 3; 153 89; 154 999; 155 96; 156 10; 
167 2; 181 7; 182 1; 195 4; 
