Name: 5-Hydroxyindole
InChIKey: LMIQERWZRIFWNZ-UHFFFAOYSA-N
Formula: C8H7NO
MW: 133
ExactMass: 133.052764
CASNO: 1953544
ID: 1437
Comment: DEA SWL / Aldrich lot 431859
Num Peaks: 14
44 110; 50 88; 51 248; 52 130; 53 68; 
67 68; 77 243; 78 239; 79 164; 104 450; 
105 203; 132 135; 133 999; 134 154; 
