Name: Probarbital
Synon: 5-Ethyl-5-isopropylbarbituric acid
Synon: Ethylisopropylbarbituric acid
Synon: Isopropyl ethyl barbituric acid
InChIKey: HHLXJTDUHFBYAU-UHFFFAOYSA-N
Formula: C9H14N2O3
MW: 198
ExactMass: 198.100442
CASNO: 76766
ID: 1440
Comment: AAFS / Probability Based Matching Data Base Entry
Num Peaks: 75
26 3; 27 34; 28 29; 29 24; 30 1; 
37 1; 38 4; 39 39; 40 14; 41 119; 
42 19; 43 99; 44 29; 51 4; 52 9; 
53 19; 54 17; 55 39; 56 13; 57 10; 
58 9; 59 1; 65 5; 66 9; 67 23; 
68 15; 69 39; 70 31; 71 9; 72 1; 
79 4; 80 19; 81 3; 82 9; 83 19; 
84 11; 85 29; 86 9; 94 16; 95 9; 
96 9; 97 27; 98 79; 99 9; 100 1; 
108 1; 109 24; 110 8; 111 9; 112 49; 
113 17; 114 1; 124 2; 126 19; 140 3; 
141 579; 142 44; 143 14; 144 4; 153 1; 
154 9; 155 99; 156 999; 157 84; 158 14; 
159 4; 168 1; 169 59; 170 29; 171 9; 
182 1; 183 9; 184 1; 198 1; 199 6; 
