Name: Hexethal
Synon: 5-Ethyl-5-hexylbarbituric acid
InChIKey: PSTVHRSUNBSVIJ-UHFFFAOYSA-N
Formula: C12H20N2O3
MW: 240
ExactMass: 240.147392
CASNO: 77305
ID: 1441
Comment: AAFS / Probability Based Matching Data Base Entry
Num Peaks: 59
39 40; 40 10; 41 140; 42 20; 43 80; 
44 30; 52 10; 53 30; 54 20; 55 130; 
56 30; 57 20; 61 20; 67 10; 68 10; 
69 30; 70 20; 71 20; 72 10; 79 10; 
80 20; 81 10; 82 10; 83 40; 84 10; 
85 20; 86 10; 87 20; 94 10; 95 10; 
96 10; 97 20; 98 100; 99 10; 100 10; 
112 40; 113 10; 114 10; 115 30; 126 20; 
127 10; 128 10; 129 20; 130 40; 141 740; 
142 90; 143 20; 155 80; 156 999; 157 140; 
158 20; 169 20; 183 10; 195 30; 196 10; 
211 70; 212 40; 239 10; 240 20; 
