Name: Heptabarbital
Synon: Heptabarbitone
Synon: 5-Ethyl-5-cycloheptenylbarbituric acid
InChIKey: PAZQYDJGLKSCSI-UHFFFAOYSA-N
Formula: C13H18N2O3
MW: 250
ExactMass: 250.1317425
CASNO: 509864
ID: 1442
Comment: AAFS / Probability Based Matching Data Base Entry
Num Peaks: 77
39 49; 40 18; 41 79; 42 19; 43 19; 
44 20; 50 9; 51 21; 52 19; 53 47; 
54 20; 55 49; 56 9; 63 9; 64 9; 
65 35; 66 29; 67 67; 68 19; 69 19; 
70 19; 77 59; 78 24; 79 109; 80 29; 
81 129; 82 19; 83 9; 91 49; 92 19; 
93 71; 94 39; 95 68; 96 14; 97 19; 
98 39; 103 19; 104 9; 105 27; 112 19; 
117 11; 118 9; 119 11; 121 14; 122 19; 
123 9; 124 9; 129 9; 132 9; 133 16; 
134 9; 135 19; 136 19; 141 189; 142 19; 
150 19; 153 9; 155 47; 156 19; 157 29; 
160 16; 161 29; 162 9; 164 9; 165 9; 
167 16; 178 26; 179 24; 193 14; 204 9; 
205 9; 207 9; 221 999; 222 149; 223 24; 
249 14; 250 14; 
