Name: Butethal
Synon: 5-Butyl-5-ethylbarbituric acid
Synon: Butobarbital
Synon: Butobarbitone
InChIKey: STDBAQMTJLUMFW-UHFFFAOYSA-N
Formula: C10H16N2O3
MW: 212
ExactMass: 212.116093
CASNO: 77281
ID: 1445
Comment: AAFS
Num Peaks: 81
42 4; 43 19; 44 32; 45 2; 50 1; 
51 5; 52 6; 53 29; 54 23; 55 107; 
56 19; 57 13; 58 1; 59 1; 61 1; 
63 1; 65 5; 66 5; 67 15; 68 11; 
69 36; 70 32; 71 4; 72 2; 73 5; 
77 4; 78 1; 79 3; 80 23; 81 8; 
82 6; 83 28; 84 8; 85 22; 86 2; 
87 1; 93 1; 94 13; 95 8; 96 8; 
97 17; 98 150; 99 11; 100 2; 108 4; 
109 4; 110 2; 111 1; 112 53; 113 12; 
114 5; 115 1; 116 1; 122 1; 123 2; 
124 5; 125 3; 126 20; 127 3; 128 5; 
129 3; 138 2; 141 999; 142 146; 143 14; 
144 1; 152 1; 153 3; 155 91; 156 887; 
157 77; 158 8; 167 46; 168 5; 169 6; 
170 1; 181 1; 183 51; 184 71; 185 6; 
197 1; 
