Name: Thiamylal
Synon: Thioseconal
Synon: 5-Allyl-5-(1-methylbutyl)-2-thiobarbituric acid
InChIKey: XLOMZPUITCYLMJ-UHFFFAOYSA-N
Formula: C12H18N2O2S
MW: 254
ExactMass: 254.108899
CASNO: 77270
ID: 1449
Comment: AAFS / Probability Based Matching Data Base Entry
Num Peaks: 106
40 50; 41 860; 42 110; 43 999; 44 300; 
45 30; 48 20; 50 20; 51 60; 52 70; 
53 320; 54 80; 55 350; 56 70; 57 30; 
58 20; 59 30; 60 90; 61 10; 64 40; 
65 40; 66 40; 67 110; 68 70; 69 220; 
70 80; 71 150; 72 20; 76 30; 77 90; 
78 40; 79 100; 80 70; 81 170; 82 60; 
83 70; 84 20; 85 20; 86 40; 87 10; 
91 20; 93 20; 94 20; 95 60; 96 100; 
97 360; 98 100; 99 40; 100 20; 101 10; 
106 40; 107 20; 108 140; 109 130; 110 40; 
111 30; 112 60; 113 20; 114 30; 115 10; 
123 30; 124 230; 125 50; 126 60; 127 10; 
128 20; 129 20; 141 60; 142 40; 143 20; 
151 30; 152 30; 153 90; 154 20; 155 60; 
156 40; 157 50; 158 10; 166 30; 167 500; 
168 580; 169 240; 170 30; 171 50; 172 10; 
181 30; 182 10; 183 310; 184 840; 185 300; 
186 70; 187 10; 195 90; 196 40; 197 40; 
198 10; 209 10; 211 90; 212 110; 213 30; 
214 10; 221 10; 225 10; 239 10; 254 30; 
255 10; 
