Name: 5,6,7,8-Tetrahydroisoquinoline
InChIKey: YQDGQEKUTLYWJU-UHFFFAOYSA-N
Formula: C9H11N
MW: 133
ExactMass: 133.089149
CASNO: 10500579
ID: 1450
Comment: DEA SWL / TCI lot AV01
Num Peaks: 63
40 25; 41 43; 42 7; 43 1; 49 9; 
50 106; 51 186; 52 112; 53 42; 54 14; 
55 1; 59 1; 61 15; 62 56; 63 153; 
64 56; 65 108; 66 25; 67 11; 68 1; 
73 6; 74 58; 75 54; 76 60; 77 235; 
78 245; 79 123; 80 18; 81 1; 85 2; 
86 5; 87 12; 88 5; 89 65; 90 51; 
91 116; 92 53; 93 16; 94 3; 97 1; 
98 5; 99 3; 100 3; 101 9; 102 49; 
103 84; 104 274; 105 494; 106 74; 107 11; 
114 1; 115 14; 116 21; 117 261; 118 322; 
119 25; 120 1; 128 8; 130 148; 132 999; 
133 844; 134 89; 135 4; 
