Name: 5,5-Di-n-propylbarbituric acid
InChIKey: RCOUWKSZRXJXLA-UHFFFAOYSA-N
Formula: C10H16N2O3
MW: 212
ExactMass: 212.116093
CASNO: 2217085
ID: 1451
Comment: DEA SWL
Num Peaks: 74
40 9; 41 210; 42 29; 43 84; 44 42; 
45 2; 50 2; 51 6; 52 9; 53 43; 
54 27; 55 79; 56 13; 57 3; 58 2; 
59 5; 61 1; 63 1; 65 4; 66 3; 
67 15; 68 6; 69 28; 70 18; 71 4; 
72 1; 73 2; 77 2; 78 1; 79 3; 
80 29; 81 9; 82 5; 83 9; 84 3; 
85 2; 94 3; 95 5; 96 9; 97 23; 
98 156; 99 12; 100 1; 106 1; 108 6; 
109 34; 110 5; 111 2; 112 23; 113 6; 
114 3; 122 5; 123 1; 124 5; 125 3; 
126 17; 127 3; 128 2; 140 14; 141 999; 
142 122; 143 12; 152 1; 153 32; 154 3; 
155 53; 156 3; 167 1; 168 1; 169 81; 
170 464; 171 39; 172 4; 183 2; 
