Name: Cyclobarbital
Synon: 5-(1-Cyclohexenyl)-5-ethylbarbituric acid
InChIKey: WTYGAUXICFETTC-UHFFFAOYSA-N
Formula: C12H16N2O3
MW: 236
ExactMass: 236.116093
CASNO: 52313
ID: 1452
Comment: AAFS / Probability Based Matching Data Base Entry
Num Peaks: 140
48 16; 49 28; 50 53; 51 138; 52 93; 
53 140; 54 70; 55 340; 56 110; 57 240; 
58 33; 59 28; 60 17; 61 11; 62 10; 
63 35; 64 23; 65 114; 66 64; 67 703; 
68 123; 69 183; 70 140; 71 151; 72 23; 
73 84; 74 43; 75 173; 76 43; 77 423; 
78 149; 79 483; 80 213; 81 444; 82 108; 
83 123; 84 43; 85 53; 86 21; 87 19; 
89 24; 90 13; 91 245; 92 64; 93 168; 
94 67; 95 123; 96 33; 97 100; 98 89; 
99 33; 100 9; 101 1; 105 44; 106 15; 
107 55; 108 20; 109 60; 110 18; 111 19; 
112 18; 114 1; 115 4; 116 3; 117 18; 
118 18; 119 38; 120 11; 121 80; 122 63; 
123 40; 124 20; 125 30; 126 3; 127 4; 
128 24; 129 38; 130 12; 131 23; 132 20; 
133 3; 134 20; 135 40; 136 30; 137 20; 
138 9; 139 18; 140 20; 141 424; 142 53; 
143 49; 144 23; 145 41; 146 54; 147 140; 
148 40; 149 55; 150 31; 151 1; 156 3; 
157 105; 158 20; 159 9; 164 83; 165 20; 
167 9; 181 11; 182 1; 183 10; 185 43; 
186 13; 187 13; 189 18; 190 33; 191 34; 
192 20; 193 24; 194 13; 195 19; 197 30; 
198 3; 199 3; 205 23; 206 19; 207 999; 
208 153; 209 31; 210 80; 211 41; 212 11; 
213 10; 215 41; 216 28; 217 40; 218 55; 
219 81; 220 41; 221 10; 235 41; 236 21; 
