Name: Isonicotinamide
Synon: 4-Pyridinecarboxamide
Synon: Isonicotinic acid amide
InChIKey: VFQXVTODMYMSMJ-UHFFFAOYSA-N
Formula: C6H6N2O
MW: 122
ExactMass: 122.0480127
CASNO: 1453823
ID: 1453
Comment: DEA SWL
Num Peaks: 35
40 8; 41 5; 42 1; 43 7; 44 142; 
45 3; 48 4; 49 36; 50 244; 51 447; 
52 176; 53 31; 61 1; 62 2; 63 2; 
64 5; 65 3; 66 5; 67 4; 74 2; 
75 23; 76 28; 77 34; 78 548; 79 115; 
80 5; 93 1; 94 7; 104 17; 105 13; 
106 425; 107 29; 122 999; 123 73; 124 4; 
