Name: Pramoxine
Synon: 4-(3-(p-Butoxyphenoxy)propyl)morpholine
InChIKey: DQKXQSGTHWVTAD-UHFFFAOYSA-N
Formula: C17H27NO3
MW: 293
ExactMass: 293.199093
CASNO: 140658
ID: 1455
Comment: AAFS / Probability Based Matching Data Base Entry
Num Peaks: 87
39 6; 41 31; 42 29; 43 8; 44 3; 
45 1; 50 1; 51 1; 52 1; 53 4; 
54 5; 55 10; 56 34; 57 14; 58 3; 
63 2; 64 4; 65 6; 66 1; 67 2; 
68 8; 69 10; 70 75; 71 10; 72 6; 
73 1; 76 2; 77 3; 79 2; 80 2; 
81 10; 82 7; 83 2; 84 13; 85 5; 
86 17; 87 11; 88 2; 91 2; 92 1; 
93 7; 94 3; 95 3; 96 6; 97 9; 
98 36; 100 999; 101 59; 102 4; 103 1; 
105 1; 107 5; 108 2; 109 28; 110 37; 
111 2; 112 7; 113 23; 114 5; 115 1; 
118 1; 120 1; 121 3; 122 2; 123 7; 
126 9; 128 758; 129 60; 130 3; 133 3; 
135 1; 136 2; 137 1; 143 1; 144 2; 
149 2; 150 3; 151 1; 166 1; 177 1; 
205 2; 206 1; 236 1; 248 1; 292 2; 
293 40; 294 8; 
