Name: 4-(Aminomethyl)-piperidine
InChIKey: LTEKQAPRXFBRNN-UHFFFAOYSA-N
Formula: C6H14N2
MW: 114
ExactMass: 114.1156983
CASNO: 7144050
ID: 1461
Comment: DEA SWL / Aldrich lot 08411DQ
Num Peaks: 48
40 42; 41 283; 42 483; 43 404; 44 82; 
45 6; 50 28; 51 60; 52 49; 53 115; 
54 165; 55 450; 56 999; 57 332; 58 94; 
59 9; 63 6; 64 6; 65 32; 66 14; 
67 106; 68 196; 69 450; 70 105; 71 19; 
72 4; 76 4; 77 11; 78 8; 79 23; 
80 120; 81 50; 82 268; 83 68; 84 295; 
85 199; 86 82; 87 5; 93 5; 94 33; 
95 5; 96 145; 97 128; 98 26; 110 6; 
113 10; 114 154; 115 10; 
