Name: Clostebol Acetate
Synon: 4-chlorotestosterone 17-acetate
InChIKey: XYGMEFJSKQEBTO-UHFFFAOYSA-N
Formula: C21H29ClO3
MW: 364
ExactMass: 364.180523
CASNO: 855196
ID: 1466
Comment: DEA SWL
Num Peaks: 228
40 11; 41 124; 43 999; 44 30; 45 7; 
51 23; 52 8; 53 78; 55 206; 56 19; 
57 16; 60 4; 63 11; 64 6; 65 63; 
66 15; 67 122; 68 17; 69 39; 71 12; 
73 26; 75 12; 77 214; 78 43; 79 219; 
80 34; 81 132; 82 17; 83 24; 84 6; 
85 4; 86 5; 87 9; 89 24; 91 415; 
92 54; 93 306; 94 62; 95 94; 96 13; 
97 37; 98 6; 99 11; 100 4; 101 10; 
102 16; 103 57; 104 22; 105 242; 106 58; 
107 155; 108 37; 109 33; 110 19; 111 19; 
112 4; 113 26; 114 10; 115 99; 116 31; 
117 93; 118 28; 119 135; 120 67; 121 174; 
122 49; 123 54; 124 12; 125 16; 126 11; 
127 47; 128 78; 129 89; 130 45; 131 176; 
132 49; 133 260; 134 91; 135 67; 136 32; 
137 20; 138 5; 139 23; 140 8; 141 72; 
142 42; 143 118; 144 78; 145 171; 146 94; 
147 496; 148 101; 149 78; 150 7; 151 32; 
152 17; 153 35; 154 18; 155 75; 156 64; 
157 125; 158 341; 159 135; 160 142; 161 68; 
162 64; 163 29; 164 15; 165 58; 166 18; 
167 37; 168 34; 169 48; 170 32; 171 76; 
172 37; 173 89; 174 80; 175 58; 176 18; 
177 11; 178 8; 179 25; 180 16; 181 32; 
182 15; 183 53; 184 14; 185 59; 186 31; 
187 38; 188 54; 189 21; 190 4; 191 7; 
192 9; 193 22; 194 13; 195 31; 196 8; 
197 33; 198 15; 199 27; 200 16; 201 18; 
202 10; 205 10; 206 8; 207 45; 208 8; 
209 20; 210 11; 211 34; 212 15; 213 28; 
214 13; 215 9; 219 8; 221 19; 222 9; 
223 15; 224 8; 225 45; 226 46; 227 161; 
228 36; 229 16; 230 4; 232 4; 233 6; 
234 8; 235 21; 236 9; 237 5; 239 18; 
240 33; 241 20; 242 16; 243 11; 245 39; 
246 4; 247 11; 249 11; 250 35; 251 48; 
252 14; 253 56; 254 8; 257 4; 259 4; 
263 4; 267 15; 268 96; 269 154; 270 28; 
271 7; 277 5; 279 5; 281 7; 286 49; 
287 148; 288 30; 289 22; 291 7; 303 6; 
304 35; 305 6; 306 10; 307 19; 309 4; 
310 10; 312 4; 322 100; 323 22; 324 26; 
325 9; 328 365; 329 125; 330 19; 331 4; 
341 6; 346 29; 347 9; 348 9; 364 30; 
365 8; 366 16; 367 4; 
