Name: Vanillin
Synon: 4-Hydroxy-3-methoxybenzaldehyde
InChIKey: MWOOGOJBHIARFG-UHFFFAOYSA-N
Formula: C8H8O3
MW: 152
ExactMass: 152.047344
CASNO: 121335
ID: 1468
Comment: ENFSI
Num Peaks: 64
36 2; 37 33; 38 52; 39 96; 40 14; 
41 31; 42 9; 43 10; 44 16; 45 2; 
48 3; 49 27; 50 120; 51 202; 52 191; 
53 213; 54 25; 55 56; 56 2; 60 3; 
61 30; 62 67; 63 96; 64 28; 65 120; 
66 29; 67 42; 68 3; 69 10; 73 5; 
74 20; 75 9; 76 5; 77 79; 78 13; 
79 84; 80 60; 81 356; 82 20; 91 15; 
92 19; 93 20; 94 5; 95 24; 96 2; 
105 3; 107 9; 108 96; 109 241; 110 16; 
119 7; 120 6; 121 9; 123 130; 124 20; 
135 3; 136 22; 137 51; 138 3; 149 6; 
151 999; 152 885; 153 74; 154 7; 
