Name: 4-Hydroxyindole
InChIKey: NLMQHXUGJIAKTH-UHFFFAOYSA-N
Formula: C8H7NO
MW: 133
ExactMass: 133.052764
CASNO: 2380941
ID: 1470
Comment: DEA SWL / Aldrich lot 00417CD
Num Peaks: 52
40 5; 41 4; 42 2; 43 1; 48 1; 
49 9; 50 81; 51 147; 52 82; 53 33; 
55 4; 60 2; 61 14; 62 28; 63 37; 
64 13; 65 14; 67 64; 68 1; 73 9; 
74 42; 75 39; 76 74; 77 192; 78 233; 
79 86; 80 7; 84 1; 85 5; 86 9; 
87 10; 88 8; 89 9; 90 3; 91 1; 
93 1; 94 4; 99 1; 100 1; 102 18; 
104 672; 105 413; 106 37; 107 2; 114 3; 
115 3; 116 2; 118 2; 132 98; 133 999; 
134 90; 135 5; 
