Name: 4-Methoxybenzaldehyde
InChIKey: ZRSNZINYAWTAHE-UHFFFAOYSA-N
Formula: C8H8O2
MW: 136
ExactMass: 136.052429
CASNO: 123115
ID: 1475
Comment: ENFSI
Num Peaks: 27
36 24; 37 26; 38 53; 39 97; 40 31; 
44 36; 50 96; 51 99; 53 22; 62 46; 
63 111; 64 118; 65 91; 74 45; 76 40; 
77 326; 78 41; 79 23; 83 58; 85 35; 
92 189; 93 38; 107 124; 108 20; 135 999; 
136 664; 137 75; 
