Name: 4-Methoxyindole
InChIKey: LUNOXNMCFPFPMO-UHFFFAOYSA-N
Formula: C9H9NO
MW: 147
ExactMass: 147.068414
CASNO: 4837905
ID: 1476
Comment: DEA SWL
Num Peaks: 38
41 34; 42 21; 43 33; 44 245; 50 148; 
51 235; 52 63; 53 22; 58 25; 61 24; 
62 64; 63 116; 64 35; 65 28; 73 16; 
74 50; 75 37; 76 135; 77 196; 78 93; 
85 18; 88 20; 89 103; 90 35; 91 37; 
103 59; 104 567; 105 70; 115 16; 116 171; 
117 44; 118 33; 132 979; 133 129; 146 26; 
147 999; 148 104; 149 16; 
