Name: 4-Methoxyphenylacetic acid
InChIKey: NRPFNQUDKRYCNX-UHFFFAOYSA-N
Formula: C9H10O3
MW: 166
ExactMass: 166.062994
CASNO: 104018
ID: 1477
Comment: DEA SWL
Num Peaks: 53
40 5; 41 11; 43 4; 44 4; 45 36; 
49 2; 50 34; 51 85; 52 53; 53 25; 
54 2; 55 6; 61 6; 62 16; 63 43; 
64 11; 65 28; 66 9; 67 3; 74 7; 
75 7; 77 168; 78 165; 79 27; 80 3; 
81 3; 85 2; 86 5; 87 3; 89 41; 
90 15; 91 78; 92 10; 93 2; 94 4; 
95 1; 103 2; 105 12; 106 20; 107 10; 
109 6; 119 2; 121 999; 122 101; 123 4; 
133 2; 135 2; 137 2; 147 2; 148 3; 
166 253; 167 24; 168 2; 
