Name: 4-Methylaminorex (cis)
Synon: cis-4,5-Dihydro-4-methyl-5-phenyl-2-oxazolamine
Synon: cis-4-Methylaminorex
InChIKey: LJQBMYDFWFGESC-UHFFFAOYSA-N
Formula: C10H12N2O
MW: 176
ExactMass: 176.094963
CASNO: 42510770
ID: 1478
Comment: DEA SWL
Num Peaks: 74
40 14; 41 24; 42 176; 43 496; 44 99; 
45 1; 49 2; 50 42; 51 107; 52 29; 
53 15; 54 26; 55 11; 56 5; 57 1; 
58 1; 61 3; 62 23; 63 80; 64 25; 
65 53; 66 6; 67 3; 69 394; 70 999; 
71 47; 73 1; 74 15; 75 10; 76 16; 
77 221; 78 46; 79 67; 80 2; 81 3; 
85 3; 86 4; 87 6; 88 3; 89 134; 
90 74; 91 141; 92 24; 93 1; 101 1; 
102 8; 103 26; 104 28; 105 152; 106 19; 
107 30; 108 4; 114 1; 115 33; 116 19; 
117 80; 118 44; 119 20; 120 2; 128 1; 
130 20; 131 6; 132 257; 133 128; 134 12; 
135 1; 145 1; 161 227; 162 23; 163 2; 
174 1; 175 27; 176 175; 177 20; 
