Name: 4-Phenyl-1,2,3,6-tetrahydropyridine
InChIKey: OMPXTQYWYRWWPH-UHFFFAOYSA-N
Formula: C11H13N
MW: 159
ExactMass: 159.104799
CASNO: 10338699
ID: 1480
Comment: DEA SWL / Aldrich lot 02814DJ
Num Peaks: 85
40 10; 41 37; 42 40; 43 12; 44 8; 
50 66; 51 155; 52 51; 53 67; 54 21; 
55 18; 56 56; 57 5; 59 1; 61 6; 
62 29; 63 82; 64 22; 65 69; 67 17; 
68 77; 69 4; 71 2; 72 3; 73 3; 
74 46; 75 42; 76 65; 77 219; 78 88; 
79 27; 80 149; 81 34; 82 397; 83 24; 
85 2; 86 9; 87 15; 88 8; 89 53; 
91 252; 92 24; 93 3; 98 6; 99 3; 
100 2; 101 21; 102 137; 103 87; 104 51; 
105 9; 106 2; 110 2; 111 1; 113 7; 
115 463; 116 101; 117 53; 118 12; 119 3; 
120 1; 125 1; 126 22; 127 129; 128 289; 
129 469; 130 533; 131 108; 132 14; 139 1; 
140 2; 141 39; 142 12; 143 65; 144 59; 
145 8; 152 1; 153 2; 154 17; 155 14; 
156 85; 158 585; 159 999; 160 118; 161 7; 
