Name: 4-Phenylpyrimidine
InChIKey: MKLQPIYLZMLAER-UHFFFAOYSA-N
Formula: C10H8N2
MW: 156
ExactMass: 156.068748
CASNO: 3438480
ID: 1483
Comment: ENFSI / Leuckart impurity 1-PEA synthesis
Num Peaks: 49
37 8; 38 16; 39 29; 40 5; 42 6; 
44 8; 49 11; 50 84; 51 106; 52 77; 
53 70; 54 6; 61 11; 62 21; 63 48; 
64 12; 65 6; 73 12; 74 52; 75 80; 
76 130; 77 97; 78 49; 79 27; 85 5; 
86 8; 87 13; 89 5; 98 9; 99 10; 
100 11; 101 45; 102 439; 103 173; 104 55; 
105 11; 106 12; 127 16; 128 82; 129 638; 
130 71; 131 8; 134 11; 148 9; 149 14; 
155 100; 156 999; 157 125; 158 10; 
