Name: 4-Piperidone
Synon: 4-Piperidinone
InChIKey: VRJHQPZVIGNGMX-UHFFFAOYSA-N
Formula: C5H9NO
MW: 99
ExactMass: 99.0684137
CASNO: 41661476
ID: 1484
Comment: DEA SWL / Alfa-Aesar lot 10102134
Num Peaks: 35
40 71; 41 154; 42 772; 43 185; 44 17; 
45 4; 49 3; 50 14; 51 13; 52 17; 
53 32; 54 44; 55 76; 56 999; 57 829; 
58 33; 59 2; 64 3; 67 6; 68 21; 
69 10; 70 25; 71 12; 72 1; 80 5; 
81 3; 82 11; 83 1; 84 2; 91 2; 
97 2; 98 110; 99 951; 100 65; 101 2; 
