Name: Betamethasone Dipropionate
Synon: 9-Fluoro-11.beta.,17,21-trihydroxy-16.beta.-methylpregna-1,4-diene-3,20-dione 17,21-dipropionate
InChIKey: CIWBQSYVNNPZIQ-UHFFFAOYSA-N
Formula: C28H37FO7
MW: 504
ExactMass: 504.252333
CASNO: 5593204
ID: 1487
Comment: AAFS / Probability Based Matching Data Base Entry
Num Peaks: 191
41 30; 42 15; 43 53; 53 20; 55 88; 
57 999; 58 44; 65 24; 67 65; 68 22; 
69 95; 70 18; 71 38; 72 24; 74 14; 
75 18; 77 88; 78 18; 79 82; 80 15; 
81 75; 82 33; 83 59; 84 20; 85 35; 
87 101; 88 20; 89 28; 91 207; 92 43; 
93 83; 94 28; 95 88; 96 50; 97 64; 
98 26; 99 28; 101 21; 103 24; 105 61; 
106 20; 107 144; 108 56; 109 124; 110 34; 
111 63; 113 17; 114 17; 115 155; 116 24; 
117 54; 118 16; 119 48; 120 33; 121 606; 
122 406; 123 102; 124 42; 125 47; 126 15; 
127 33; 128 36; 129 39; 130 18; 131 46; 
132 77; 133 92; 134 72; 135 255; 136 67; 
137 48; 138 19; 139 41; 141 31; 143 22; 
144 16; 145 47; 146 38; 147 203; 148 31; 
149 29; 150 33; 151 35; 152 49; 153 54; 
154 24; 157 26; 158 20; 159 78; 160 93; 
161 70; 162 15; 163 28; 164 13; 165 38; 
166 18; 167 15; 169 20; 171 75; 172 20; 
173 60; 174 15; 175 35; 177 49; 178 18; 
179 31; 181 18; 183 15; 185 48; 186 35; 
187 95; 188 20; 189 43; 191 21; 193 27; 
195 27; 197 26; 199 14; 203 23; 205 16; 
207 19; 208 18; 209 23; 210 14; 211 24; 
213 36; 215 14; 221 29; 222 15; 223 62; 
224 20; 225 36; 226 15; 227 17; 235 20; 
236 27; 237 35; 238 20; 239 29; 241 33; 
249 15; 251 16; 253 27; 255 18; 257 14; 
262 23; 263 17; 265 17; 267 56; 268 16; 
269 36; 275 18; 276 14; 277 320; 278 72; 
279 36; 282 31; 283 39; 284 139; 285 46; 
293 25; 294 31; 295 556; 296 121; 297 59; 
298 15; 313 106; 314 31; 315 580; 316 126; 
317 19; 321 15; 323 46; 325 14; 329 18; 
333 72; 334 20; 336 38; 341 20; 343 123; 
344 27; 351 16; 354 28; 361 15; 368 19; 
374 16; 410 64; 411 18; 417 25; 484 56; 
485 20; 
