Name: Elaidic Acid
Synon: Fatty Acid: Elaidic
Synon: trans-Oleic acid
Synon: (9E)-9-Octadecenoic acid
InChIKey: ZQPPMHVWECSIRJ-MDZDMXLPSA-N
Formula: C18H34O2
MW: 282
ExactMass: 282.25588
CASNO: 112798
ID: 1488
Comment: AAFS
Num Peaks: 154
42 108; 43 477; 44 22; 45 72; 51 6; 
52 6; 53 73; 54 240; 55 999; 56 330; 
57 384; 58 20; 59 33; 60 120; 61 15; 
63 2; 65 25; 67 329; 68 246; 69 796; 
70 360; 71 186; 73 188; 74 18; 77 26; 
78 8; 79 81; 80 46; 81 331; 82 283; 
83 710; 84 484; 85 123; 86 13; 87 79; 
88 9; 91 28; 92 9; 93 41; 94 47; 
95 215; 96 344; 97 603; 98 352; 99 68; 
100 65; 101 89; 102 10; 103 2; 105 17; 
106 7; 107 33; 108 42; 109 126; 110 194; 
111 262; 112 112; 113 48; 114 112; 115 43; 
116 11; 117 3; 119 35; 120 14; 121 43; 
122 27; 123 156; 124 105; 125 120; 126 53; 
127 90; 128 22; 129 33; 130 4; 131 3; 
133 38; 134 42; 135 36; 136 18; 137 105; 
138 80; 139 62; 140 28; 141 22; 142 6; 
143 14; 144 3; 147 39; 148 33; 149 21; 
150 14; 151 74; 152 58; 153 32; 154 13; 
155 14; 156 3; 157 8; 161 21; 162 9; 
163 14; 164 8; 165 48; 166 33; 167 18; 
168 6; 169 14; 170 3; 171 5; 172 4; 
175 17; 176 5; 177 5; 178 4; 179 26; 
180 45; 181 14; 182 5; 183 8; 184 2; 
185 6; 186 7; 189 6; 190 2; 191 3; 
192 3; 193 27; 194 15; 195 7; 196 2; 
199 8; 200 3; 203 4; 207 25; 208 12; 
209 6; 213 4; 217 2; 220 43; 221 37; 
222 44; 223 11; 235 28; 236 11; 237 2; 
239 6; 246 9; 247 2; 249 4; 264 146; 
265 33; 266 4; 282 24; 283 4; 
