Name: Linoleic Acid
Synon: 9,12-Octadecadienoic acid (Z,Z)-
Synon: Grape seed oil
InChIKey: OYHQOLUKZRVURQ-HZJYTTRNSA-N
Formula: C18H32O2
MW: 280
ExactMass: 280.24023
CASNO: 60333
ID: 1491
Comment: AAFS
Num Peaks: 125
42 43; 43 154; 44 11; 45 52; 51 12; 
52 8; 53 100; 54 381; 55 518; 56 47; 
57 46; 58 4; 59 19; 60 62; 61 6; 
63 3; 65 66; 66 76; 67 999; 68 525; 
69 285; 70 28; 71 44; 73 41; 74 4; 
77 113; 78 38; 79 333; 80 171; 81 926; 
82 615; 83 175; 84 31; 85 35; 86 3; 
87 14; 91 82; 92 14; 93 111; 94 116; 
95 619; 96 414; 97 103; 98 21; 99 12; 
100 4; 101 14; 103 3; 104 4; 105 24; 
106 11; 107 64; 108 88; 109 257; 110 192; 
111 38; 112 8; 113 11; 114 5; 115 8; 
117 6; 118 4; 119 16; 120 16; 121 68; 
122 87; 123 116; 124 87; 125 15; 126 23; 
127 19; 129 4; 131 16; 132 7; 133 17; 
134 7; 135 63; 136 75; 137 57; 138 35; 
139 15; 140 23; 141 8; 145 9; 146 3; 
147 13; 148 4; 149 47; 150 59; 151 31; 
152 13; 153 14; 154 14; 155 3; 159 6; 
161 4; 163 14; 164 22; 165 12; 166 5; 
167 11; 168 12; 169 2; 173 8; 177 8; 
178 9; 179 5; 180 2; 181 10; 182 14; 
183 2; 187 5; 191 3; 192 3; 193 2; 
195 7; 196 10; 209 5; 210 6; 220 3; 
223 3; 262 3; 263 4; 280 117; 281 22; 
