Name: Phenazepam
Synon: 7-bromo-5-(2-chlorophenyl)-1,3-dihydro-2H-1,4-benzodiazepin-2-one
InChIKey: CGMJQQJSWIRRRL-UHFFFAOYSA-N
Formula: C15H10BrClN2O
MW: 348
ExactMass: 347.966503
CASNO: 51753572
ID: 1497
Comment: ENFSI / SKL
Num Peaks: 274
29 11; 30 6; 32 9; 35 3; 36 18; 
37 19; 38 70; 39 132; 40 24; 41 24; 
42 48; 43 16; 44 6; 45 1; 47 1; 
48 1; 49 22; 50 207; 51 305; 52 125; 
53 25; 54 10; 55 13; 56 9; 57 4; 
59 3; 60 4; 61 61; 62 219; 63 401; 
64 88; 65 57; 66 8; 67 9; 68 22; 
71 2; 72 5; 73 51; 74 211; 75 709; 
76 501; 77 424; 78 76; 79 17; 80 35; 
82 90; 84 11; 85 49; 86 98; 87 143; 
89 626; 91 67; 92 16; 93 58; 94 30; 
96 39; 97 27; 98 106; 99 177; 100 119; 
101 121; 103 649; 104 96; 105 13; 106 35; 
107 82; 108 35; 109 16; 110 51; 111 148; 
112 49; 113 106; 114 67; 115 59; 116 177; 
117 70; 118 7; 119 19; 120 149; 122 49; 
123 105; 124 53; 125 222; 126 132; 127 102; 
128 48; 129 58; 130 53; 131 19; 132 37; 
133 8; 135 88; 136 57; 137 96; 138 156; 
139 72; 140 67; 141 22; 142 119; 143 108; 
145 8; 146 8; 147 20; 148 18; 149 117; 
150 410; 151 462; 152 284; 153 71; 154 28; 
155 50; 156 48; 157 61; 158 45; 159 8; 
160 46; 161 42; 162 56; 163 137; 164 124; 
165 55; 166 17; 167 6; 168 14; 169 11; 
170 18; 171 9; 172 6; 173 16; 174 15; 
175 80; 176 154; 177 598; 178 369; 179 254; 
180 63; 181 20; 182 138; 183 33; 184 124; 
185 27; 186 38; 187 13; 188 30; 189 23; 
190 49; 191 53; 192 67; 193 10; 194 5; 
195 15; 196 8; 197 20; 198 15; 199 19; 
200 15; 201 7; 202 13; 203 57; 204 92; 
205 375; 206 190; 207 118; 208 23; 209 109; 
210 42; 211 41; 212 48; 213 100; 214 63; 
215 39; 216 42; 217 6; 218 2; 219 2; 
220 1; 222 4; 223 13; 224 11; 225 16; 
226 10; 227 54; 228 12; 229 16; 230 13; 
231 3; 232 11; 233 36; 234 125; 235 27; 
236 7; 237 8; 238 7; 239 140; 240 93; 
241 129; 242 41; 243 30; 244 9; 245 5; 
246 3; 247 1; 253 1; 254 1; 255 1; 
256 9; 257 27; 258 57; 259 30; 260 47; 
261 7; 264 2; 266 3; 267 2; 268 46; 
269 61; 270 30; 271 25; 272 10; 273 4; 
277 3; 278 1; 279 3; 280 1; 281 4; 
282 2; 283 54; 284 62; 285 233; 286 102; 
287 168; 288 43; 289 3; 290 1; 291 8; 
292 46; 293 19; 294 60; 295 14; 296 15; 
297 6; 298 3; 299 1; 304 1; 305 3; 
306 17; 307 6; 308 19; 309 5; 310 5; 
311 3; 312 96; 313 672; 314 204; 315 651; 
316 108; 317 13; 319 688; 320 449; 321 999; 
322 590; 323 387; 324 159; 325 44; 326 5; 
333 1; 347 419; 348 577; 349 671; 350 768; 
351 268; 352 196; 353 31; 354 2; 
