Name: Acetylcodeine
Synon: 6-Acetylcodeine
InChIKey: MFXFQKMUCYHPFQ-UHFFFAOYSA-N
Formula: C20H23NO4
MW: 341
ExactMass: 341.162708
CASNO: 6703271
ID: 1501
Comment: DEA SWL
Num Peaks: 232
38 4; 39 59; 40 8; 41 49; 42 575; 
43 776; 44 288; 45 22; 50 14; 51 56; 
52 21; 53 77; 54 19; 55 74; 56 40; 
57 52; 58 100; 59 339; 60 23; 62 4; 
63 49; 64 18; 65 65; 66 17; 67 33; 
68 27; 69 12; 70 177; 71 17; 72 10; 
73 7; 74 7; 75 20; 76 31; 77 114; 
78 47; 79 34; 80 35; 81 281; 82 75; 
83 27; 84 11; 86 7; 87 9; 88 12; 
89 54; 90 20; 91 106; 92 17; 93 19; 
94 228; 95 35; 96 56; 97 15; 98 7; 
99 8; 100 3; 101 26; 102 51; 103 77; 
104 25; 105 54; 106 27; 107 32; 108 33; 
109 41; 110 23; 111 9; 112 17; 113 21; 
114 30; 115 293; 116 82; 117 61; 118 49; 
119 23; 120 27; 121 16; 122 28; 123 18; 
124 297; 125 33; 126 37; 127 120; 128 158; 
129 82; 130 35; 131 81; 132 42; 133 23; 
134 46; 135 9; 136 16; 137 14; 138 15; 
139 112; 140 43; 141 128; 142 39; 143 36; 
144 110; 145 54; 146 161; 147 37; 148 28; 
150 74; 151 67; 152 236; 153 140; 154 49; 
155 69; 156 32; 157 36; 158 40; 159 41; 
160 44; 161 54; 162 238; 163 47; 164 32; 
165 193; 166 117; 167 61; 168 84; 169 64; 
170 42; 171 45; 172 24; 173 47; 174 44; 
175 121; 176 53; 177 46; 178 101; 179 62; 
180 38; 181 119; 182 60; 183 57; 184 48; 
185 80; 186 53; 187 42; 188 170; 189 72; 
190 51; 191 29; 192 18; 193 51; 194 45; 
195 61; 196 43; 197 68; 198 70; 199 51; 
200 37; 201 22; 202 26; 203 16; 204 301; 
205 61; 206 19; 207 39; 208 32; 209 77; 
210 53; 211 72; 212 47; 213 37; 214 209; 
215 43; 216 39; 217 17; 218 13; 219 8; 
220 16; 221 21; 222 54; 223 63; 224 120; 
225 189; 226 50; 227 21; 228 43; 229 446; 
230 97; 231 16; 234 14; 235 14; 236 21; 
237 23; 238 48; 239 45; 240 110; 241 43; 
242 49; 243 16; 248 3; 249 10; 250 39; 
251 29; 252 32; 253 19; 254 34; 255 12; 
256 20; 257 1; 264 8; 265 9; 266 96; 
267 84; 268 29; 269 3; 270 14; 271 7; 
280 77; 281 61; 282 862; 283 179; 284 65; 
285 14; 296 5; 298 93; 299 30; 313 2; 
326 41; 327 11; 339 3; 340 95; 341 999; 
342 237; 343 30; 
