Name: Butriptyline
InChIKey: ALELTFCQZDXAMQ-UHFFFAOYSA-N
Formula: C21H27N
MW: 293
ExactMass: 293.21435
CASNO: 5585739
ID: 1502
Comment: AAFS / Probability Based Matching Data Base Entry
Num Peaks: 77
41 11; 42 66; 43 16; 44 15; 45 13; 
51 4; 55 5; 56 12; 58 999; 59 37; 
63 7; 65 13; 68 4; 70 13; 71 7; 
75 4; 76 6; 77 15; 78 5; 82 6; 
84 20; 85 22; 86 5; 87 58; 88 7; 
89 19; 91 75; 92 5; 94 4; 95 3; 
98 12; 100 117; 101 15; 102 8; 103 6; 
105 11; 115 186; 116 22; 117 5; 126 6; 
127 12; 128 26; 129 9; 139 14; 141 9; 
150 6; 151 11; 152 34; 153 9; 163 12; 
164 12; 165 71; 166 13; 176 17; 177 14; 
178 161; 179 30; 187 5; 188 5; 189 70; 
190 36; 191 92; 192 57; 193 81; 194 12; 
202 19; 203 14; 204 7; 205 15; 206 11; 
215 6; 217 4; 278 16; 279 4; 293 233; 
294 53; 295 6; 
