Name: Buspirone
Synon: Buspar
InChIKey: QWCRAEMEVRGPNT-UHFFFAOYSA-N
Formula: C21H31N5O2
MW: 385
ExactMass: 385.247776
CASNO: 36505847
ID: 1507
Comment: DEA SWL
Num Peaks: 153
40 16; 41 109; 42 128; 43 38; 44 27; 
51 4; 52 12; 53 83; 54 68; 55 151; 
56 217; 57 46; 58 15; 60 4; 65 12; 
66 15; 67 147; 68 54; 69 47; 70 180; 
71 44; 72 26; 73 6; 77 13; 78 14; 
79 135; 80 219; 81 160; 82 120; 83 64; 
84 45; 85 26; 86 4; 88 6; 89 2; 
91 7; 92 6; 93 22; 94 33; 95 77; 
96 116; 97 39; 98 63; 99 5; 100 3; 
105 5; 106 38; 108 267; 109 238; 110 69; 
111 104; 112 13; 114 2; 118 2; 119 15; 
120 152; 121 114; 122 312; 123 186; 124 31; 
125 7; 126 11; 127 2; 131 3; 132 12; 
133 25; 134 154; 135 50; 136 61; 137 11; 
138 6; 139 4; 140 7; 141 5; 146 47; 
147 27; 148 382; 149 57; 150 15; 151 6; 
152 41; 153 15; 154 2; 158 1; 159 2; 
160 8; 161 12; 162 79; 163 44; 164 11; 
165 7; 166 3; 168 24; 169 2; 175 35; 
177 999; 178 112; 179 9; 180 23; 181 3; 
189 2; 191 8; 192 9; 193 4; 194 4; 
195 2; 203 7; 204 3; 205 37; 206 4; 
207 7; 208 5; 209 2; 216 2; 217 4; 
218 5; 219 5; 220 6; 222 79; 223 11; 
234 2; 235 3; 236 2; 237 2; 247 2; 
248 4; 249 7; 251 10; 252 1; 260 3; 
263 67; 265 617; 266 97; 267 10; 275 11; 
277 722; 278 132; 279 12; 280 3; 281 4; 
290 85; 291 16; 292 2; 329 6; 341 3; 
343 2; 356 2; 370 11; 383 7; 384 12; 
385 99; 386 21; 387 2; 
