Name: Bupivacaine
InChIKey: LEBVLXFERQHONN-UHFFFAOYSA-N
Formula: C18H28N2O
MW: 288
ExactMass: 288.220163
CASNO: 2180929
ID: 1510
Comment: DEA SWL
Num Peaks: 71
40 1; 41 22; 42 12; 43 2; 44 1; 
51 2; 52 1; 53 3; 54 7; 55 22; 
56 30; 57 8; 63 1; 65 4; 66 1; 
67 6; 68 6; 69 7; 70 7; 77 13; 
78 3; 79 6; 80 4; 81 1; 82 11; 
83 5; 84 64; 85 3; 89 1; 91 12; 
92 3; 93 2; 94 2; 95 1; 96 20; 
97 7; 98 24; 99 1; 102 1; 103 6; 
104 3; 105 12; 106 4; 107 1; 110 6; 
111 1; 112 4; 115 1; 116 2; 117 2; 
118 5; 119 3; 120 15; 121 4; 122 2; 
124 2; 130 2; 131 2; 132 3; 133 1; 
134 3; 138 15; 140 999; 141 100; 142 5; 
144 1; 146 1; 147 1; 148 3; 160 1; 
245 1; 
