Name: Bisacodyl
Synon: Dulcolax
InChIKey: KHOITXIGCFIULA-UHFFFAOYSA-N
Formula: C22H19NO4
MW: 361
ExactMass: 361.131409
CASNO: 603509
ID: 1519
Comment: DEA SWL
Num Peaks: 208
41 10; 42 40; 43 999; 44 24; 45 4; 
50 13; 51 71; 52 36; 53 19; 54 1; 
55 67; 56 2; 60 1; 62 8; 63 43; 
64 15; 65 30; 66 5; 67 2; 74 6; 
75 17; 76 14; 77 50; 78 111; 79 63; 
80 31; 81 6; 86 2; 87 8; 88 9; 
89 30; 90 9; 91 14; 92 9; 93 9; 
94 12; 95 2; 96 1; 98 1; 99 3; 
100 3; 101 16; 102 23; 103 17; 104 10; 
105 5; 106 2; 107 21; 108 1; 111 1; 
113 14; 114 16; 115 128; 116 22; 117 37; 
118 20; 119 4; 120 2; 121 3; 125 4; 
126 23; 127 72; 128 87; 129 36; 130 28; 
131 55; 132 8; 133 1; 134 1; 137 3; 
138 4; 139 67; 140 28; 141 86; 142 20; 
143 9; 144 22; 145 4; 146 1; 147 1; 
149 1; 150 11; 151 41; 152 112; 153 83; 
154 205; 155 74; 156 26; 157 17; 158 3; 
162 1; 163 14; 164 13; 165 28; 166 26; 
167 91; 168 38; 169 116; 170 45; 171 14; 
172 1; 174 1; 175 2; 176 9; 177 7; 
178 12; 179 6; 180 11; 181 95; 182 140; 
183 271; 184 194; 185 24; 186 2; 187 2; 
188 3; 189 18; 190 19; 191 43; 192 21; 
193 13; 194 5; 195 2; 196 11; 197 54; 
198 44; 199 704; 200 100; 201 14; 202 18; 
203 14; 204 51; 205 17; 206 7; 207 7; 
208 6; 209 7; 210 9; 211 8; 212 1; 
213 1; 214 4; 215 13; 216 27; 217 57; 
218 48; 219 13; 220 29; 221 10; 222 19; 
223 4; 225 2; 226 7; 227 5; 228 20; 
229 10; 230 35; 231 15; 232 11; 233 65; 
234 26; 235 6; 236 1; 239 1; 240 2; 
241 23; 242 6; 243 3; 244 7; 245 5; 
246 131; 247 41; 248 62; 249 13; 250 2; 
256 2; 257 13; 258 26; 259 53; 260 33; 
261 7; 262 33; 263 5; 273 2; 274 15; 
275 39; 276 952; 277 725; 278 129; 279 14; 
280 1; 283 1; 290 3; 302 7; 303 3; 
304 5; 317 2; 318 448; 319 475; 320 95; 
321 13; 322 1; 346 1; 360 204; 361 998; 
362 230; 363 35; 364 3; 
