Name: Betahistine
Synon: N-Methyl-2-pyridineethylamine
InChIKey: UUQMNUMQCIQDMZ-UHFFFAOYSA-N
Formula: C8H12N2
MW: 136
ExactMass: 136.100048
CASNO: 5638766
ID: 1528
Comment: AAFS
Num Peaks: 25
42 11; 43 7; 44 399; 45 10; 51 5; 
53 12; 55 5; 57 16; 63 8; 65 45; 
66 49; 67 19; 78 24; 80 18; 91 9; 
92 34; 93 999; 94 155; 95 10; 106 90; 
107 20; 119 12; 121 31; 135 8; 136 10; 
