Name: Sotalol
Synon: .beta.-Cardone
InChIKey: ZBMZVLHSJCTVON-UHFFFAOYSA-N
Formula: C12H20N2O3S
MW: 272
ExactMass: 272.119463
CASNO: 3930209
ID: 1530
Comment: AAFS / Probability Based Matching Data Base Entry
Num Peaks: 109
30 242; 31 5; 37 1; 38 3; 39 25; 
40 6; 41 48; 42 18; 43 80; 44 8; 
45 2; 46 1; 48 2; 50 3; 51 9; 
52 9; 53 5; 54 5; 55 5; 56 26; 
57 15; 58 9; 59 1; 60 1; 62 2; 
63 12; 64 14; 65 46; 66 37; 67 6; 
68 4; 69 3; 70 52; 71 28; 72 999; 
73 51; 74 2; 75 1; 76 3; 77 36; 
78 25; 79 32; 80 4; 81 3; 83 1; 
84 1; 85 1; 86 1; 89 7; 90 6; 
91 20; 92 35; 93 17; 94 33; 95 3; 
102 1; 103 2; 104 12; 105 28; 106 88; 
107 9; 108 2; 116 6; 117 5; 118 18; 
119 7; 120 27; 121 35; 122 52; 123 4; 
130 1; 131 16; 132 16; 133 20; 134 5; 
138 2; 144 1; 145 4; 146 1; 158 1; 
159 5; 160 4; 173 4; 174 3; 175 31; 
176 5; 184 16; 185 20; 186 2; 187 1; 
197 2; 198 6; 199 8; 200 17; 201 2; 
211 1; 212 1; 213 2; 239 11; 240 1; 
241 1; 242 1; 252 1; 253 9; 254 12; 
255 3; 256 2; 272 11; 273 1; 
