Name: Benztropine
InChIKey: GIJXKZJWITVLHI-UHFFFAOYSA-N
Formula: C21H25NO
MW: 307
ExactMass: 307.193615
CASNO: 86135
ID: 1537
Comment: AAFS / Probability Based Matching Data Base Entry
Num Peaks: 121
39 14; 40 1; 41 30; 42 120; 43 15; 
44 26; 46 1; 47 2; 50 2; 51 19; 
52 4; 53 12; 54 13; 55 42; 56 28; 
57 30; 58 12; 59 1; 60 3; 62 2; 
63 9; 64 2; 65 23; 66 5; 67 124; 
68 40; 69 19; 70 28; 71 4; 74 1; 
75 1; 77 84; 78 20; 79 15; 80 19; 
81 37; 82 698; 83 934; 84 180; 85 8; 
86 3; 88 1; 89 12; 90 3; 91 22; 
92 2; 93 14; 94 60; 95 27; 96 334; 
97 216; 98 110; 99 9; 100 23; 102 5; 
103 1; 105 40; 106 5; 107 3; 108 6; 
109 4; 110 46; 111 2; 112 26; 113 6; 
115 23; 116 4; 119 1; 120 1; 122 18; 
124 411; 125 180; 126 19; 127 3; 128 17; 
129 5; 130 1; 131 2; 132 1; 134 1; 
137 1; 138 2; 140 999; 141 101; 142 10; 
143 2; 144 1; 145 2; 147 1; 150 3; 
151 13; 152 118; 153 17; 154 4; 155 3; 
158 3; 159 2; 163 10; 164 24; 165 207; 
166 65; 167 160; 168 31; 169 2; 172 29; 
173 10; 178 1; 180 1; 181 4; 200 9; 
201 201; 202 33; 203 3; 204 1; 216 23; 
217 3; 244 1; 306 7; 307 30; 308 10; 
309 1; 
