Name: Benzophenone
InChIKey: RWCCWEUUXYIKHB-UHFFFAOYSA-N
Formula: C13H10O
MW: 182
ExactMass: 182.073165
CASNO: 119619
ID: 1541
Comment: DEA SWL
Num Peaks: 54
49 2; 50 53; 51 171; 52 11; 53 2; 
61 1; 62 5; 63 9; 64 3; 65 1; 
73 3; 74 25; 75 20; 76 46; 77 540; 
78 38; 79 1; 85 1; 86 3; 87 4; 
88 1; 89 3; 91 2; 98 3; 99 2; 
100 1; 101 2; 102 4; 103 1; 105 999; 
106 76; 107 4; 110 1; 111 1; 113 2; 
115 3; 125 1; 126 8; 127 5; 128 2; 
139 2; 150 7; 151 17; 152 45; 153 26; 
154 24; 155 3; 163 1; 164 1; 165 4; 
181 83; 182 544; 183 76; 184 6; 
