Name: Benzyl Alcohol
Synon: Benzenemethanol
InChIKey: WVDDGKGOMKODPV-UHFFFAOYSA-N
Formula: C7H8O
MW: 108
ExactMass: 108.0575147
CASNO: 100516
ID: 1545
Comment: ENFSI
Num Peaks: 45
36 8; 37 20; 38 51; 39 140; 40 16; 
41 16; 42 6; 43 12; 44 27; 49 14; 
50 128; 51 290; 52 80; 53 82; 55 7; 
60 9; 61 14; 62 39; 63 90; 64 12; 
65 75; 66 13; 73 16; 74 56; 75 24; 
76 28; 77 640; 78 130; 79 999; 80 95; 
81 6; 83 14; 85 12; 86 7; 87 9; 
89 71; 90 73; 91 166; 92 14; 105 60; 
106 23; 107 616; 108 884; 109 64; 110 8; 
