Name: Phenylacetic acid methyl ester
Synon: Benzeneacetic acid, methyl ester
Synon: Methyl phenylacetate
InChIKey: CRZQGDNQQAALAY-UHFFFAOYSA-N
Formula: C9H10O2
MW: 150
ExactMass: 150.06808
CASNO: 101417
ID: 1547
Comment: DEA WRL
Num Peaks: 42
45 3; 49 1; 50 14; 51 22; 52 6; 
53 1; 59 41; 60 1; 61 5; 62 17; 
63 46; 64 12; 65 112; 66 6; 74 4; 
75 3; 76 2; 77 12; 78 7; 79 5; 
85 2; 86 4; 87 2; 89 53; 90 29; 
91 999; 92 71; 93 2; 103 1; 105 13; 
106 3; 107 1; 108 2; 118 15; 119 27; 
120 2; 121 2; 135 2; 149 7; 150 347; 
151 35; 152 3; 
