Name: Phenylacetaldehyde
Synon: benzeneacetaldehyde
InChIKey: DTUQWGWMVIHBKE-UHFFFAOYSA-N
Formula: C8H8O
MW: 120
ExactMass: 120.0575147
CASNO: 122781
ID: 1548
Comment: DEA SWL / Aldrich lot 06107PD
Num Peaks: 38
40 8; 41 15; 42 1; 43 3; 44 1; 
45 2; 49 4; 50 35; 51 59; 52 13; 
53 4; 60 1; 61 11; 62 28; 63 69; 
64 18; 65 182; 66 12; 73 2; 74 10; 
75 6; 76 3; 77 6; 78 3; 84 1; 
85 3; 86 5; 87 4; 89 52; 91 999; 
92 239; 93 16; 102 1; 103 1; 118 1; 
120 208; 121 18; 122 1; 
