Name: Benzene, 1-methoxy-4-(2-propenyl)-
InChIKey: ZFMSMUAANRJZFM-UHFFFAOYSA-N
Formula: C10H12O
MW: 148
ExactMass: 148.088815
CASNO: 140670
ID: 1549
Comment: ENFSI
Num Peaks: 44
38 10; 39 134; 40 12; 41 42; 43 21; 
44 2; 45 9; 50 81; 51 159; 52 53; 
53 37; 55 45; 62 22; 63 101; 64 17; 
65 101; 74 9; 75 12; 77 293; 78 193; 
79 143; 83 20; 85 17; 89 53; 91 237; 
92 9; 102 22; 103 130; 104 44; 105 211; 
107 13; 115 227; 116 106; 117 391; 118 36; 
121 438; 122 21; 131 42; 132 20; 133 211; 
134 18; 147 583; 148 999; 149 88; 
