Name: Benzene, 1-methoxy-4-(1-propenyl)-
InChIKey: RUVINXPYWBROJD-ONEGZZNKSA-N
Formula: C10H12O
MW: 148
ExactMass: 148.088815
CASNO: 104461
ID: 1550
Comment: ENFSI
Num Peaks: 63
38 21; 39 93; 40 15; 41 27; 43 8; 
44 24; 45 6; 49 6; 50 63; 51 134; 
52 40; 53 44; 55 58; 57 6; 61 10; 
62 28; 63 81; 64 22; 65 69; 66 10; 
73 5; 74 41; 75 24; 76 33; 77 271; 
78 107; 79 157; 80 10; 83 13; 85 11; 
86 8; 87 13; 88 4; 89 68; 90 20; 
91 152; 92 25; 93 15; 101 4; 102 46; 
103 189; 104 55; 105 214; 106 17; 107 19; 
108 8; 115 182; 116 70; 117 285; 118 43; 
119 19; 121 170; 122 15; 131 52; 132 36; 
133 231; 134 24; 145 7; 146 13; 147 520; 
148 999; 149 112; 150 9; 
