Name: Elemicine
Synon: Benzene, 1,2,3-trimethoxy-5-(2-propenyl)-
InChIKey: BPLQKQKXWHCZSS-UHFFFAOYSA-N
Formula: C12H16O3
MW: 208
ExactMass: 208.109944
CASNO: 487116
ID: 1552
Comment: ENFSI
Num Peaks: 18
107 69; 118 162; 119 60; 133 147; 134 60; 
135 60; 150 139; 151 51; 161 51; 165 139; 
177 162; 178 51; 181 79; 193 624; 194 60; 
208 999; 209 111; 210 19; 
