Name: Benzaldehyde
InChIKey: HUMNYLRZRPPJDN-UHFFFAOYSA-N
Formula: C7H6O
MW: 106
ExactMass: 106.041865
CASNO: 100527
ID: 1554
Comment: ENFSI
Num Peaks: 35
36 3; 37 31; 38 40; 39 61; 40 2; 
43 4; 48 3; 49 37; 50 294; 51 506; 
52 131; 53 18; 60 5; 61 20; 62 24; 
63 33; 64 3; 72 2; 73 28; 74 105; 
75 45; 76 54; 77 975; 78 191; 79 11; 
84 1; 85 4; 86 4; 87 2; 89 4; 
90 1; 105 978; 106 999; 107 80; 108 5; 
