Name: Behenic Acid
Synon: Fatty Acid: Behenic
Synon: Docosanoic acid
Synon: n-Docosanoic acid
InChIKey: UKMSUNONTOPOIO-UHFFFAOYSA-N
Formula: C22H44O2
MW: 340
ExactMass: 340.334131
CASNO: 112856
ID: 1557
Comment: AAFS
Num Peaks: 135
42 107; 43 827; 44 32; 45 45; 53 27; 
54 49; 55 619; 56 157; 57 775; 58 41; 
59 41; 60 687; 61 305; 62 8; 65 7; 
67 96; 68 73; 69 414; 70 119; 71 472; 
73 999; 74 78; 75 6; 77 7; 78 5; 
79 28; 80 14; 81 83; 82 85; 83 346; 
84 146; 85 310; 86 30; 87 218; 88 19; 
91 5; 93 19; 94 10; 95 55; 96 68; 
97 309; 98 177; 99 92; 100 15; 101 84; 
102 27; 103 3; 105 4; 107 16; 108 6; 
109 30; 110 36; 111 127; 112 38; 113 45; 
114 9; 115 126; 116 82; 117 7; 119 5; 
121 23; 122 6; 123 21; 124 18; 125 68; 
126 20; 127 29; 129 509; 130 53; 131 7; 
135 20; 136 3; 137 9; 138 10; 139 27; 
140 9; 141 13; 143 63; 144 9; 149 10; 
151 5; 152 7; 153 13; 154 8; 155 12; 
156 4; 157 24; 158 8; 163 7; 166 5; 
167 12; 168 5; 169 8; 171 71; 172 19; 
177 3; 180 4; 181 7; 183 5; 185 145; 
186 20; 194 3; 195 4; 196 6; 197 4; 
199 41; 200 9; 208 3; 210 3; 211 3; 
213 26; 214 7; 222 3; 223 4; 227 45; 
228 12; 236 4; 241 119; 242 26; 252 4; 
255 45; 256 8; 269 18; 270 4; 278 10; 
279 3; 283 29; 284 9; 297 140; 298 27; 
311 19; 312 13; 340 332; 341 82; 342 9; 
