Name: Azatadine
InChIKey: SEBMTIQKRHYNIT-UHFFFAOYSA-N
Formula: C20H22N2
MW: 290
ExactMass: 290.178299
CASNO: 3964816
ID: 1562
Comment: AAFS / Probability Based Matching Data Base Entry
Num Peaks: 163
39 12; 40 4; 41 9; 42 110; 43 31; 
44 48; 51 12; 52 8; 53 9; 56 5; 
57 25; 58 94; 62 5; 63 16; 64 6; 
65 15; 66 6; 67 4; 68 4; 70 356; 
71 25; 72 4; 74 4; 75 9; 76 8; 
77 27; 78 13; 79 9; 80 11; 81 8; 
82 14; 83 12; 87 6; 88 12; 89 20; 
90 8; 91 13; 92 9; 93 13; 94 75; 
96 230; 97 54; 98 6; 99 4; 100 8; 
101 15; 102 49; 104 5; 106 7; 107 16; 
108 91; 113 10; 114 52; 115 73; 117 16; 
118 9; 120 22; 121 19; 122 23; 125 5; 
126 10; 127 22; 128 29; 129 14; 130 17; 
131 5; 135 7; 136 9; 137 8; 139 25; 
140 13; 141 11; 142 11; 143 13; 144 41; 
145 32; 150 15; 151 25; 152 45; 153 18; 
154 18; 155 6; 156 5; 161 4; 162 4; 
163 25; 164 17; 165 45; 166 22; 167 22; 
168 9; 175 5; 176 29; 177 14; 178 25; 
179 23; 180 50; 181 12; 182 10; 187 8; 
188 12; 189 50; 190 39; 191 54; 192 53; 
193 37; 194 59; 195 22; 196 9; 200 7; 
201 11; 202 44; 203 43; 204 124; 205 36; 
206 25; 207 6; 208 7; 213 4; 214 15; 
215 29; 216 150; 217 231; 218 173; 219 66; 
220 70; 221 16; 227 9; 228 53; 229 53; 
230 200; 231 171; 232 683; 233 229; 234 87; 
235 16; 240 9; 241 20; 242 38; 243 44; 
244 142; 245 83; 246 999; 247 623; 248 116; 
249 12; 256 8; 257 5; 258 58; 259 43; 
260 48; 261 25; 262 6; 273 5; 274 6; 
275 57; 276 13; 287 8; 288 6; 289 56; 
290 594; 291 127; 292 16; 
