Name: Aprobarbital
InChIKey: UORJNBVJVRLXMQ-UHFFFAOYSA-N
Formula: C10H14N2O3
MW: 210
ExactMass: 210.100442
CASNO: 77021
ID: 1571
Comment: DEA SWL
Num Peaks: 99
40 24; 41 305; 42 36; 43 160; 44 59; 
45 3; 49 1; 50 15; 51 37; 52 45; 
53 145; 54 38; 55 63; 56 14; 57 4; 
58 3; 59 1; 61 1; 62 1; 63 5; 
64 2; 65 17; 66 18; 67 50; 68 33; 
69 26; 70 51; 71 4; 75 1; 76 1; 
77 32; 78 29; 79 68; 80 48; 81 55; 
82 22; 83 26; 84 6; 85 3; 87 2; 
91 6; 92 2; 93 5; 94 11; 95 17; 
96 148; 97 221; 98 33; 99 4; 104 1; 
105 1; 106 76; 107 15; 108 50; 109 49; 
110 10; 111 4; 112 26; 113 3; 121 2; 
122 13; 123 9; 124 323; 125 33; 126 18; 
127 2; 128 3; 129 1; 135 1; 136 2; 
138 4; 139 17; 140 17; 141 16; 142 2; 
149 6; 150 16; 151 27; 152 9; 153 106; 
154 18; 155 34; 156 2; 165 3; 167 999; 
168 355; 169 203; 170 19; 171 2; 177 1; 
181 1; 182 2; 192 3; 193 1; 195 114; 
196 12; 197 1; 210 4; 211 1; 
