Name: Apomorphine
InChIKey: VMWNQDUVQKEIOC-UHFFFAOYSA-N
Formula: C17H17NO2
MW: 267
ExactMass: 267.125929
CASNO: 58004
ID: 1572
Comment: DEA SWL
Num Peaks: 179
41 5; 42 64; 43 8; 44 91; 45 4; 
50 3; 51 11; 52 3; 53 5; 54 2; 
55 9; 56 5; 57 2; 58 1; 60 1; 
61 1; 62 4; 63 17; 64 5; 65 5; 
66 2; 67 1; 68 2; 69 1; 70 6; 
71 2; 73 2; 74 6; 75 13; 76 32; 
77 18; 78 4; 79 2; 80 1; 82 10; 
84 11; 86 4; 87 11; 88 37; 89 29; 
91 14; 93 2; 94 15; 96 28; 97 19; 
99 4; 100 2; 101 6; 102 55; 104 2; 
105 4; 106 1; 107 3; 110 101; 113 8; 
114 8; 115 39; 116 9; 117 6; 118 3; 
119 2; 121 1; 122 1; 124 61; 126 13; 
127 17; 128 19; 129 5; 130 2; 131 3; 
133 11; 135 3; 137 6; 138 5; 139 46; 
140 17; 141 19; 142 6; 143 2; 144 5; 
145 2; 146 5; 147 1; 149 3; 150 22; 
151 57; 152 127; 153 57; 154 19; 155 7; 
156 2; 157 1; 161 7; 162 6; 163 32; 
164 31; 165 115; 166 40; 167 30; 168 25; 
169 7; 170 3; 171 2; 174 4; 175 8; 
176 59; 177 46; 178 91; 179 32; 180 16; 
181 49; 182 16; 183 12; 184 3; 185 1; 
187 3; 188 4; 189 32; 190 27; 191 31; 
192 18; 193 14; 194 24; 195 38; 196 22; 
197 7; 198 2; 200 1; 201 3; 202 7; 
203 16; 204 40; 205 83; 206 80; 207 39; 
208 16; 209 22; 210 8; 211 2; 214 1; 
215 1; 216 3; 217 8; 218 22; 219 20; 
220 145; 221 33; 222 17; 223 28; 224 219; 
225 36; 226 4; 230 1; 231 2; 232 8; 
233 7; 234 12; 235 10; 236 23; 237 8; 
238 10; 239 4; 240 1; 246 3; 247 4; 
248 82; 249 29; 250 86; 251 27; 252 40; 
253 8; 263 4; 264 21; 265 26; 266 999; 
267 640; 268 105; 269 11; 270 1; 
