Name: Disulfiram
Synon: Antabuse
InChIKey: AUZONCFQVSMFAP-UHFFFAOYSA-N
Formula: C10H20N2S4
MW: 296
ExactMass: 296.050932
CASNO: 97778
ID: 1575
Comment: AAFS / Probability Based Matching Data Base Entry
Num Peaks: 60
42 29; 43 3; 44 90; 45 14; 54 6; 
55 2; 56 28; 57 4; 58 9; 59 48; 
60 249; 61 27; 62 13; 64 22; 66 3; 
70 8; 71 6; 72 97; 73 7; 76 20; 
77 87; 78 10; 84 3; 86 59; 88 575; 
89 28; 90 34; 91 27; 92 15; 93 6; 
95 3; 104 7; 108 3; 114 5; 116 999; 
117 68; 118 54; 119 7; 120 2; 121 3; 
127 2; 134 2; 148 201; 149 36; 150 23; 
151 4; 159 3; 180 10; 191 2; 210 3; 
211 7; 213 2; 264 18; 265 3; 266 3; 
296 266; 297 45; 298 56; 299 7; 300 2; 
