Name: Anhydroecgonine methyl ester
Synon: Methylecgonidine
Synon: Anhydromethylecgonine
Synon: Methyl (1S,5R)-8-methyl-8-azabicyclo[3.2.1]oct-3-ene-4-carboxylate
InChIKey: MPSNEAHFGOEKBI-UHFFFAOYSA-N
Formula: C10H15NO2
MW: 181
ExactMass: 181.110279
CASNO: 43021267
ID: 1578
Comment: AAFS
Num Peaks: 93
42 135; 43 7; 44 21; 45 5; 50 6; 
51 17; 52 14; 53 28; 54 16; 55 37; 
56 19; 57 64; 58 6; 59 21; 61 14; 
62 2; 63 5; 64 2; 65 30; 66 21; 
67 31; 68 41; 69 11; 70 8; 71 2; 
72 1; 75 3; 76 1; 77 33; 78 15; 
79 39; 80 27; 81 42; 82 165; 83 16; 
84 2; 85 2; 89 2; 91 53; 92 37; 
93 43; 94 70; 95 10; 96 11; 97 4; 
98 2; 100 1; 103 1; 104 3; 105 6; 
106 46; 107 34; 108 25; 109 8; 110 2; 
111 1; 115 1; 116 1; 118 8; 119 7; 
120 87; 121 29; 122 149; 123 18; 124 4; 
125 7; 126 2; 132 2; 133 1; 134 43; 
135 15; 136 3; 137 1; 138 77; 139 8; 
140 12; 141 1; 148 17; 149 12; 150 87; 
152 999; 153 142; 154 13; 164 1; 166 106; 
167 11; 168 1; 178 1; 179 1; 180 13; 
181 362; 182 44; 183 3; 
