Name: Clomipramine
Synon: Anafranil
InChIKey: GDLIGKIOYRNHDA-UHFFFAOYSA-N
Formula: C19H23ClN2
MW: 314
ExactMass: 314.154976
CASNO: 303491
ID: 1579
Comment: DEA SWL / Sigma lot 093K1427
Num Peaks: 199
40 3; 41 21; 42 114; 43 39; 44 81; 
45 4; 46 1; 50 5; 51 17; 52 5; 
53 2; 54 2; 55 3; 56 31; 58 999; 
59 46; 62 4; 63 24; 64 6; 65 21; 
66 2; 67 1; 68 4; 70 109; 71 29; 
72 30; 73 4; 74 4; 75 14; 76 10; 
77 35; 78 13; 79 2; 81 1; 82 4; 
84 97; 85 466; 86 60; 87 10; 89 68; 
90 23; 91 55; 92 4; 93 2; 96 8; 
97 4; 98 1; 99 8; 100 3; 101 14; 
102 20; 103 17; 104 10; 105 7; 106 37; 
107 9; 109 3; 110 2; 111 4; 112 3; 
113 7; 114 9; 115 30; 116 20; 117 45; 
118 27; 119 6; 120 1; 123 5; 124 3; 
125 23; 126 10; 127 17; 128 24; 129 45; 
130 123; 131 19; 132 7; 136 1; 137 4; 
138 7; 139 24; 140 31; 141 13; 142 9; 
143 8; 144 6; 145 1; 149 8; 150 17; 
151 37; 152 47; 153 18; 154 15; 155 3; 
156 2; 157 7; 158 4; 160 1; 161 1; 
162 8; 163 31; 164 94; 165 116; 166 62; 
167 33; 168 5; 169 1; 173 1; 174 3; 
175 5; 176 37; 177 40; 178 99; 179 44; 
180 18; 181 4; 186 2; 187 1; 188 7; 
189 17; 190 67; 191 160; 192 205; 193 197; 
194 40; 195 5; 198 1; 199 10; 200 8; 
201 20; 202 12; 203 16; 204 105; 205 47; 
206 70; 207 37; 208 16; 209 2; 212 18; 
213 41; 214 38; 215 21; 216 17; 217 30; 
218 59; 219 53; 220 44; 221 46; 222 5; 
223 1; 224 1; 225 9; 226 65; 227 247; 
228 217; 229 172; 230 73; 231 32; 232 29; 
233 31; 234 24; 235 5; 236 1; 237 1; 
238 16; 240 86; 241 29; 242 154; 243 44; 
244 46; 245 13; 246 1; 251 4; 252 18; 
254 118; 255 40; 256 72; 257 19; 258 12; 
259 2; 264 1; 265 1; 266 4; 268 746; 
269 715; 270 358; 271 248; 272 40; 273 3; 
279 3; 299 2; 301 1; 311 1; 314 151; 
315 32; 316 52; 317 11; 318 1; 
