Name: Amlodipine
Synon: Norvasc
InChIKey: HTIQEAQVCYTUBX-UHFFFAOYSA-N
Formula: C20H25ClN2O5
MW: 408
ExactMass: 408.145199
CASNO: 88150429
ID: 1582
Comment: DEA SWL
Num Peaks: 285
40 3; 41 11; 42 67; 43 39; 44 809; 
45 43; 50 12; 51 17; 52 10; 53 14; 
54 7; 55 9; 56 2; 57 1; 58 5; 
59 57; 60 9; 61 3; 62 6; 63 14; 
64 5; 65 22; 66 13; 67 26; 68 6; 
69 8; 70 1; 72 7; 73 16; 74 52; 
75 30; 76 15; 77 45; 78 17; 79 14; 
80 9; 81 3; 83 12; 84 3; 85 3; 
87 5; 88 2; 89 8; 90 8; 91 18; 
92 26; 93 21; 94 10; 95 2; 96 5; 
97 2; 98 3; 99 9; 100 2; 101 14; 
102 12; 103 7; 104 28; 105 27; 106 29; 
107 12; 108 5; 109 1; 111 14; 112 11; 
113 17; 114 13; 115 28; 116 6; 117 4; 
118 5; 119 9; 120 53; 121 21; 122 5; 
123 5; 124 1; 125 21; 126 28; 127 47; 
128 46; 129 11; 130 3; 131 4; 132 18; 
133 23; 134 47; 135 9; 136 18; 137 19; 
138 18; 139 99; 140 35; 141 28; 142 10; 
143 5; 145 1; 146 9; 147 8; 148 124; 
149 59; 150 64; 151 47; 152 59; 153 40; 
154 23; 155 19; 156 8; 157 5; 159 1; 
160 8; 161 11; 162 13; 163 18; 164 33; 
165 230; 166 52; 167 49; 168 30; 169 11; 
170 4; 171 1; 173 9; 174 8; 175 17; 
176 61; 177 20; 178 52; 179 35; 180 135; 
181 79; 182 26; 183 11; 184 2; 185 1; 
187 5; 188 2; 189 8; 190 4; 191 8; 
192 15; 193 8; 194 17; 195 31; 196 30; 
197 15; 198 6; 200 2; 201 8; 202 11; 
203 12; 204 7; 205 6; 206 33; 207 29; 
208 813; 209 131; 210 45; 211 12; 212 8; 
213 1; 214 14; 215 15; 216 22; 217 23; 
218 12; 219 14; 220 2; 221 6; 222 14; 
223 11; 224 31; 225 34; 226 16; 227 2; 
228 1; 229 4; 230 13; 231 5; 232 13; 
233 7; 234 3; 235 3; 236 52; 237 19; 
238 34; 239 22; 240 44; 241 9; 242 11; 
243 7; 244 27; 245 8; 246 15; 247 2; 
248 2; 249 3; 250 3; 251 9; 252 32; 
253 17; 254 256; 255 39; 256 7; 257 10; 
258 14; 259 8; 260 65; 261 14; 262 23; 
263 3; 264 1; 265 3; 266 4; 267 5; 
268 21; 269 6; 270 12; 271 2; 272 5; 
274 16; 275 16; 276 19; 277 3; 278 5; 
280 21; 281 7; 282 6; 283 4; 284 6; 
286 21; 287 2; 288 25; 289 13; 290 16; 
291 6; 292 6; 294 3; 295 2; 296 6; 
297 999; 298 163; 299 25; 300 1; 302 5; 
303 7; 304 9; 305 4; 306 4; 312 5; 
313 2; 315 1; 316 2; 317 2; 318 20; 
319 5; 320 17; 321 1; 322 1; 325 1; 
327 3; 328 1; 329 2; 331 1; 332 5; 
333 4; 334 29; 335 14; 336 11; 337 3; 
346 1; 347 93; 348 21; 349 40; 350 6; 
351 2; 355 1; 377 19; 378 4; 379 6; 
380 1; 393 1; 408 8; 409 1; 410 1; 
