Name: Aminopyrine
InChIKey: RMMXTBMQSGEXHJ-UHFFFAOYSA-N
Formula: C13H17N3O
MW: 231
ExactMass: 231.137162
CASNO: 58151
ID: 1585
Comment: DEA SWL
Num Peaks: 128
40 10; 41 20; 42 75; 43 18; 44 15; 
45 5; 50 9; 51 40; 52 12; 53 5; 
54 36; 55 58; 56 999; 57 47; 58 5; 
61 1; 62 3; 63 19; 64 35; 65 16; 
66 20; 67 38; 68 58; 69 18; 70 55; 
71 91; 72 9; 73 1; 74 2; 75 3; 
76 7; 77 129; 78 12; 79 3; 80 7; 
81 7; 82 51; 83 45; 84 14; 85 7; 
86 1; 87 1; 88 1; 89 2; 90 6; 
91 53; 92 8; 93 5; 94 3; 95 8; 
96 12; 97 549; 98 40; 99 2; 102 2; 
103 9; 104 22; 105 15; 106 12; 107 2; 
108 1; 109 11; 110 10; 111 177; 112 46; 
113 4; 116 17; 117 5; 118 11; 119 31; 
120 6; 121 17; 122 3; 123 70; 124 5; 
125 2; 126 4; 128 1; 129 2; 130 6; 
131 14; 132 27; 133 5; 134 4; 135 1; 
136 1; 137 12; 138 2; 139 2; 142 1; 
143 1; 144 4; 145 7; 146 3; 147 21; 
148 2; 154 8; 155 1; 156 1; 157 2; 
158 2; 159 8; 160 6; 161 7; 162 1; 
171 1; 172 1; 173 9; 174 1; 175 11; 
176 1; 185 8; 186 2; 187 5; 188 11; 
189 2; 198 2; 199 5; 200 2; 201 3; 
202 2; 214 1; 216 17; 217 2; 230 52; 
231 377; 232 56; 233 4; 
