Name: Aminopromazine
InChIKey: YZQNFFLGIYEXMM-UHFFFAOYSA-N
Formula: C19H25N3S
MW: 327
ExactMass: 327.176918
CASNO: 58377
ID: 1586
Comment: AAFS
Num Peaks: 48
42 67; 43 21; 44 11; 45 8; 51 5; 
55 8; 56 61; 58 371; 59 14; 63 5; 
65 5; 69 11; 70 353; 71 107; 72 75; 
77 8; 84 8; 99 6; 114 16; 115 254; 
116 20; 127 11; 128 7; 139 7; 140 6; 
152 11; 153 8; 154 28; 166 12; 167 6; 
171 12; 178 5; 179 9; 180 33; 181 5; 
196 12; 198 999; 199 152; 200 57; 201 7; 
212 17; 213 6; 269 159; 270 30; 271 9; 
282 18; 327 35; 328 8; 
