Name: Zolpidem
Synon: Ambien
InChIKey: ZAFYATHCZYHLPB-UHFFFAOYSA-N
Formula: C19H21N3O
MW: 307
ExactMass: 307.168463
CASNO: 82626480
ID: 1589
Comment: DEA SWL
Num Peaks: 124
40 3; 41 6; 42 12; 43 4; 44 4; 
45 1; 50 4; 51 13; 52 8; 53 4; 
54 1; 55 1; 56 6; 62 2; 63 12; 
64 10; 65 117; 66 17; 67 1; 72 64; 
73 2; 74 2; 75 5; 76 7; 77 16; 
78 8; 79 2; 80 1; 87 2; 88 2; 
89 15; 90 8; 91 25; 92 159; 93 17; 
94 2; 96 2; 101 4; 102 12; 103 8; 
104 1; 105 1; 109 2; 110 14; 113 2; 
114 3; 115 38; 116 27; 117 21; 118 6; 
119 2; 125 1; 126 5; 127 18; 128 25; 
129 11; 130 4; 131 1; 139 2; 140 6; 
141 4; 142 7; 143 4; 144 1; 145 1; 
151 2; 152 4; 153 4; 154 3; 155 1; 
156 1; 163 1; 164 2; 165 5; 166 4; 
167 4; 168 3; 169 1; 176 1; 177 2; 
178 4; 179 3; 180 3; 181 3; 182 3; 
190 4; 191 5; 192 6; 193 4; 194 6; 
195 10; 196 1; 203 2; 204 3; 205 14; 
206 5; 207 2; 208 4; 209 2; 216 2; 
217 7; 218 19; 219 128; 220 56; 221 9; 
222 2; 229 1; 230 1; 231 6; 232 12; 
233 54; 234 35; 235 999; 236 181; 237 15; 
238 1; 247 1; 261 1; 262 2; 263 1; 
306 2; 307 75; 308 16; 309 2; 
