Name: Alprenolol
InChIKey: PAZJSJFMUHDSTF-UHFFFAOYSA-N
Formula: C15H25NO3
MW: 267
ExactMass: 267.183443
CASNO: 13655522
ID: 1591
Comment: AAFS / Probability Based Matching Data Base Entry
Num Peaks: 92
30 157; 31 3; 38 1; 39 16; 40 2; 
41 36; 42 16; 43 37; 44 20; 45 2; 
50 3; 51 11; 52 5; 53 4; 54 2; 
55 7; 56 51; 57 32; 58 22; 59 2; 
60 16; 62 1; 63 7; 64 2; 65 13; 
66 2; 67 1; 68 2; 69 1; 70 16; 
72 999; 73 50; 74 5; 75 2; 76 2; 
77 36; 78 18; 79 18; 80 2; 82 3; 
83 1; 84 5; 85 1; 86 6; 87 1; 
89 10; 90 4; 91 45; 92 4; 94 1; 
96 1; 98 3; 100 23; 101 2; 102 30; 
103 15; 104 4; 105 19; 106 2; 107 14; 
108 1; 114 8; 115 31; 116 12; 117 12; 
118 4; 119 11; 120 1; 121 1; 127 1; 
128 2; 129 1; 131 21; 132 9; 133 11; 
134 8; 135 1; 144 1; 145 2; 147 3; 
148 1; 173 2; 176 1; 205 26; 206 5; 
207 1; 234 17; 235 2; 248 2; 249 53; 
250 9; 251 1; 
