Name: Alphenal
InChIKey: WOIGZSBYKGQJGL-UHFFFAOYSA-N
Formula: C13H12N2O3
MW: 244
ExactMass: 244.084792
CASNO: 115435
ID: 1593
Comment: DEA SWL
Num Peaks: 153
40 19; 41 544; 42 27; 43 41; 44 61; 
45 6; 49 2; 50 88; 51 257; 52 63; 
53 36; 54 8; 55 8; 56 6; 58 12; 
59 2; 60 1; 61 13; 62 53; 63 196; 
64 127; 65 73; 66 11; 67 6; 68 7; 
69 9; 70 73; 72 10; 73 7; 74 40; 
75 52; 76 105; 77 468; 78 200; 79 20; 
80 5; 81 3; 82 3; 83 6; 84 1; 
86 15; 87 30; 88 22; 89 285; 90 72; 
91 180; 92 17; 93 5; 94 6; 95 3; 
96 11; 97 1; 98 7; 99 7; 100 2; 
101 26; 102 195; 103 191; 104 958; 105 162; 
106 24; 107 4; 109 1; 110 3; 113 7; 
114 12; 115 332; 116 73; 117 136; 118 65; 
119 9; 120 3; 121 1; 122 3; 123 4; 
124 18; 125 4; 126 30; 127 234; 128 562; 
129 450; 130 209; 131 35; 132 441; 133 246; 
134 21; 135 3; 139 4; 140 6; 141 5; 
142 26; 143 49; 144 97; 145 32; 146 24; 
147 8; 148 1; 152 2; 153 42; 154 45; 
155 38; 156 76; 157 36; 158 112; 159 29; 
160 162; 161 34; 162 4; 165 2; 166 3; 
167 16; 168 3; 169 3; 170 6; 171 4; 
172 126; 173 42; 174 16; 175 6; 176 4; 
182 1; 183 12; 184 28; 185 52; 186 76; 
187 14; 188 4; 189 5; 198 1; 199 2; 
200 7; 201 21; 202 6; 203 124; 204 35; 
205 3; 207 1; 210 1; 213 3; 214 1; 
215 999; 216 146; 217 18; 218 1; 226 1; 
227 57; 228 9; 229 105; 230 14; 243 42; 
244 130; 245 23; 246 2; 
