Name: Vitamin E acetate
Synon: .alpha.-Tocopherol acetate
InChIKey: ZAKOWWREFLAJOT-UHFFFAOYSA-N
Formula: C31H52O3
MW: 472
ExactMass: 472.391645
CASNO: 58957
ID: 1594
Comment: DEA WRL
Num Peaks: 98
41 253; 42 45; 43 687; 44 23; 53 31; 
54 7; 55 207; 56 40; 57 265; 58 11; 
65 7; 66 2; 67 51; 68 5; 69 111; 
70 13; 71 98; 72 2; 77 15; 79 25; 
80 2; 81 53; 83 43; 85 14; 91 42; 
92 2; 93 18; 95 26; 97 13; 103 2; 
105 18; 106 1; 107 23; 108 3; 109 25; 
111 5; 117 3; 119 22; 120 2; 121 64; 
122 7; 123 10; 131 4; 133 8; 135 39; 
136 66; 137 50; 139 2; 147 21; 148 2; 
149 42; 150 3; 151 11; 152 14; 153 3; 
159 10; 161 14; 162 6; 163 25; 164 292; 
165 790; 166 103; 167 8; 173 4; 174 2; 
175 18; 176 11; 177 38; 178 10; 179 6; 
187 6; 188 3; 189 20; 190 16; 191 24; 
203 26; 204 11; 205 115; 206 18; 207 263; 
208 33; 219 7; 245 11; 246 3; 247 42; 
248 4; 274 3; 288 6; 302 5; 344 5; 
358 3; 428 4; 430 999; 431 337; 432 54; 
472 142; 473 45; 474 6; 
