Name: Cinchonidine
Synon: .alpha.-Quinidine
InChIKey: KMPWYEUPVWOPIM-UHFFFAOYSA-N
Formula: C19H22N2O
MW: 294
ExactMass: 294.173214
CASNO: 485712
ID: 1595
Comment: AAFS / Probability Based Matching Data Base Entry
Num Peaks: 122
40 3; 41 45; 42 48; 43 9; 44 10; 
50 2; 51 12; 52 5; 53 28; 54 20; 
55 55; 56 22; 57 9; 58 2; 60 2; 
63 5; 65 14; 66 8; 67 34; 68 21; 
69 15; 70 13; 71 5; 73 2; 74 5; 
75 17; 76 9; 77 59; 78 13; 79 84; 
80 30; 81 86; 82 46; 83 10; 84 6; 
85 3; 87 3; 88 3; 89 6; 90 2; 
91 18; 92 4; 93 15; 94 29; 95 54; 
96 9; 97 5; 98 4; 99 2; 100 2; 
101 22; 102 24; 103 29; 104 5; 105 15; 
106 8; 107 10; 108 15; 109 7; 110 8; 
111 5; 113 2; 114 2; 115 18; 116 5; 
117 5; 119 3; 120 4; 121 5; 122 4; 
123 2; 124 4; 125 2; 126 6; 127 7; 
128 31; 129 21; 130 100; 131 11; 134 13; 
136 999; 137 107; 138 23; 139 7; 140 4; 
141 3; 142 19; 143 18; 144 4; 152 3; 
153 2; 154 13; 155 4; 156 12; 157 4; 
158 34; 159 59; 160 9; 166 9; 167 12; 
168 7; 169 5; 170 9; 171 4; 172 3; 
180 3; 181 5; 182 4; 183 4; 184 5; 
185 2; 189 2; 194 2; 195 2; 197 3; 
239 2; 267 3; 277 3; 294 5; 295 2; 
296 7; 297 2; 
