Name: Alphaprodine
InChIKey: UVAZQQHAVMNMHE-UHFFFAOYSA-N
Formula: C16H23NO2
MW: 261
ExactMass: 261.172878
CASNO: 77203
ID: 1596
Comment: DEA SWL
Num Peaks: 117
40 3; 41 32; 42 191; 43 94; 44 92; 
45 4; 50 5; 51 26; 52 5; 53 9; 
54 4; 55 16; 56 17; 57 198; 58 28; 
59 1; 62 1; 63 8; 64 2; 65 18; 
66 3; 67 12; 68 7; 69 3; 70 52; 
71 20; 72 4; 73 3; 74 6; 75 4; 
76 8; 77 132; 78 25; 79 14; 80 3; 
81 2; 82 20; 83 6; 84 312; 85 25; 
87 2; 88 1; 89 9; 91 145; 92 12; 
94 24; 95 4; 96 20; 97 2; 98 1; 
100 1; 101 1; 102 16; 103 70; 104 14; 
105 127; 106 12; 107 2; 108 8; 109 3; 
110 85; 111 7; 112 1; 113 1; 115 96; 
116 25; 117 75; 118 11; 119 1; 120 7; 
126 6; 127 19; 128 67; 129 127; 130 49; 
131 23; 132 5; 133 7; 134 2; 139 1; 
140 1; 141 12; 142 6; 143 28; 144 162; 
145 85; 146 14; 147 2; 153 1; 154 2; 
155 2; 156 5; 157 8; 158 21; 159 8; 
160 4; 161 1; 162 1; 167 1; 168 2; 
169 1; 170 27; 172 999; 173 133; 174 9; 
184 8; 185 1; 186 93; 187 423; 188 129; 
189 15; 190 1; 204 10; 205 1; 260 1; 
261 24; 262 4; 
