Name: Chlophedianol
Synon: .alpha.-(Dimethylaminoethyl)-o-chlorobenzhydrol
InChIKey: WRCHFMBCVFFYEQ-UHFFFAOYSA-N
Formula: C17H20ClNO
MW: 289
ExactMass: 289.123343
CASNO: 791355
ID: 1602
Comment: AAFS
Num Peaks: 71
42 38; 43 13; 44 34; 45 53; 46 2; 
50 6; 51 18; 52 2; 55 5; 56 15; 
58 999; 59 40; 63 4; 65 3; 70 8; 
71 10; 72 33; 73 41; 74 15; 75 15; 
76 8; 77 63; 78 11; 79 2; 89 4; 
91 10; 101 2; 102 2; 103 3; 105 42; 
106 3; 111 29; 112 3; 113 11; 114 2; 
115 6; 121 2; 125 5; 126 2; 127 2; 
139 55; 140 4; 141 18; 150 2; 151 7; 
152 17; 153 4; 160 2; 163 2; 164 2; 
165 10; 166 3; 176 3; 177 3; 178 14; 
179 6; 181 3; 183 2; 189 3; 191 2; 
194 2; 212 6; 214 3; 217 6; 218 6; 
219 2; 220 3; 226 2; 254 382; 255 74; 
256 8; 
