Name: Allopurinol
Synon: Zyloprim
InChIKey: OFCNXPDARWKPPY-UHFFFAOYSA-N
Formula: C5H4N4O
MW: 136
ExactMass: 136.03851
CASNO: 315300
ID: 1604
Comment: DEA SWL
Num Peaks: 24
40 35; 41 10; 42 18; 43 63; 44 6; 
51 111; 52 327; 53 155; 54 6; 55 4; 
64 9; 65 4; 67 54; 68 17; 78 4; 
79 4; 80 26; 81 4; 94 7; 109 65; 
120 15; 135 123; 136 999; 137 72; 
