Name: Albuterol
Synon: Salbutamol
Synon: Proventil
Synon: Ventolin
InChIKey: NDAUXUAQIAJITI-UHFFFAOYSA-N
Formula: C13H21NO3
MW: 239
ExactMass: 239.1521435
CASNO: 18559949
ID: 1608
Comment: AAFS / Unverified / Probability Based Matching Data Base Entry
Num Peaks: 110
40 7; 41 102; 42 41; 43 43; 44 15; 
45 5; 50 5; 51 26; 52 9; 53 18; 
54 8; 55 45; 56 34; 57 194; 58 29; 
59 4; 60 18; 61 6; 62 2; 63 9; 
64 3; 65 24; 66 8; 67 11; 68 9; 
69 19; 70 46; 71 56; 72 29; 73 26; 
74 6; 75 4; 76 5; 77 145; 78 41; 
79 68; 80 8; 81 9; 82 6; 83 14; 
84 11; 85 14; 86 999; 87 71; 88 4; 
89 14; 90 5; 91 37; 92 6; 93 7; 
94 5; 95 15; 96 5; 97 10; 98 7; 
99 6; 100 3; 101 4; 102 4; 103 20; 
104 6; 105 14; 106 13; 107 52; 108 6; 
109 4; 110 2; 111 4; 112 3; 113 2; 
115 4; 116 4; 117 4; 118 7; 119 16; 
120 10; 121 10; 122 3; 123 6; 125 2; 
127 2; 128 2; 129 6; 130 3; 131 5; 
132 6; 133 15; 135 95; 137 5; 138 6; 
143 2; 144 2; 145 2; 146 8; 147 11; 
148 7; 151 2; 152 2; 153 10; 160 2; 
161 4; 164 2; 176 2; 185 2; 188 19; 
189 3; 206 35; 207 4; 221 1; 239 5; 
