Name: Loratadine
Synon: Claritin
Synon: Alavert
InChIKey: JCCNYMKQOSZNPW-UHFFFAOYSA-N
Formula: C22H23ClN2O2
MW: 382
ExactMass: 382.144806
CASNO: 79794755
ID: 1609
Comment: DEA SWL
Num Peaks: 287
40 6; 41 33; 42 207; 43 60; 44 73; 
45 16; 46 1; 49 2; 50 8; 51 29; 
52 16; 53 34; 54 16; 55 14; 56 112; 
57 6; 58 13; 59 1; 61 1; 62 8; 
63 29; 64 7; 65 32; 66 7; 67 13; 
68 6; 69 2; 70 3; 72 6; 73 2; 
74 27; 75 23; 76 12; 77 37; 78 25; 
79 22; 80 67; 81 11; 82 67; 84 13; 
85 2; 86 3; 87 16; 88 22; 89 33; 
90 14; 91 10; 92 13; 93 42; 94 28; 
96 35; 97 9; 98 6; 99 10; 100 19; 
101 30; 102 77; 104 12; 105 4; 106 21; 
108 32; 109 104; 110 11; 111 5; 112 4; 
113 19; 114 113; 115 113; 117 40; 118 25; 
119 8; 121 77; 123 49; 124 7; 125 18; 
126 46; 127 43; 128 45; 130 59; 131 16; 
132 7; 133 7; 134 3; 135 6; 136 10; 
137 13; 138 17; 139 59; 140 39; 141 27; 
142 18; 143 13; 144 8; 147 6; 149 22; 
150 32; 151 59; 152 79; 153 30; 154 86; 
155 22; 156 20; 157 5; 158 2; 159 2; 
160 2; 161 7; 162 15; 163 63; 164 55; 
165 79; 166 38; 167 31; 168 16; 169 7; 
170 3; 171 1; 173 7; 174 13; 175 25; 
176 51; 177 40; 178 53; 179 41; 180 23; 
181 6; 182 3; 183 3; 185 3; 186 8; 
187 27; 188 41; 189 106; 190 79; 191 120; 
192 83; 193 78; 194 19; 195 3; 196 1; 
197 2; 198 4; 199 17; 200 26; 201 34; 
202 101; 203 90; 204 118; 205 30; 206 15; 
207 6; 208 1; 209 2; 210 2; 211 3; 
212 7; 213 25; 214 108; 215 90; 216 276; 
217 276; 218 143; 219 48; 220 7; 222 1; 
223 4; 224 5; 225 9; 226 44; 227 74; 
228 282; 229 209; 230 408; 231 319; 232 101; 
233 29; 234 3; 236 4; 237 10; 238 60; 
239 18; 240 59; 241 88; 242 148; 243 229; 
244 488; 245 800; 246 182; 247 19; 248 4; 
249 5; 250 34; 251 130; 252 180; 253 149; 
254 90; 255 55; 256 62; 257 99; 258 83; 
259 40; 260 5; 261 3; 262 11; 263 18; 
264 112; 265 117; 266 999; 267 365; 268 414; 
269 113; 270 36; 271 9; 272 7; 273 6; 
274 9; 275 8; 276 17; 277 44; 278 219; 
279 148; 280 688; 281 256; 282 228; 283 75; 
284 11; 285 3; 288 3; 289 3; 290 13; 
291 22; 292 553; 293 207; 294 339; 295 96; 
296 58; 297 8; 298 1; 302 2; 304 1; 
305 4; 306 1; 307 17; 308 7; 309 59; 
310 13; 311 21; 312 5; 318 1; 320 1; 
321 7; 322 3; 323 4; 324 1; 325 1; 
326 1; 327 1; 331 1; 333 1; 335 25; 
336 11; 337 57; 338 17; 339 21; 340 4; 
341 3; 347 4; 348 1; 351 3; 352 2; 
353 29; 354 11; 355 10; 356 4; 367 47; 
368 15; 369 18; 370 4; 379 3; 380 5; 
381 192; 382 891; 383 272; 384 332; 385 64; 
386 7; 387 3; 
