Name: Epinephrine
Synon: Adrenaline
InChIKey: UCTWMZQNUQWSLP-UHFFFAOYSA-N
Formula: C9H13NO3
MW: 183
ExactMass: 183.089543
CASNO: 51434
ID: 1613
Comment: AAFS / Probability Based Matching Data Base Entry
Num Peaks: 97
42 64; 43 44; 44 999; 45 54; 46 35; 
50 18; 51 42; 52 17; 53 39; 54 12; 
55 46; 56 8; 57 15; 58 8; 59 3; 
60 7; 61 5; 62 14; 63 38; 64 18; 
65 133; 66 23; 67 13; 68 7; 69 16; 
70 7; 71 11; 73 10; 74 8; 75 6; 
76 6; 77 38; 78 17; 79 16; 80 5; 
81 41; 82 18; 83 12; 84 6; 85 6; 
87 4; 89 11; 90 6; 91 11; 92 10; 
93 160; 94 22; 95 8; 96 4; 97 8; 
98 4; 99 3; 104 5; 105 7; 106 7; 
107 14; 108 6; 109 23; 110 25; 111 36; 
112 3; 115 4; 117 5; 118 12; 119 4; 
121 4; 122 10; 123 29; 124 37; 125 7; 
129 5; 132 3; 133 3; 134 7; 135 8; 
136 21; 137 67; 138 23; 139 55; 140 25; 
141 3; 146 11; 147 3; 148 6; 149 4; 
151 4; 152 4; 153 6; 162 3; 163 11; 
164 6; 165 24; 166 6; 170 15; 171 3; 
183 48; 184 6; 
