Name: Acetylsalicylic acid methyl ester
Synon: Salicylic acid acetate, methyl ester
Synon: Aspirin methyl ester
Synon: Methyl acetylsalicylate
Synon: Methyl aspirin
Synon: Methyl o-acetoxybenzoate
InChIKey: ONWPLBKWMAUFGZ-UHFFFAOYSA-N
Formula: C10H10O4
MW: 194
ExactMass: 194.057909
CASNO: 580029
ID: 1619
Comment: AAFS / Probability Based Matching Data Base Entry
Num Peaks: 41
41 15; 42 25; 43 420; 44 10; 45 5; 
50 20; 51 20; 52 10; 53 35; 59 15; 
61 5; 62 25; 63 120; 64 95; 65 110; 
66 15; 67 5; 74 10; 75 10; 76 15; 
77 30; 78 5; 80 10; 91 15; 92 390; 
93 75; 94 10; 95 25; 119 15; 120 999; 
121 410; 122 35; 123 10; 135 10; 151 30; 
152 810; 153 75; 154 10; 163 60; 164 5; 
194 5; 
