Name: Acetophenone
InChIKey: KWOLFJPFCHCOCG-UHFFFAOYSA-N
Formula: C8H8O
MW: 120
ExactMass: 120.0575147
CASNO: 98862
ID: 1620
Comment: DEA SWL / Aldrich lot 08426JN
Num Peaks: 50
14 1; 15 7; 26 3; 27 10; 28 3; 
29 1; 37 7; 38 17; 39 33; 40 2; 
41 4; 42 11; 43 93; 44 2; 49 10; 
50 109; 51 250; 52 24; 60 1; 61 9; 
62 19; 63 29; 64 5; 65 21; 66 1; 
73 11; 74 51; 75 28; 77 758; 78 73; 
79 3; 81 1; 85 3; 86 4; 87 2; 
89 11; 90 2; 91 20; 92 1; 98 1; 
102 1; 103 2; 105 999; 106 73; 107 4; 
109 1; 120 291; 121 25; 122 1; 124 1; 
