Name: Acetonitrile
Synon: ACN
InChIKey: WEVYAHXRMPXWCK-UHFFFAOYSA-N
Formula: C2H3N
MW: 41
ExactMass: 41.026549
CASNO: 75058
ID: 1623
Comment: DEA SWL
Num Peaks: 19
12 5; 13 5; 14 19; 15 5; 17 5; 
18 23; 24 7; 25 9; 26 18; 27 13; 
28 115; 29 4; 32 25; 38 118; 39 206; 
40 542; 41 999; 42 25; 43 8; 
