Name: Acetone
InChIKey: CSCPPACGZOOCGX-UHFFFAOYSA-N
Formula: C3H6O
MW: 58
ExactMass: 58.0418649
CASNO: 67641
ID: 1624
Comment: DEA SWL
Num Peaks: 30
13 1; 14 9; 15 44; 16 1; 17 4; 
18 14; 24 1; 25 6; 26 30; 27 48; 
28 31; 29 36; 30 2; 31 20; 32 18; 
36 4; 37 17; 38 21; 39 39; 40 8; 
41 22; 42 79; 43 999; 44 21; 45 2; 
52 1; 53 4; 55 2; 58 236; 59 8; 
