Name: Acetaminophen
Synon: Tylenol
Synon: APAP
Synon: N-Acetyl-p-aminophenol
Synon: Paracetamol
Synon: p-Acetaminophenol
InChIKey: RZVAJINKPMORJF-UHFFFAOYSA-N
Formula: C8H9NO2
MW: 151
ExactMass: 151.063329
CASNO: 103902
ID: 1625
Comment: DEA SWL
Num Peaks: 37
38 16; 39 41; 40 8; 41 7; 42 24; 
43 239; 44 6; 50 20; 51 30; 52 99; 
53 133; 54 29; 55 28; 61 2; 62 10; 
63 23; 64 15; 65 26; 66 4; 68 4; 
77 2; 78 6; 79 11; 80 206; 81 120; 
82 18; 91 2; 93 3; 107 9; 108 130; 
109 999; 110 79; 111 2; 135 6; 136 2; 
151 296; 152 30; 
