Name: Cyclohexanone
InChIKey: JHIVVAPYMSGYDF-UHFFFAOYSA-N
Formula: C6H10O
MW: 98
ExactMass: 98.073165
CASNO: 108941
ID: 1630
Comment: DEA SWL / Sigma-Aldrich lot 04608HD
Num Peaks: 39
40 66; 41 313; 42 642; 43 88; 44 7; 
49 4; 50 26; 51 32; 52 12; 53 48; 
54 78; 55 999; 56 115; 57 13; 58 1; 
61 4; 62 7; 63 8; 64 1; 65 8; 
66 4; 67 14; 68 9; 69 334; 70 261; 
71 20; 72 1; 74 2; 77 2; 78 1; 
79 17; 80 70; 81 10; 83 133; 84 7; 
97 46; 98 721; 99 66; 100 4; 
