Name: Lindane
Synon: Cyclohexane, 1,2,3,4,5,6-hexachloro-, .gamma.-isomer
Synon: Hexachlorocyclohexane
InChIKey: JLYXXMFPNIAWKQ-UHFFFAOYSA-N
Formula: C6H6Cl6
MW: 288
ExactMass: 287.860065
CASNO: 55963796
ID: 1631
Comment: AAFS / Probability Based Matching Data Base Entry
Num Peaks: 86
47 53; 48 68; 49 231; 50 389; 51 515; 
52 54; 55 19; 56 15; 60 95; 61 300; 
62 119; 63 219; 64 19; 65 18; 69 23; 
72 70; 73 452; 74 244; 75 452; 76 59; 
77 284; 78 50; 83 419; 84 75; 85 544; 
86 95; 87 345; 88 34; 89 55; 96 473; 
97 331; 99 137; 100 64; 101 40; 107 43; 
109 886; 111 988; 112 161; 113 233; 114 51; 
118 25; 121 221; 122 91; 123 151; 124 60; 
130 22; 132 99; 133 31; 134 82; 136 27; 
142 81; 143 41; 145 269; 147 263; 148 161; 
149 95; 150 32; 154 16; 155 99; 157 98; 
158 41; 159 27; 161 14; 168 26; 171 19; 
180 999; 181 88; 182 966; 184 290; 186 36; 
215 149; 217 654; 219 787; 220 397; 221 49; 
223 84; 252 103; 254 161; 255 17; 256 98; 
257 14; 258 40; 288 18; 290 38; 291 35; 
294 14; 
