Name: Cyclohexane
InChIKey: XDTMQSROBMDMFD-UHFFFAOYSA-N
Formula: C6H12
MW: 84
ExactMass: 84.0939
CASNO: 110827
ID: 1632
Comment: DEA SWL / Mallinckrodt lot KJCM
Num Peaks: 35
15 24; 26 48; 27 159; 28 98; 29 48; 
30 1; 37 16; 39 271; 41 442; 42 151; 
43 56; 44 2; 50 30; 51 40; 52 24; 
53 68; 55 359; 56 789; 57 34; 61 1; 
62 4; 63 9; 65 21; 67 54; 69 337; 
70 18; 73 1; 74 3; 75 1; 77 13; 
78 3; 79 11; 81 12; 84 999; 85 61; 
