Name: Eticyclidine
Synon: PCE
Synon: PCP, N-ethyl analog
Synon: Cyclohexamine
Synon: N-Ethyl-1-phenylcyclohexylamine
Synon: (1-Phenylcyclohexyl)ethylamine
Synon: N-(1-Phenylcyclohexyl)ethylamine
InChIKey: IFYLVUHLOOCYBG-UHFFFAOYSA-N
Formula: C14H21N
MW: 203
ExactMass: 203.167399
CASNO: 2201152
ID: 1633
Comment: DEA SWL
Num Peaks: 101
40 3; 41 34; 42 21; 43 4; 44 79; 
45 2; 46 3; 50 6; 51 29; 52 7; 
53 13; 54 14; 55 23; 56 12; 58 8; 
62 1; 63 9; 64 2; 65 23; 66 3; 
67 10; 68 5; 69 3; 70 3; 72 2; 
73 1; 74 2; 75 5; 76 11; 77 104; 
78 26; 79 24; 80 6; 81 22; 82 7; 
83 1; 84 6; 87 2; 89 11; 90 4; 
91 202; 92 18; 93 2; 94 2; 96 2; 
98 1; 101 2; 102 16; 103 77; 104 196; 
105 32; 106 8; 110 1; 113 1; 114 1; 
115 91; 116 20; 117 152; 118 21; 119 15; 
120 2; 122 1; 124 1; 126 84; 127 20; 
128 36; 129 40; 130 43; 131 26; 132 46; 
133 4; 134 8; 139 1; 141 7; 142 5; 
143 20; 144 26; 145 6; 146 248; 147 49; 
148 3; 152 2; 153 2; 154 2; 155 1; 
156 2; 157 3; 158 19; 159 24; 160 999; 
161 127; 162 6; 172 4; 173 1; 174 70; 
175 9; 188 2; 202 59; 203 149; 204 22; 
205 1; 
