Name: Cyclobenzaprine
Synon: Flexeril
InChIKey: JURKNVYFZMSNLP-UHFFFAOYSA-N
Formula: C20H21N
MW: 275
ExactMass: 275.1674
CASNO: 303537
ID: 1634
Comment: DEA SWL
Num Peaks: 89
41 1; 42 27; 43 8; 44 3; 50 1; 
51 2; 56 5; 58 999; 59 36; 62 1; 
63 3; 65 1; 74 1; 75 2; 76 2; 
77 1; 82 1; 84 1; 86 1; 87 2; 
88 2; 89 2; 95 5; 98 1; 99 1; 
100 2; 101 4; 102 1; 107 3; 108 3; 
111 1; 113 3; 114 1; 115 4; 126 3; 
127 1; 128 1; 137 1; 138 1; 139 6; 
140 1; 149 1; 150 6; 151 6; 152 7; 
153 1; 161 1; 162 3; 163 11; 164 4; 
165 7; 174 3; 175 3; 176 10; 177 3; 
178 5; 179 1; 185 1; 186 2; 187 17; 
188 14; 189 42; 190 8; 191 5; 192 1; 
198 1; 199 3; 200 18; 201 15; 202 69; 
203 16; 204 2; 211 4; 213 48; 214 7; 
215 182; 216 64; 217 27; 218 4; 224 2; 
225 2; 226 12; 227 7; 228 10; 229 8; 
230 2; 231 1; 273 1; 275 2; 
