Name: Creatinine
InChIKey: DDRJAANPRJIHGJ-UHFFFAOYSA-N
Formula: C4H7N3O
MW: 113
ExactMass: 113.058912
CASNO: 60275
ID: 1635
Comment: DEA SWL
Num Peaks: 25
36 11; 38 22; 39 27; 40 118; 41 156; 
42 999; 43 839; 44 247; 45 10; 53 26; 
54 13; 55 58; 56 58; 57 26; 58 38; 
69 102; 70 20; 72 16; 83 11; 84 254; 
85 46; 98 18; 112 457; 113 566; 114 35; 
