Name: Prochlorperazine
Synon: Compazine
InChIKey: WIKYUJGCLQQFNW-UHFFFAOYSA-N
Formula: C20H24ClN3S
MW: 373
ExactMass: 373.137947
CASNO: 58388
ID: 1637
Comment: DEA SWL
Num Peaks: 220
41 93; 42 433; 43 416; 44 157; 45 19; 
50 5; 51 12; 52 3; 54 27; 55 46; 
56 231; 57 89; 58 145; 59 12; 62 4; 
63 24; 65 8; 67 5; 68 24; 69 62; 
70 999; 71 244; 72 54; 73 10; 74 6; 
75 15; 76 9; 77 26; 78 5; 79 5; 
80 3; 81 12; 82 44; 83 57; 84 81; 
85 113; 86 14; 87 6; 89 11; 90 5; 
91 6; 93 5; 94 6; 95 23; 96 43; 
97 61; 98 123; 99 108; 100 15; 101 11; 
102 8; 103 3; 104 3; 105 13; 106 12; 
107 9; 108 21; 109 14; 110 9; 111 111; 
113 998; 114 120; 115 13; 116 5; 117 4; 
119 4; 120 7; 121 4; 122 3; 123 7; 
124 7; 125 32; 126 27; 127 218; 128 30; 
129 4; 130 7; 131 4; 132 3; 133 6; 
134 7; 135 4; 136 7; 137 8; 138 14; 
139 71; 140 30; 141 500; 142 45; 143 6; 
144 3; 145 6; 146 7; 147 4; 149 7; 
150 9; 151 33; 152 61; 153 44; 154 17; 
155 4; 157 3; 159 3; 162 10; 163 4; 
164 31; 165 13; 166 26; 167 25; 168 8; 
169 15; 170 19; 171 21; 172 7; 173 12; 
174 8; 175 4; 176 7; 177 29; 178 37; 
179 36; 180 18; 181 4; 182 11; 183 15; 
184 28; 185 7; 186 8; 187 9; 188 42; 
189 10; 190 15; 191 14; 192 7; 193 6; 
194 5; 196 118; 197 100; 198 62; 199 18; 
200 37; 201 18; 202 14; 203 7; 204 16; 
205 15; 206 13; 207 20; 208 9; 209 27; 
210 59; 211 65; 212 66; 213 62; 214 309; 
215 64; 216 106; 217 20; 218 9; 219 4; 
220 8; 222 8; 223 45; 224 26; 225 23; 
226 9; 227 9; 228 9; 229 4; 230 6; 
232 393; 233 151; 234 155; 235 63; 236 22; 
237 17; 238 28; 239 28; 240 16; 241 6; 
242 5; 243 3; 244 23; 246 162; 247 94; 
248 71; 249 30; 250 5; 257 10; 258 55; 
259 115; 260 94; 261 55; 262 29; 263 6; 
268 8; 270 7; 272 168; 273 89; 274 76; 
275 29; 276 9; 301 3; 302 10; 303 3; 
304 3; 315 3; 316 21; 317 8; 318 7; 
329 15; 330 3; 331 6; 338 7; 358 5; 
373 308; 374 81; 375 121; 376 26; 377 9; 
