Name: Colchicine
InChIKey: IAKHMKGGTNLKSZ-UHFFFAOYSA-N
Formula: C22H25NO6
MW: 399
ExactMass: 399.168188
CASNO: 64868
ID: 1638
Comment: AAFS
Num Peaks: 307
42 60; 43 832; 44 35; 45 17; 47 1; 
50 6; 51 20; 52 9; 53 20; 54 13; 
55 21; 56 12; 57 10; 58 2; 59 10; 
60 27; 61 2; 62 8; 63 37; 64 13; 
65 22; 66 8; 67 12; 68 7; 69 17; 
70 10; 71 2; 72 2; 73 11; 74 12; 
75 35; 76 40; 77 59; 78 22; 79 15; 
80 9; 81 7; 82 8; 83 6; 84 6; 
85 4; 86 10; 87 17; 88 22; 89 43; 
90 20; 91 31; 92 15; 93 8; 94 6; 
95 9; 96 6; 97 5; 98 12; 99 15; 
100 13; 101 29; 102 42; 103 30; 104 23; 
105 20; 106 16; 107 9; 108 5; 109 7; 
110 9; 111 14; 112 15; 113 47; 114 51; 
115 136; 116 37; 117 26; 118 22; 119 19; 
120 12; 121 16; 122 5; 123 6; 124 7; 
125 25; 126 80; 127 124; 128 133; 129 52; 
130 28; 131 24; 132 19; 133 24; 134 15; 
135 13; 136 11; 137 19; 138 26; 139 189; 
140 121; 141 117; 142 51; 143 30; 144 22; 
145 24; 146 19; 147 20; 148 20; 149 15; 
150 35; 151 88; 152 201; 153 120; 154 87; 
155 85; 156 72; 157 46; 158 25; 159 16; 
160 20; 161 13; 162 15; 163 40; 164 45; 
165 134; 166 69; 167 96; 168 126; 169 91; 
170 67; 171 59; 172 21; 173 15; 174 11; 
175 12; 176 31; 177 36; 178 61; 179 47; 
180 67; 181 114; 182 80; 183 138; 184 80; 
185 58; 186 22; 187 13; 188 9; 189 18; 
190 24; 191 29; 192 33; 193 41; 194 60; 
195 106; 196 99; 197 85; 198 66; 199 74; 
200 33; 201 14; 202 7; 203 8; 204 10; 
205 29; 206 29; 207 60; 208 65; 209 80; 
210 83; 211 172; 212 94; 213 63; 214 23; 
215 12; 216 5; 217 6; 218 7; 219 14; 
220 29; 221 48; 222 73; 223 100; 224 99; 
225 92; 226 79; 227 76; 228 46; 229 14; 
230 4; 231 4; 232 4; 233 9; 234 17; 
235 64; 236 68; 237 88; 238 143; 239 175; 
240 97; 241 73; 242 61; 243 21; 244 6; 
245 3; 246 3; 247 5; 248 12; 249 31; 
250 58; 251 127; 252 97; 253 91; 254 331; 
255 125; 256 78; 257 27; 258 9; 259 4; 
260 2; 261 2; 262 5; 263 19; 264 28; 
265 100; 266 167; 267 157; 268 137; 269 176; 
270 180; 271 61; 272 17; 273 4; 274 1; 
275 1; 276 3; 277 6; 278 16; 279 51; 
280 55; 281 579; 282 252; 283 123; 284 90; 
285 36; 286 53; 287 12; 288 2; 291 4; 
292 7; 293 13; 294 97; 295 45; 296 90; 
297 488; 298 261; 299 123; 300 218; 301 44; 
302 7; 306 3; 307 6; 308 13; 309 28; 
310 34; 311 246; 312 999; 313 218; 314 88; 
315 18; 316 2; 322 53; 323 15; 324 16; 
325 56; 326 29; 327 16; 328 98; 329 24; 
330 4; 336 1; 338 10; 339 9; 340 46; 
341 14; 342 11; 343 13; 344 2; 350 1; 
352 1; 353 4; 354 2; 355 2; 356 75; 
357 17; 358 3; 366 1; 368 3; 369 1; 
370 18; 371 149; 372 33; 373 5; 381 2; 
382 1; 383 1; 384 2; 399 240; 400 60; 
401 10; 402 1; 
