Name: Cocaethylene
InChIKey: NMPOSNRHZIWLLL-UHFFFAOYSA-N
Formula: C18H23NO4
MW: 317
ExactMass: 317.162708
CASNO: 529384
ID: 1640
Comment: DEA SWL / Sigma lot 68H88001
Num Peaks: 140
40 3; 41 43; 42 155; 43 16; 44 27; 
45 8; 46 1; 48 1; 49 1; 50 22; 
51 66; 52 11; 53 30; 54 21; 55 73; 
56 26; 57 42; 58 9; 59 2; 60 2; 
63 1; 64 1; 65 19; 66 13; 67 56; 
68 40; 69 14; 70 17; 71 3; 73 7; 
74 1; 75 4; 76 3; 77 262; 78 31; 
79 27; 80 43; 81 136; 82 999; 83 349; 
84 45; 85 6; 86 3; 89 1; 90 1; 
91 30; 92 10; 93 38; 94 342; 95 49; 
96 210; 97 110; 98 8; 99 2; 101 2; 
103 2; 105 316; 106 34; 107 20; 108 37; 
109 9; 110 21; 111 9; 112 1; 113 1; 
114 13; 115 2; 117 3; 118 2; 119 24; 
120 35; 121 6; 122 95; 123 10; 124 15; 
125 2; 126 4; 127 1; 128 3; 129 1; 
132 3; 133 3; 134 1; 135 4; 136 2; 
137 3; 138 29; 139 6; 140 20; 145 1; 
147 3; 148 5; 149 2; 150 26; 151 3; 
152 6; 154 3; 156 2; 159 1; 160 1; 
161 1; 163 2; 164 3; 166 73; 167 11; 
168 20; 169 17; 170 2; 176 2; 177 1; 
179 2; 180 3; 181 1; 193 2; 194 12; 
195 35; 196 469; 197 65; 198 8; 200 2; 
207 6; 208 1; 209 1; 212 52; 213 7; 
214 1; 223 1; 244 5; 250 1; 251 1; 
253 3; 267 2; 272 72; 273 17; 282 3; 
283 1; 288 1; 317 88; 318 23; 319 1; 
