Name: Clozapine
InChIKey: QZUDBNBUXVUHMW-UHFFFAOYSA-N
Formula: C18H19ClN4
MW: 326
ExactMass: 326.129824
CASNO: 5786210
ID: 1641
Comment: AAFS
Num Peaks: 209
37 1; 38 6; 39 26; 40 7; 41 32; 
42 343; 43 163; 44 57; 45 1; 49 2; 
50 17; 51 27; 52 15; 53 6; 54 23; 
55 24; 56 165; 57 25; 58 31; 59 1; 
61 3; 62 14; 63 48; 64 20; 65 17; 
66 5; 67 3; 68 5; 70 323; 71 35; 
72 9; 73 10; 74 11; 75 37; 76 32; 
77 20; 78 6; 79 1; 80 4; 81 4; 
82 40; 83 41; 84 16; 85 5; 86 4; 
87 8; 88 13; 89 15; 90 17; 91 8; 
92 1; 95 3; 96 11; 97 16; 98 19; 
99 128; 100 20; 101 11; 102 28; 103 10; 
104 3; 105 2; 109 1; 110 4; 111 6; 
112 4; 113 11; 114 17; 115 8; 116 6; 
117 4; 118 2; 122 1; 123 2; 124 14; 
125 7; 126 8; 127 8; 128 6; 129 7; 
130 2; 131 1; 136 4; 137 10; 138 27; 
139 24; 140 25; 141 25; 142 6; 147 1; 
148 2; 149 1; 150 3; 151 6; 152 9; 
153 6; 154 3; 155 2; 156 1; 159 1; 
161 1; 162 5; 163 19; 164 117; 165 66; 
166 46; 167 10; 168 4; 172 1; 173 5; 
174 5; 175 3; 176 4; 177 6; 178 8; 
179 14; 180 8; 181 4; 182 1; 185 1; 
186 1; 187 2; 188 2; 189 8; 191 120; 
192 475; 193 94; 194 12; 195 1; 198 3; 
199 3; 200 13; 201 13; 202 8; 203 7; 
204 6; 205 13; 206 11; 207 12; 208 12; 
209 2; 213 6; 214 6; 215 13; 216 6; 
217 7; 218 8; 219 10; 220 16; 221 22; 
222 4; 226 63; 227 321; 228 143; 229 132; 
230 43; 231 11; 232 7; 233 8; 234 4; 
235 1; 239 22; 240 22; 241 31; 243 999; 
244 174; 245 327; 246 53; 247 5; 248 1; 
251 1; 252 4; 253 11; 254 32; 255 40; 
256 787; 257 155; 258 256; 259 41; 260 3; 
265 1; 266 3; 267 5; 268 89; 269 44; 
270 53; 271 17; 272 8; 273 1; 280 3; 
281 7; 282 34; 283 9; 284 11; 285 1; 
294 3; 295 1; 296 5; 297 3; 298 2; 
299 1; 309 1; 311 4; 313 1; 325 19; 
326 131; 327 34; 328 44; 329 10; 
