Name: Clortermine
InChIKey: HXCXASJHZQXCKK-UHFFFAOYSA-N
Formula: C10H14ClN
MW: 183
ExactMass: 183.081477
CASNO: 10389738
ID: 1643
Comment: DEA SWL
Num Peaks: 77
40 5; 41 59; 42 89; 43 16; 44 1; 
49 1; 50 9; 51 16; 52 4; 53 3; 
54 3; 55 2; 56 9; 58 999; 59 33; 
60 1; 61 3; 62 12; 63 42; 64 10; 
65 21; 67 5; 70 1; 73 9; 74 5; 
75 14; 76 3; 77 14; 78 2; 79 2; 
80 1; 84 4; 85 3; 86 4; 87 4; 
89 79; 90 20; 91 26; 92 3; 93 1; 
97 1; 99 23; 100 2; 101 9; 102 4; 
103 5; 104 2; 105 1; 106 2; 112 1; 
113 1; 114 2; 115 25; 116 14; 117 15; 
118 5; 123 1; 125 83; 126 7; 127 30; 
128 6; 129 2; 130 9; 131 7; 132 15; 
133 3; 138 1; 139 1; 148 1; 149 1; 
151 2; 153 2; 166 1; 168 65; 169 7; 
170 19; 171 1; 
