Name: Clomiphene
Synon: Clomid
InChIKey: GKIRPKYJQBWNGO-QPLCGJKRSA-N
Formula: C26H28ClNO
MW: 405
ExactMass: 405.185942
CASNO: 911455
ID: 1646
Comment: DEA SWL
Num Peaks: 128
41 3; 42 24; 43 5; 44 32; 45 1; 
50 1; 51 2; 54 2; 55 2; 56 31; 
57 13; 58 47; 59 1; 63 2; 70 10; 
71 5; 72 10; 73 2; 75 1; 76 1; 
77 5; 84 10; 86 999; 87 62; 88 2; 
89 2; 91 1; 98 1; 99 4; 100 53; 
101 5; 102 1; 105 2; 112 1; 113 4; 
114 1; 115 3; 119 1; 120 3; 123 1; 
125 2; 126 8; 127 3; 128 1; 138 1; 
139 4; 140 1; 149 1; 150 3; 151 7; 
152 7; 153 1; 162 1; 163 5; 164 5; 
165 14; 166 1; 174 1; 175 2; 176 14; 
177 10; 178 40; 179 6; 187 2; 188 2; 
189 5; 190 1; 191 1; 193 1; 194 1; 
195 1; 199 3; 200 3; 201 4; 202 6; 
203 1; 207 3; 211 1; 212 2; 213 9; 
214 3; 215 17; 216 2; 224 3; 225 3; 
226 17; 227 4; 228 5; 229 1; 236 1; 
237 5; 239 49; 240 17; 241 24; 242 7; 
243 1; 248 1; 249 6; 250 20; 251 9; 
252 79; 253 64; 254 33; 255 13; 256 3; 
265 1; 267 1; 268 2; 269 5; 270 3; 
271 1; 281 1; 283 2; 284 1; 289 2; 
291 1; 306 1; 317 1; 319 2; 320 1; 
321 1; 332 1; 390 3; 392 1; 404 2; 
405 5; 406 2; 407 3; 
