Name: Clofibrate
InChIKey: KNHUKKLJHYUCFP-UHFFFAOYSA-N
Formula: C12H15ClO3
MW: 242
ExactMass: 242.070972
CASNO: 637070
ID: 1647
Comment: AAFS / Probability Based Matching Data Base Entry
Num Peaks: 60
41 130; 42 35; 43 40; 44 5; 45 15; 
50 15; 51 10; 53 5; 55 5; 59 80; 
60 5; 61 5; 62 5; 63 25; 64 15; 
65 40; 66 5; 69 60; 70 25; 73 25; 
74 5; 75 70; 76 15; 77 5; 85 5; 
87 140; 88 5; 91 5; 92 5; 93 10; 
94 5; 99 35; 100 15; 101 10; 102 5; 
105 10; 106 5; 111 70; 112 5; 113 20; 
114 5; 115 60; 116 5; 127 10; 128 999; 
129 110; 130 320; 131 40; 132 5; 134 5; 
141 20; 143 5; 169 210; 170 20; 171 75; 
172 5; 242 85; 243 10; 244 30; 245 5; 
