Name: Clobenzorex
InChIKey: LRXXRIXDSAEIOR-UHFFFAOYSA-N
Formula: C16H18ClN
MW: 259
ExactMass: 259.112778
CASNO: 13364324
ID: 1648
Comment: DEA SWL
Num Peaks: 86
40 3; 41 15; 42 16; 43 1; 44 1; 
50 9; 51 24; 52 6; 53 2; 54 2; 
55 1; 56 6; 57 1; 61 1; 62 6; 
63 37; 64 9; 65 79; 66 5; 73 6; 
74 4; 75 14; 76 6; 77 34; 78 11; 
79 5; 84 1; 85 1; 86 1; 87 2; 
88 1; 89 132; 90 38; 91 223; 92 23; 
93 1; 97 1; 99 40; 100 2; 101 13; 
102 10; 103 14; 104 7; 105 4; 106 2; 
111 1; 112 2; 113 1; 114 1; 115 15; 
116 4; 117 24; 118 27; 119 6; 123 1; 
125 999; 126 77; 127 316; 128 24; 129 1; 
130 7; 131 3; 132 11; 133 1; 138 4; 
139 4; 140 5; 141 1; 142 1; 148 2; 
152 1; 153 1; 164 1; 165 2; 166 16; 
167 2; 168 800; 169 80; 170 258; 171 26; 
172 1; 178 1; 179 1; 244 5; 246 1; 
258 2; 
