Name: Clobazam
InChIKey: CXOXHMZGEKVPMT-UHFFFAOYSA-N
Formula: C16H13ClN2O2
MW: 300
ExactMass: 300.066555
CASNO: 22316478
ID: 1649
Comment: DEA SWL
Num Peaks: 226
40 10; 41 30; 42 180; 43 14; 44 1; 
47 1; 49 13; 50 103; 51 476; 52 55; 
53 13; 54 5; 55 5; 56 5; 57 2; 
58 13; 60 2; 61 13; 62 40; 63 136; 
64 69; 65 96; 66 42; 67 9; 68 4; 
69 128; 70 2; 71 1; 72 4; 73 37; 
74 48; 75 133; 76 187; 77 999; 78 112; 
79 13; 80 4; 82 31; 83 3; 84 23; 
85 19; 86 14; 87 24; 88 33; 89 47; 
90 142; 91 151; 92 143; 93 44; 94 18; 
95 2; 97 44; 98 23; 99 92; 100 36; 
101 45; 102 46; 103 85; 104 68; 105 25; 
106 7; 107 5; 108 2; 109 2; 110 15; 
111 89; 112 78; 113 38; 114 45; 115 35; 
116 20; 117 121; 118 98; 119 31; 120 11; 
121 3; 122 1; 123 8; 124 83; 125 50; 
126 146; 127 80; 128 87; 129 94; 130 32; 
131 11; 132 4; 133 1; 134 3; 135 3; 
136 14; 137 18; 138 51; 139 93; 140 111; 
141 41; 142 16; 143 10; 144 24; 145 4; 
146 5; 147 3; 148 2; 149 7; 150 14; 
151 33; 152 148; 153 246; 154 142; 155 79; 
156 11; 157 28; 158 3; 159 10; 160 1; 
161 3; 162 20; 163 21; 164 53; 165 90; 
166 211; 167 201; 168 69; 169 25; 170 5; 
173 8; 174 9; 175 6; 176 6; 177 13; 
178 49; 179 250; 180 207; 181 334; 182 70; 
183 88; 184 9; 185 1; 187 4; 188 18; 
189 10; 190 11; 191 14; 192 29; 193 64; 
194 110; 195 169; 196 133; 197 28; 198 3; 
199 1; 200 73; 201 58; 202 40; 203 52; 
204 23; 205 23; 206 15; 207 32; 208 190; 
209 30; 210 7; 213 9; 214 173; 215 151; 
216 137; 217 127; 218 37; 219 41; 220 12; 
221 13; 222 14; 223 8; 224 11; 225 5; 
226 1; 227 10; 228 17; 229 253; 230 113; 
231 278; 232 115; 233 72; 234 29; 235 4; 
237 3; 239 6; 240 6; 241 67; 242 23; 
243 171; 244 32; 245 49; 246 8; 247 2; 
248 1; 249 1; 253 4; 255 819; 256 363; 
257 513; 258 580; 259 449; 260 196; 261 120; 
262 16; 263 1; 265 5; 266 1; 267 1; 
268 10; 269 6; 270 8; 271 5; 272 4; 
273 1; 283 393; 284 70; 285 130; 286 21; 
287 2; 300 805; 301 147; 302 267; 303 46; 
304 5; 
