Name: Clioquinol
InChIKey: QCDFBFJGMNKBDO-UHFFFAOYSA-N
Formula: C9H5ClINO
MW: 305
ExactMass: 304.910439
CASNO: 130267
ID: 1650
Comment: DEA SWL
Num Peaks: 107
40 2; 41 9; 42 3; 43 10; 44 6; 
47 2; 48 4; 49 25; 50 48; 51 32; 
52 28; 53 30; 54 5; 55 1; 56 2; 
57 17; 58 87; 60 11; 61 97; 62 176; 
63 156; 64 42; 65 16; 66 7; 67 2; 
68 1; 71 6; 72 24; 73 61; 74 55; 
75 120; 76 54; 77 11; 78 4; 84 15; 
85 48; 86 100; 87 212; 88 176; 89 68; 
90 16; 91 3; 92 1; 95 2; 96 19; 
97 50; 98 26; 99 34; 100 14; 101 7; 
102 4; 103 1; 107 1; 108 3; 109 1; 
110 6; 111 12; 112 11; 113 11; 114 295; 
115 441; 116 43; 121 19; 122 15; 123 252; 
124 46; 125 75; 126 15; 127 81; 128 22; 
139 62; 140 17; 143 15; 144 1; 148 6; 
149 57; 150 879; 151 111; 152 280; 153 32; 
154 2; 165 1; 176 3; 177 15; 178 59; 
179 24; 180 21; 181 5; 188 2; 189 2; 
199 1; 200 1; 207 1; 213 1; 241 1; 
242 5; 276 11; 277 56; 278 7; 279 17; 
280 3; 304 3; 305 999; 306 100; 307 306; 
308 28; 309 1; 
