Name: Clenbuterol
InChIKey: STJMRWALKKWQGH-UHFFFAOYSA-N
Formula: C12H18Cl2N2O
MW: 276
ExactMass: 276.079618
CASNO: 37148279
ID: 1652
Comment: DEA SWL
Num Peaks: 168
41 145; 42 49; 43 16; 44 5; 49 2; 
50 4; 51 10; 52 15; 53 7; 54 8; 
55 21; 56 47; 57 290; 58 29; 59 3; 
60 2; 61 4; 62 14; 63 28; 64 11; 
65 23; 66 5; 67 2; 68 3; 69 2; 
70 56; 71 49; 72 20; 73 16; 74 6; 
75 16; 76 7; 77 12; 78 6; 80 1; 
82 3; 83 1; 84 6; 86 999; 87 61; 
88 7; 89 19; 90 63; 91 18; 92 21; 
93 15; 94 1; 95 2; 96 3; 97 8; 
98 5; 99 37; 100 13; 101 13; 102 11; 
103 4; 104 11; 105 3; 106 3; 107 1; 
109 2; 110 1; 111 5; 112 3; 113 3; 
114 6; 115 3; 116 5; 117 9; 118 3; 
119 2; 120 4; 121 1; 123 6; 124 29; 
125 16; 126 37; 127 292; 128 31; 129 91; 
130 11; 131 9; 132 10; 133 12; 134 2; 
135 5; 136 2; 137 2; 138 13; 139 5; 
140 22; 141 5; 142 6; 143 1; 144 1; 
145 1; 147 1; 148 1; 149 1; 150 3; 
151 14; 152 7; 153 10; 154 34; 155 14; 
156 11; 157 6; 158 2; 159 2; 160 15; 
161 26; 162 33; 163 17; 164 18; 165 12; 
166 30; 167 9; 168 13; 169 5; 170 2; 
171 1; 172 2; 174 38; 175 6; 176 27; 
177 5; 178 8; 179 2; 180 1; 181 1; 
184 1; 185 2; 186 10; 187 45; 188 59; 
189 49; 190 155; 191 35; 192 81; 193 18; 
194 14; 195 3; 200 1; 201 8; 202 7; 
203 9; 204 4; 205 4; 206 1; 207 3; 
208 4; 209 2; 210 1; 219 1; 227 1; 
228 1; 243 76; 244 11; 245 50; 246 7; 
247 10; 248 1; 257 1; 258 2; 259 1; 
260 1; 276 3; 278 2; 
