Name: Clemastine
InChIKey: YNNUSGIPVFPVBX-UHFFFAOYSA-N
Formula: C21H26ClNO
MW: 343
ExactMass: 343.170292
CASNO: 15686518
ID: 1653
Comment: AAFS
Num Peaks: 96
39 3; 40 1; 41 9; 42 53; 43 11; 
44 7; 50 2; 51 6; 52 1; 53 2; 
54 3; 55 7; 56 5; 58 4; 63 2; 
65 1; 67 2; 68 5; 69 4; 70 13; 
72 1; 74 1; 75 7; 76 5; 77 27; 
78 3; 79 2; 80 1; 81 2; 82 34; 
84 999; 85 58; 86 2; 87 1; 88 1; 
89 4; 91 1; 94 2; 96 6; 97 5; 
98 5; 99 1; 100 3; 101 10; 102 14; 
103 31; 104 4; 105 28; 106 2; 108 1; 
110 16; 111 11; 112 8; 113 4; 114 1; 
115 2; 125 1; 126 3; 128 425; 129 35; 
130 2; 137 19; 138 3; 139 35; 140 3; 
141 8; 142 1; 149 1; 150 2; 151 4; 
152 9; 153 2; 154 1; 163 4; 164 4; 
165 36; 166 6; 167 1; 175 1; 176 7; 
177 5; 178 35; 179 31; 180 20; 181 8; 
182 1; 188 2; 199 4; 200 1; 201 2; 
214 2; 215 34; 216 8; 217 12; 218 3; 
342 1; 
