Name: Cisapride
InChIKey: DCSUBABJRXZOMT-UHFFFAOYSA-N
Formula: C23H29ClFN3O4
MW: 465
ExactMass: 465.183062
CASNO: 81098604
ID: 1655
Comment: AAFS
Num Peaks: 197
42 68; 43 29; 44 24; 45 23; 50 2; 
51 4; 52 3; 53 9; 54 9; 55 30; 
56 33; 57 33; 58 50; 59 5; 62 1; 
63 7; 64 4; 65 6; 66 3; 67 9; 
68 23; 69 19; 70 89; 71 22; 72 3; 
73 3; 75 7; 76 3; 77 5; 78 15; 
79 3; 80 37; 81 10; 82 33; 83 36; 
84 31; 85 40; 86 10; 87 2; 88 1; 
89 1; 90 27; 91 6; 92 5; 93 21; 
94 27; 95 136; 96 52; 97 30; 98 12; 
99 9; 100 47; 101 2; 104 1; 105 2; 
106 5; 107 9; 108 14; 109 16; 110 11; 
111 24; 112 44; 113 24; 114 8; 115 7; 
116 2; 118 1; 119 1; 120 87; 121 49; 
122 45; 123 9; 124 5; 125 30; 126 39; 
127 7; 128 11; 129 2; 130 1; 133 2; 
134 2; 135 2; 136 3; 137 7; 138 6; 
139 4; 140 6; 141 39; 142 6; 143 15; 
144 1; 148 4; 149 13; 150 11; 151 3; 
152 4; 153 5; 154 20; 155 7; 156 9; 
157 4; 158 3; 160 1; 162 1; 163 14; 
164 2; 165 1; 166 1; 167 4; 168 4; 
169 22; 170 23; 171 9; 172 7; 173 1; 
176 1; 177 3; 178 1; 180 1; 181 1; 
182 7; 183 8; 184 677; 185 67; 186 219; 
187 21; 188 2; 190 1; 194 3; 195 1; 
196 4; 197 1; 198 1; 200 1; 201 243; 
202 24; 203 81; 204 7; 205 2; 208 1; 
209 1; 213 1; 216 1; 217 1; 220 2; 
221 2; 223 3; 225 3; 226 1; 227 1; 
229 1; 232 999; 233 428; 234 236; 235 33; 
236 3; 238 3; 239 2; 247 2; 248 17; 
249 35; 250 10; 251 1; 253 2; 256 1; 
257 1; 258 1; 262 2; 264 15; 265 3; 
266 1; 269 7; 270 1; 271 1; 280 69; 
281 10; 282 23; 283 4; 294 3; 296 1; 
322 1; 326 5; 327 1; 328 2; 354 1; 
356 1; 398 1; 399 1; 402 4; 403 1; 
404 1; 430 1; 432 1; 433 130; 434 34; 
435 46; 436 11; 
