Name: Dextrorphan
Synon: .(+)-cis-1,3,4,9,10,10a-Hexahydro-11-methyl-2H-10,4a-iminoethanophenanthren-6-ol
InChIKey: JAQUASYNZVUNQP-UHFFFAOYSA-N
Formula: C17H23NO
MW: 257
ExactMass: 257.177965
CASNO: 125735
ID: 1656
Comment: DEA SWL
Num Peaks: 179
40 9; 41 92; 42 282; 43 44; 44 148; 
45 5; 50 6; 51 33; 52 14; 53 39; 
54 17; 55 66; 56 29; 57 41; 58 106; 
59 572; 60 31; 62 4; 63 23; 64 9; 
65 46; 66 15; 67 44; 68 28; 69 12; 
70 62; 71 10; 72 8; 74 3; 75 8; 
76 9; 77 133; 78 38; 79 66; 80 21; 
81 47; 82 110; 83 30; 84 19; 85 3; 
86 2; 87 3; 88 5; 89 28; 91 121; 
92 22; 93 25; 94 74; 95 28; 96 32; 
97 13; 98 2; 99 6; 100 13; 101 12; 
102 27; 103 54; 104 16; 105 45; 106 4; 
107 144; 108 74; 109 23; 110 15; 111 2; 
112 2; 113 5; 114 3; 115 241; 116 62; 
117 49; 118 21; 119 24; 120 61; 121 44; 
122 58; 123 34; 124 44; 125 5; 126 13; 
127 156; 128 241; 129 111; 130 26; 131 151; 
132 78; 133 75; 134 42; 135 11; 136 29; 
137 7; 138 2; 139 34; 140 14; 141 103; 
142 37; 143 31; 144 135; 145 135; 146 77; 
147 97; 148 154; 150 772; 151 108; 152 75; 
153 68; 154 28; 155 35; 157 591; 158 244; 
159 74; 160 139; 161 62; 162 23; 163 5; 
164 4; 165 47; 166 19; 167 20; 168 26; 
169 65; 170 99; 171 128; 172 58; 173 26; 
174 47; 175 12; 176 7; 177 4; 178 8; 
179 13; 180 6; 181 39; 182 25; 183 47; 
184 43; 185 44; 186 41; 187 22; 188 64; 
189 277; 190 37; 191 3; 192 1; 193 1; 
194 4; 195 7; 196 11; 197 32; 198 153; 
199 174; 200 386; 201 67; 202 18; 203 3; 
208 1; 209 1; 210 6; 211 5; 212 28; 
213 17; 214 99; 215 27; 216 7; 224 1; 
225 1; 226 11; 228 131; 229 27; 230 3; 
240 10; 242 96; 243 15; 244 1; 254 6; 
256 703; 257 999; 258 170; 259 18; 
