Name: Tadalafil
Synon: Cialis
InChIKey: WOXKDUGGOYFFRN-UHFFFAOYSA-N
Formula: C22H19N3O4
MW: 389
ExactMass: 389.137556
CASNO: 171596295
ID: 1658
Comment: DEA SWL
Num Peaks: 113
42 146; 43 41; 44 170; 51 28; 63 42; 
65 58; 72 31; 73 24; 75 38; 76 30; 
77 49; 88 68; 89 39; 90 22; 96 24; 
101 41; 102 163; 109 63; 114 51; 115 159; 
116 46; 121 27; 122 25; 126 30; 127 21; 
128 42; 129 34; 130 47; 131 25; 135 54; 
139 37; 140 80; 141 33; 142 35; 143 33; 
144 40; 150 35; 151 55; 152 47; 153 27; 
154 41; 155 22; 163 24; 164 32; 165 27; 
166 22; 167 99; 168 196; 169 413; 170 85; 
175 29; 176 71; 177 49; 178 45; 179 22; 
180 39; 181 34; 189 25; 190 49; 191 84; 
192 61; 193 73; 195 47; 196 62; 197 68; 
201 40; 202 73; 203 183; 204 773; 205 403; 
206 140; 207 77; 214 24; 215 24; 216 65; 
217 88; 218 71; 219 27; 229 85; 230 76; 
231 98; 232 219; 233 389; 234 111; 235 24; 
238 29; 240 26; 248 26; 249 26; 250 74; 
257 27; 259 33; 260 30; 262 999; 263 639; 
264 98; 267 39; 268 269; 269 49; 274 97; 
275 101; 276 59; 281 24; 287 45; 288 60; 
289 257; 290 64; 317 138; 318 69; 319 21; 
389 974; 390 259; 391 33; 
