Name: Chlorpromazine
Synon: Thorazine
InChIKey: ZPEIMTDSQAKGNT-UHFFFAOYSA-N
Formula: C17H19ClN2S
MW: 318
ExactMass: 318.095747
CASNO: 50533
ID: 1661
Comment: DEA SWL
Num Peaks: 213
40 1; 41 10; 42 61; 43 19; 44 36; 
45 11; 50 4; 51 6; 52 1; 54 1; 
55 1; 56 17; 57 23; 58 999; 59 45; 
60 1; 62 2; 63 12; 64 2; 65 4; 
68 2; 69 18; 70 35; 71 19; 72 26; 
73 3; 74 4; 75 9; 76 5; 77 9; 
78 2; 79 2; 81 2; 82 6; 83 2; 
84 42; 85 106; 86 273; 87 18; 88 2; 
89 5; 90 2; 91 3; 92 1; 93 5; 
94 2; 95 8; 96 3; 97 1; 99 4; 
100 1; 101 3; 102 4; 103 2; 104 1; 
105 3; 106 1; 107 5; 108 11; 109 6; 
110 1; 111 3; 112 2; 113 3; 114 2; 
115 3; 116 2; 117 3; 118 1; 119 2; 
120 3; 121 2; 122 1; 123 2; 124 1; 
125 5; 126 8; 127 6; 128 3; 129 1; 
130 2; 132 1; 133 3; 134 3; 135 3; 
136 2; 137 3; 138 5; 139 18; 140 7; 
141 1; 142 3; 143 2; 144 2; 145 3; 
146 4; 147 2; 148 1; 149 2; 150 4; 
151 12; 152 27; 153 25; 154 7; 155 1; 
156 1; 157 1; 158 2; 159 4; 160 2; 
161 1; 162 4; 163 2; 164 16; 165 7; 
166 8; 167 7; 168 1; 169 7; 170 9; 
171 7; 172 2; 173 3; 174 4; 175 1; 
176 2; 177 8; 178 11; 179 11; 180 6; 
181 1; 182 5; 183 6; 184 8; 185 2; 
186 2; 187 3; 188 19; 189 3; 190 7; 
191 6; 192 2; 193 2; 194 1; 195 3; 
196 46; 197 41; 198 18; 199 5; 200 14; 
201 7; 202 5; 203 3; 204 6; 205 7; 
206 3; 207 3; 208 2; 209 6; 210 11; 
211 11; 212 12; 213 10; 214 51; 215 10; 
216 16; 217 3; 218 2; 220 1; 222 3; 
223 15; 224 9; 225 18; 226 4; 227 3; 
228 2; 230 1; 231 5; 232 92; 233 66; 
234 41; 235 23; 236 7; 237 7; 238 8; 
239 4; 240 3; 241 1; 242 1; 244 7; 
245 4; 246 30; 247 27; 248 14; 249 9; 
250 1; 253 1; 257 4; 258 8; 259 12; 
260 10; 261 5; 262 3; 272 131; 273 45; 
274 53; 275 17; 276 4; 318 226; 319 45; 
320 86; 321 16; 322 4; 
