Name: Chloroquine
InChIKey: WHTVZRBIWZFKQO-UHFFFAOYSA-N
Formula: C18H26ClN3
MW: 319
ExactMass: 319.181526
CASNO: 54057
ID: 1665
Comment: DEA SWL
Num Peaks: 142
41 32; 42 32; 43 12; 44 13; 45 1; 
50 1; 51 1; 52 2; 53 2; 54 4; 
55 7; 56 29; 57 8; 58 75; 59 3; 
63 2; 65 1; 67 2; 68 3; 69 11; 
70 9; 71 12; 72 18; 73 43; 74 5; 
75 3; 77 2; 79 1; 80 1; 82 5; 
83 1; 84 27; 85 6; 86 999; 87 62; 
88 2; 89 2; 96 2; 97 1; 98 10; 
99 49; 100 9; 101 6; 102 3; 103 1; 
109 1; 110 3; 111 2; 112 45; 113 19; 
114 8; 115 6; 116 3; 117 1; 123 5; 
124 1; 125 2; 126 28; 127 12; 128 10; 
129 3; 135 17; 136 2; 137 6; 138 4; 
139 1; 140 13; 141 4; 142 12; 143 5; 
144 2; 145 1; 150 10; 151 3; 152 9; 
153 4; 154 2; 155 18; 156 12; 157 2; 
159 1; 162 18; 163 8; 164 12; 165 4; 
166 3; 167 2; 168 9; 169 26; 170 18; 
171 2; 177 5; 178 7; 179 24; 180 5; 
181 9; 182 2; 183 1; 189 4; 190 5; 
191 11; 192 4; 193 5; 194 1; 195 2; 
196 1; 202 1; 203 9; 204 2; 205 23; 
206 3; 207 7; 208 1; 209 1; 211 1; 
215 1; 216 1; 217 6; 218 2; 219 16; 
220 3; 221 5; 229 3; 230 2; 231 4; 
233 3; 235 1; 245 22; 246 6; 247 26; 
248 8; 249 4; 250 2; 290 19; 291 3; 
292 5; 293 1; 304 2; 319 25; 320 5; 
321 10; 322 2; 
