Name: Chlorophenol
InChIKey: ISPYQTSUDJAMAB-UHFFFAOYSA-N
Formula: C6H5ClO
MW: 128
ExactMass: 128.0028925
CASNO: 95578
ID: 1667
Comment: DEA SWL
Num Peaks: 28
40 14; 46 21; 49 33; 50 74; 51 30; 
53 62; 55 20; 60 18; 61 58; 62 143; 
63 392; 64 426; 65 229; 66 31; 73 122; 
74 46; 75 44; 84 16; 92 143; 93 22; 
99 67; 100 44; 101 33; 102 18; 128 999; 
129 71; 130 326; 131 33; 
