Name: Camphor
InChIKey: DSSYKIVIOFKYAU-UHFFFAOYSA-N
Formula: C10H16O
MW: 152
ExactMass: 152.120115
CASNO: 76222
ID: 1670
Comment: ENFSI / constituant of sassefras oil
Num Peaks: 56
38 15; 39 227; 40 57; 41 500; 42 50; 
43 84; 44 39; 45 17; 50 16; 51 46; 
52 32; 53 141; 54 36; 55 311; 56 21; 
57 10; 58 9; 63 16; 64 11; 65 51; 
66 22; 67 245; 68 154; 69 360; 70 31; 
71 14; 77 69; 78 23; 79 85; 80 155; 
81 733; 82 133; 83 305; 84 31; 91 67; 
92 13; 93 164; 94 36; 95 999; 96 103; 
97 67; 105 11; 107 27; 108 481; 109 313; 
110 140; 111 20; 119 11; 121 11; 123 14; 
124 7; 134 7; 136 9; 137 47; 152 332; 
153 51; 
