Name: Chlordiazepoxide
Synon: Librium
InChIKey: ANTSCNMPPGJYLG-UHFFFAOYSA-N
Formula: C16H14ClN3O
MW: 299
ExactMass: 299.08254
CASNO: 58253
ID: 1671
Comment: DEA SWL
Num Peaks: 238
40 17; 41 144; 42 108; 43 11; 44 40; 
45 2; 49 6; 50 58; 51 134; 52 38; 
53 15; 54 58; 55 109; 56 249; 57 33; 
58 31; 59 2; 60 2; 61 13; 62 41; 
63 105; 64 26; 65 68; 66 13; 67 5; 
68 11; 69 19; 70 4; 71 5; 72 3; 
73 27; 74 54; 75 130; 76 100; 77 345; 
78 48; 79 12; 80 6; 82 42; 83 33; 
84 21; 85 13; 86 37; 87 61; 88 88; 
89 153; 90 52; 91 300; 92 30; 93 13; 
95 13; 96 54; 97 34; 98 34; 99 52; 
100 60; 101 51; 102 118; 103 85; 104 62; 
105 112; 106 23; 107 15; 108 13; 109 40; 
110 63; 111 90; 112 38; 113 60; 114 51; 
115 62; 116 71; 117 65; 118 84; 119 14; 
120 23; 121 15; 122 14; 123 48; 124 146; 
125 61; 126 109; 127 69; 128 44; 129 21; 
130 23; 131 14; 132 15; 133 8; 134 9; 
135 14; 136 43; 137 57; 138 92; 139 70; 
140 56; 141 20; 142 14; 143 16; 144 14; 
145 16; 146 2; 147 6; 148 8; 149 33; 
150 138; 151 282; 152 228; 153 85; 154 33; 
155 11; 156 13; 157 8; 158 5; 159 4; 
160 5; 161 21; 162 51; 163 271; 164 173; 
165 248; 166 77; 167 54; 168 16; 169 6; 
170 7; 171 10; 172 4; 173 10; 174 18; 
175 36; 176 122; 177 217; 178 143; 179 178; 
180 91; 181 45; 182 12; 185 3; 186 25; 
187 12; 188 37; 189 32; 190 119; 191 77; 
192 70; 193 91; 194 41; 195 29; 196 8; 
197 3; 198 11; 199 74; 200 21; 201 58; 
202 50; 203 100; 204 89; 205 192; 206 80; 
207 38; 208 15; 209 5; 210 2; 211 6; 
212 14; 213 20; 214 126; 215 57; 216 63; 
217 62; 218 185; 219 127; 220 111; 221 58; 
222 15; 223 7; 224 9; 225 5; 226 18; 
227 63; 228 28; 229 54; 230 27; 231 26; 
232 58; 233 42; 234 22; 235 14; 236 7; 
237 6; 238 20; 239 88; 240 60; 241 334; 
242 100; 243 115; 244 43; 245 13; 246 56; 
247 181; 248 53; 249 10; 250 4; 251 13; 
252 62; 253 151; 254 68; 255 83; 256 27; 
257 41; 258 10; 259 10; 262 5; 263 4; 
264 8; 265 7; 266 17; 267 41; 268 40; 
269 36; 270 30; 271 17; 272 9; 273 2; 
280 85; 281 34; 282 999; 283 416; 284 402; 
285 138; 286 17; 297 2; 298 102; 299 317; 
300 96; 301 109; 302 18; 
