Name: Caprylic Acid
Synon: Fatty Acid: Caprylic Acid
Synon: Octanoic Acid
Synon: n-Octanoic Acid
InChIKey: WWZKQHOCKIZLMA-UHFFFAOYSA-N
Formula: C8H16O2
MW: 144
ExactMass: 144.115029
CASNO: 124072
ID: 1680
Comment: AAFS
Num Peaks: 52
42 87; 43 328; 44 13; 45 103; 46 3; 
50 3; 51 5; 52 4; 53 17; 54 10; 
55 214; 56 73; 57 87; 58 6; 60 999; 
61 128; 62 9; 63 2; 65 3; 67 19; 
68 8; 69 101; 70 16; 71 8; 73 742; 
74 69; 75 5; 79 4; 80 3; 81 4; 
82 33; 83 55; 84 191; 85 195; 86 20; 
87 144; 88 7; 91 8; 92 4; 93 2; 
97 20; 98 16; 99 2; 101 266; 102 18; 
103 3; 108 2; 115 104; 116 9; 127 8; 
129 10; 144 10; 
