Name: Capric Acid
Synon: n-Decanoic Acid
Synon: Fatty Acid: Capric
InChIKey: GHVNFZFCNZKVNT-UHFFFAOYSA-N
Formula: C10H20O2
MW: 172
ExactMass: 172.14633
CASNO: 334485
ID: 1682
Comment: AAFS
Num Peaks: 65
42 88; 43 326; 44 16; 45 95; 47 3; 
50 4; 51 6; 53 27; 54 25; 55 302; 
56 67; 57 330; 58 15; 60 898; 61 133; 
62 6; 65 5; 67 23; 68 32; 69 167; 
70 88; 71 329; 73 999; 74 93; 75 6; 
77 4; 79 9; 80 4; 81 27; 82 33; 
83 141; 84 87; 85 13; 86 7; 87 192; 
88 14; 91 6; 92 4; 93 4; 94 3; 
95 6; 97 50; 98 42; 99 4; 101 64; 
102 9; 107 4; 110 49; 111 14; 112 63; 
113 17; 115 152; 116 12; 121 3; 125 4; 
129 563; 130 43; 131 3; 135 3; 136 4; 
143 89; 144 10; 155 6; 172 36; 173 3; 
