Name: Ethyl acetate
InChIKey: XEKOWRVHYACXOJ-UHFFFAOYSA-N
Formula: C4H8O2
MW: 88
ExactMass: 88.0524297
CASNO: 141786
ID: 1688
Comment: DEA SWL / Spectrum lot SR0253
Num Peaks: 32
13 1; 14 6; 15 25; 19 1; 25 1; 
26 15; 27 55; 28 20; 29 123; 30 8; 
31 12; 32 1; 33 1; 41 6; 42 70; 
43 999; 44 31; 45 142; 46 3; 55 1; 
58 2; 59 1; 60 9; 61 138; 62 3; 
70 90; 71 4; 73 38; 74 1; 87 2; 
88 35; 89 2; 
