Name: Ethosuximide
InChIKey: HAPOVYFOVVWLRS-UHFFFAOYSA-N
Formula: C7H11NO2
MW: 141
ExactMass: 141.078979
CASNO: 77678
ID: 1689
Comment: AAFS / Probability Based Matching Data Base Entry
Num Peaks: 52
29 35; 30 2; 37 5; 38 17; 39 167; 
40 35; 41 148; 42 154; 43 22; 44 18; 
45 1; 49 1; 50 11; 51 16; 52 10; 
53 43; 54 24; 55 533; 56 28; 57 2; 
62 1; 63 2; 64 1; 65 4; 66 3; 
67 14; 68 15; 69 73; 70 456; 71 24; 
72 1; 80 2; 81 2; 82 2; 83 5; 
84 4; 85 69; 86 4; 94 2; 95 1; 
96 2; 97 2; 98 35; 99 1; 109 2; 
112 6; 113 999; 114 58; 115 6; 126 9; 
141 28; 142 2; 
