Name: Ethinamate
InChIKey: GXRZIMHKGDIBEW-UHFFFAOYSA-N
Formula: C9H13NO2
MW: 167
ExactMass: 167.094628
CASNO: 126523
ID: 1690
Comment: DEA SWL
Num Peaks: 68
40 96; 41 275; 42 83; 43 272; 44 256; 
45 16; 49 5; 50 91; 51 216; 52 108; 
53 431; 54 98; 55 328; 56 35; 57 18; 
58 2; 61 9; 62 57; 63 83; 64 24; 
65 199; 66 102; 67 371; 68 408; 69 68; 
70 28; 71 2; 73 2; 74 15; 75 11; 
76 16; 77 291; 78 392; 79 463; 80 239; 
81 920; 82 165; 83 50; 84 4; 85 1; 
86 1; 87 1; 89 12; 91 999; 92 94; 
93 58; 94 22; 95 644; 96 272; 97 27; 
98 8; 99 2; 102 7; 103 48; 104 11; 
105 226; 106 731; 107 185; 108 18; 109 385; 
110 30; 111 1; 112 1; 121 1; 122 2; 
123 83; 124 88; 125 7; 
