Name: Estradiol
Synon: Estra-1,3,5(10)-triene-3,17.beta.-diol
InChIKey: VOXZDWNPVJITMN-UHFFFAOYSA-N
Formula: C18H24O2
MW: 272
ExactMass: 272.17763
CASNO: 50282
ID: 1694
Comment: DEA SWL
Num Peaks: 189
40 19; 41 173; 42 19; 43 115; 44 39; 
45 16; 50 4; 51 30; 52 13; 53 84; 
54 15; 55 152; 56 10; 57 141; 58 17; 
59 1; 62 1; 63 19; 64 8; 65 64; 
66 19; 67 111; 68 29; 69 42; 70 9; 
71 15; 72 2; 73 1; 75 6; 76 5; 
77 184; 78 46; 79 136; 80 15; 81 65; 
82 18; 83 30; 84 9; 85 12; 86 4; 
87 4; 88 1; 89 28; 90 7; 91 231; 
92 31; 93 73; 94 31; 95 52; 96 9; 
97 30; 98 5; 99 12; 100 7; 101 5; 
102 23; 103 91; 104 27; 105 136; 106 28; 
107 234; 108 70; 109 29; 110 18; 111 11; 
112 1; 113 7; 114 14; 115 301; 116 106; 
117 103; 118 17; 119 41; 120 105; 121 107; 
122 14; 123 17; 124 5; 125 7; 126 9; 
127 197; 128 176; 129 105; 130 20; 131 309; 
132 116; 133 440; 134 78; 135 25; 136 3; 
137 4; 138 1; 139 17; 140 4; 141 106; 
142 32; 143 35; 144 248; 145 451; 146 548; 
147 170; 148 23; 149 7; 150 9; 151 30; 
152 62; 153 49; 154 19; 155 27; 156 8; 
157 302; 158 282; 159 485; 160 596; 161 88; 
162 11; 163 4; 164 2; 165 49; 166 17; 
167 20; 168 12; 169 34; 170 62; 171 156; 
172 483; 173 132; 174 21; 175 75; 176 16; 
177 5; 178 12; 179 7; 180 3; 181 33; 
182 22; 183 70; 184 43; 185 166; 186 216; 
187 55; 188 69; 189 13; 190 5; 191 3; 
192 2; 193 3; 194 6; 195 13; 196 12; 
197 64; 198 34; 199 90; 200 68; 201 34; 
202 7; 203 1; 207 1; 208 2; 209 5; 
210 6; 211 59; 212 32; 213 570; 214 100; 
215 49; 216 8; 225 39; 226 54; 227 20; 
228 15; 229 7; 230 1; 237 3; 239 23; 
240 4; 241 1; 243 4; 244 40; 245 6; 
253 29; 254 14; 255 3; 257 2; 270 3; 
271 13; 272 999; 273 183; 274 22; 
