Name: Ergonovine
InChIKey: WVVSZNPYNCNODU-UHFFFAOYSA-N
Formula: C19H23N3O2
MW: 325
ExactMass: 325.179028
CASNO: 60797
ID: 1698
Comment: DEA SWL
Num Peaks: 93
41 58; 42 69; 43 21; 44 70; 55 52; 
58 79; 59 64; 65 16; 70 17; 73 26; 
74 18; 75 32; 76 30; 77 35; 89 47; 
90 58; 91 21; 96 38; 97 50; 102 35; 
103 22; 104 64; 111 107; 112 83; 113 32; 
114 23; 115 37; 126 45; 127 115; 128 17; 
130 56; 133 24; 135 41; 139 47; 140 45; 
142 16; 147 31; 150 56; 151 110; 152 227; 
153 143; 154 306; 155 59; 156 25; 163 3; 
164 59; 165 92; 166 62; 167 231; 168 92; 
176 21; 177 18; 178 220; 179 252; 180 285; 
181 487; 182 145; 183 23; 191 190; 192 370; 
193 158; 194 82; 195 79; 196 504; 197 114; 
203 16; 205 237; 206 172; 207 600; 208 162; 
209 109; 210 16; 219 45; 220 132; 221 999; 
222 272; 223 327; 224 108; 225 19; 226 17; 
248 18; 249 25; 263 31; 264 25; 267 68; 
268 20; 281 11; 282 68; 283 39; 323 17; 
325 728; 326 189; 327 18; 
