Name: Droperidol
Synon: Innovar
InChIKey: RMEDXOLNCUSCGS-UHFFFAOYSA-N
Formula: C22H22FN3O2
MW: 379
ExactMass: 379.169605
CASNO: 548732
ID: 1705
Comment: AAFS / Probability Based Matching Data Base Entry
Num Peaks: 196
30 7; 31 42; 33 22; 34 23; 37 3; 
38 5; 39 54; 40 7; 41 62; 42 213; 
43 31; 45 34; 46 12; 48 1; 50 27; 
51 42; 52 24; 53 53; 54 19; 55 21; 
56 7; 57 3; 58 8; 61 9; 62 9; 
63 25; 64 19; 65 28; 66 18; 67 18; 
69 27; 70 16; 72 13; 74 17; 75 58; 
76 20; 77 44; 78 40; 79 40; 80 73; 
81 16; 82 62; 84 16; 86 14; 87 14; 
88 20; 89 27; 90 37; 91 31; 92 38; 
93 18; 94 36; 95 224; 96 47; 97 11; 
98 12; 100 8; 101 17; 102 21; 103 9; 
104 31; 105 35; 106 74; 107 17; 108 134; 
109 41; 111 8; 113 1; 114 14; 115 39; 
116 24; 117 21; 118 31; 119 32; 120 16; 
121 7; 122 3; 123 477; 124 45; 125 9; 
126 15; 128 19; 129 37; 130 32; 131 54; 
132 33; 133 60; 134 131; 135 50; 136 13; 
138 39; 140 6; 141 6; 142 24; 143 57; 
144 47; 145 28; 146 6; 147 31; 148 17; 
149 18; 151 6; 154 16; 155 21; 156 48; 
157 62; 158 33; 159 14; 160 11; 162 6; 
163 13; 164 27; 165 670; 166 76; 168 8; 
169 34; 170 22; 171 60; 172 25; 173 6; 
175 6; 177 6; 178 13; 180 6; 181 13; 
182 38; 183 21; 184 30; 185 67; 186 64; 
187 42; 188 6; 189 6; 192 7; 196 8; 
197 46; 198 10; 199 259; 200 58; 201 13; 
204 7; 207 7; 209 14; 210 16; 211 107; 
212 114; 213 34; 214 162; 215 40; 216 6; 
217 7; 218 13; 219 6; 221 6; 223 8; 
226 24; 228 77; 229 16; 236 8; 238 9; 
239 13; 240 12; 241 37; 242 8; 243 7; 
244 19; 246 999; 247 199; 248 18; 252 6; 
253 13; 254 13; 258 12; 268 6; 269 6; 
270 6; 274 9; 275 19; 279 6; 283 6; 
296 6; 297 6; 310 8; 316 6; 321 6; 
327 13; 329 13; 330 7; 341 6; 343 6; 
344 6; 348 6; 366 8; 373 6; 378 6; 
379 26; 
