Name: Doxapram
InChIKey: XFDJYSQDBULQSI-UHFFFAOYSA-N
Formula: C24H30N2O2
MW: 378
ExactMass: 378.230728
CASNO: 309295
ID: 1709
Comment: AAFS / Probability Based Matching Data Base Entry
Num Peaks: 160
45 1; 50 2; 51 2; 54 8; 55 16; 
56 52; 57 12; 58 9; 63 1; 65 6; 
68 6; 69 3; 70 35; 71 9; 72 16; 
77 12; 78 3; 79 3; 80 2; 81 1; 
82 8; 83 2; 84 12; 85 6; 86 20; 
87 73; 88 3; 89 3; 91 82; 92 7; 
96 4; 97 4; 98 14; 100 999; 101 86; 
102 28; 103 11; 104 10; 105 12; 106 1; 
108 1; 109 2; 110 3; 112 4; 113 134; 
114 30; 115 69; 116 9; 117 4; 118 2; 
124 1; 126 7; 127 11; 128 27; 129 34; 
130 11; 132 3; 139 9; 140 6; 141 7; 
142 3; 143 7; 144 3; 145 1; 149 1; 
151 3; 152 17; 153 11; 155 2; 156 2; 
157 1; 158 3; 160 2; 163 5; 164 8; 
165 85; 166 48; 167 25; 168 3; 169 1; 
172 3; 176 18; 177 4; 178 32; 179 8; 
180 2; 181 2; 186 3; 187 25; 188 19; 
189 19; 190 8; 191 27; 192 15; 193 9; 
194 78; 195 13; 196 2; 200 3; 201 1; 
202 8; 203 10; 204 9; 205 12; 206 9; 
207 4; 208 1; 209 1; 211 1; 214 1; 
215 2; 216 2; 217 3; 218 3; 219 7; 
220 2; 221 1; 234 8; 235 2; 236 1; 
237 1; 238 1; 248 3; 249 1; 250 3; 
259 2; 262 8; 263 32; 264 63; 265 15; 
266 1; 274 1; 276 1; 277 1; 278 11; 
279 3; 285 1; 287 1; 290 1; 291 12; 
292 9; 293 3; 294 2; 301 2; 332 1; 
335 2; 336 1; 347 44; 348 15; 349 2; 
350 1; 360 1; 363 1; 368 2; 369 1; 
376 1; 377 3; 378 66; 379 18; 380 1; 
