Name: Quazepam
Synon: Doral
InChIKey: IKMPWMZBZSAONZ-UHFFFAOYSA-N
Formula: C17H11ClF4N2S
MW: 386
ExactMass: 386.02676
CASNO: 36735225
ID: 1711
Comment: DEA SWL
Num Peaks: 335
40 3; 41 4; 42 2; 44 5; 45 124; 
46 25; 47 9; 48 2; 49 6; 50 50; 
51 55; 52 17; 53 5; 54 8; 55 2; 
56 3; 57 93; 58 112; 59 47; 60 21; 
61 16; 62 47; 63 119; 64 35; 65 12; 
66 2; 67 4; 68 22; 69 71; 70 37; 
71 11; 72 104; 73 52; 74 85; 75 262; 
76 53; 77 31; 78 18; 79 11; 80 8; 
81 86; 82 28; 83 148; 84 25; 85 35; 
86 34; 87 63; 88 48; 89 156; 90 44; 
91 34; 92 50; 93 31; 94 81; 95 173; 
96 38; 97 52; 98 56; 99 61; 100 73; 
101 42; 102 94; 103 24; 104 12; 105 101; 
106 41; 107 111; 108 63; 109 309; 110 98; 
111 126; 112 52; 113 54; 114 42; 115 23; 
116 20; 117 65; 118 38; 119 31; 120 80; 
121 93; 122 111; 123 76; 124 81; 125 57; 
126 49; 127 66; 128 30; 129 36; 130 20; 
131 50; 132 42; 134 126; 135 59; 136 102; 
137 63; 138 95; 139 107; 140 46; 141 31; 
142 120; 143 40; 144 67; 145 49; 146 55; 
147 29; 148 16; 149 32; 150 61; 151 59; 
152 47; 153 23; 154 24; 155 107; 156 64; 
157 80; 158 40; 159 26; 160 20; 161 51; 
162 57; 163 225; 164 68; 165 141; 167 30; 
168 75; 169 86; 170 90; 171 25; 172 3; 
173 18; 174 17; 175 32; 176 57; 177 69; 
178 34; 179 29; 180 74; 181 307; 182 425; 
183 453; 184 137; 185 29; 186 17; 187 17; 
188 39; 189 34; 190 69; 191 23; 192 12; 
193 42; 194 169; 195 126; 196 162; 197 40; 
198 45; 199 22; 200 21; 201 24; 202 28; 
203 22; 204 22; 205 13; 206 37; 207 45; 
208 242; 209 201; 210 128; 211 67; 212 20; 
213 38; 214 31; 215 27; 216 26; 217 129; 
218 32; 219 58; 220 50; 221 59; 222 70; 
223 77; 224 45; 225 19; 226 32; 227 12; 
228 11; 229 15; 230 39; 231 29; 232 22; 
233 27; 234 33; 235 46; 236 82; 237 57; 
238 39; 239 34; 240 230; 241 148; 242 60; 
243 17; 244 187; 245 863; 246 190; 247 286; 
248 51; 249 27; 250 24; 251 17; 252 22; 
253 43; 254 272; 255 135; 256 84; 257 292; 
258 125; 259 310; 260 55; 261 69; 262 19; 
263 6; 264 11; 265 66; 266 10; 267 40; 
268 28; 269 12; 270 173; 271 105; 272 77; 
273 48; 274 40; 275 28; 276 112; 277 31; 
278 60; 279 18; 280 4; 281 4; 282 8; 
283 21; 284 11; 285 17; 286 9; 287 10; 
288 32; 289 15; 290 79; 291 31; 292 34; 
293 16; 294 8; 295 2; 296 1; 297 3; 
298 2; 299 2; 300 1; 301 8; 302 8; 
303 647; 304 116; 305 318; 306 51; 307 18; 
308 2; 309 3; 312 5; 313 14; 314 28; 
315 14; 316 14; 317 9; 318 3; 319 9; 
320 2; 321 61; 322 1; 323 826; 324 218; 
325 58; 326 18; 327 28; 328 8; 329 11; 
330 4; 331 2; 332 5; 333 9; 334 3; 
335 2; 336 5; 338 6; 339 91; 340 74; 
341 96; 342 47; 343 24; 344 6; 347 9; 
348 1; 349 1; 350 2; 351 18; 352 10; 
353 22; 354 21; 355 9; 356 6; 357 5; 
359 917; 360 170; 361 338; 362 58; 363 18; 
364 2; 366 1; 367 29; 368 7; 369 13; 
370 3; 371 84; 372 15; 373 36; 374 4; 
375 1; 383 1; 384 1; 385 35; 386 999; 
387 220; 388 377; 389 71; 390 23; 391 1; 
