Name: Lauric Acid
Synon: Dodecanoic Acid
Synon: Fatty Acid: Lauric
InChIKey: POULHZVOKOAJMA-UHFFFAOYSA-N
Formula: C12H24O2
MW: 200
ExactMass: 200.17763
CASNO: 143077
ID: 1712
Comment: AAFS
Num Peaks: 77
42 91; 43 403; 44 17; 45 78; 52 2; 
53 28; 54 29; 55 326; 56 80; 57 335; 
58 15; 60 774; 61 140; 62 6; 65 5; 
66 3; 67 35; 68 33; 69 196; 70 65; 
71 255; 73 999; 74 91; 75 7; 77 3; 
79 13; 80 4; 81 27; 82 29; 83 135; 
84 92; 85 247; 86 22; 87 169; 88 25; 
89 4; 91 4; 93 8; 94 4; 95 13; 
96 30; 97 97; 98 71; 99 48; 101 133; 
102 22; 107 4; 109 8; 110 16; 111 52; 
112 31; 113 4; 115 167; 116 19; 121 6; 
125 8; 126 3; 129 372; 130 27; 131 4; 
135 5; 138 35; 139 6; 140 24; 141 6; 
143 91; 144 11; 157 245; 158 27; 159 2; 
164 3; 171 84; 172 10; 183 4; 185 3; 
200 79; 201 11; 
