Name: d-Methamphetamine TPC derivative
Synon: N-(trifluoroacetyl)prolylmethamphetamine
InChIKey: XCJPRBUJGZAZPO-UHFFFAOYSA-N
Formula: C17H21F3N2O2
MW: 342
ExactMass: 342.155512
CASNO: 21772623
ID: 1713
Comment: DEA SWL
Num Peaks: 104
40 4; 41 61; 42 64; 43 15; 44 2; 
47 1; 50 3; 51 11; 52 3; 53 24; 
54 7; 55 13; 56 43; 57 36; 58 691; 
59 25; 62 1; 63 6; 64 3; 65 33; 
66 4; 67 6; 68 23; 69 109; 70 23; 
71 31; 72 1; 73 4; 74 1; 75 1; 
76 2; 77 17; 78 15; 79 7; 80 1; 
81 1; 82 1; 84 1; 85 1; 86 3; 
89 10; 90 6; 91 348; 92 28; 93 1; 
94 4; 96 75; 97 13; 98 22; 99 1; 
102 2; 103 9; 104 6; 105 2; 106 1; 
109 6; 110 3; 112 4; 114 4; 115 19; 
116 12; 117 38; 118 88; 119 87; 120 8; 
122 1; 124 2; 126 12; 127 2; 128 11; 
129 1; 130 1; 131 1; 132 4; 133 2; 
134 5; 135 1; 136 1; 137 4; 138 2; 
139 11; 144 1; 146 2; 147 7; 148 22; 
149 6; 154 9; 155 1; 164 5; 166 999; 
167 74; 168 4; 176 15; 177 2; 193 2; 
194 54; 195 4; 225 15; 226 1; 251 289; 
252 34; 253 3; 257 8; 258 1; 
