Name: Diundecyl phthalate
Synon: Phthalate: Diundecyl
InChIKey: QQVHEQUEHCEAKS-UHFFFAOYSA-N
Formula: C30H50O4
MW: 474
ExactMass: 474.37091
CASNO: 3648202
ID: 1715
Comment: AAFS
Num Peaks: 66
50 4; 51 2; 53 6; 54 11; 55 85; 
56 34; 57 92; 58 4; 65 7; 66 1; 
67 13; 68 11; 69 46; 70 21; 71 32; 
72 1; 74 1; 75 1; 76 16; 77 7; 
79 2; 81 6; 82 6; 83 23; 84 9; 
85 19; 86 1; 93 7; 95 2; 96 3; 
97 16; 98 4; 99 5; 104 19; 105 13; 
106 1; 109 1; 110 2; 111 5; 112 1; 
113 2; 121 9; 122 8; 123 9; 124 1; 
125 1; 126 3; 132 2; 133 1; 135 1; 
146 2; 149 999; 150 102; 151 11; 152 1; 
154 3; 155 3; 167 21; 168 2; 176 2; 
260 1; 303 6; 304 3; 321 70; 322 14; 
323 2; 
