Name: Disopyramide
InChIKey: UVTNFZQICZKOEM-UHFFFAOYSA-N
Formula: C21H29N3O
MW: 339
ExactMass: 339.231062
CASNO: 3737095
ID: 1717
Comment: AAFS / Probability Based Matching Data Base Entry
Num Peaks: 144
41 60; 42 33; 43 105; 44 76; 52 8; 
53 4; 54 5; 55 7; 56 77; 57 34; 
58 5; 60 2; 62 1; 63 6; 64 1; 
65 8; 66 2; 67 3; 68 6; 70 73; 
71 21; 72 220; 73 14; 74 21; 75 5; 
76 7; 77 34; 78 62; 79 18; 80 10; 
81 2; 82 5; 87 7; 88 11; 89 15; 
90 8; 91 27; 92 7; 93 13; 94 3; 
95 3; 96 9; 98 15; 99 17; 100 20; 
101 7; 102 11; 103 13; 104 18; 105 9; 
106 4; 107 1; 108 1; 109 1; 110 1; 
111 2; 112 12; 114 562; 115 83; 116 15; 
117 26; 118 30; 119 12; 123 1; 125 1; 
126 4; 127 13; 128 165; 129 18; 130 6; 
131 4; 132 4; 133 2; 137 1; 139 25; 
140 21; 141 8; 142 2; 143 2; 144 1; 
146 1; 149 4; 150 2; 151 9; 152 28; 
153 8; 154 6; 155 2; 156 1; 157 1; 
159 1; 160 2; 161 2; 163 1; 164 4; 
165 9; 167 70; 168 48; 169 12; 170 2; 
173 1; 174 3; 175 1; 177 1; 178 7; 
179 8; 180 68; 181 17; 182 67; 183 10; 
184 1; 190 1; 191 9; 192 24; 193 57; 
194 376; 195 999; 196 151; 197 13; 205 1; 
206 1; 207 2; 208 4; 209 32; 210 11; 
212 613; 213 101; 214 8; 221 11; 222 1; 
223 1; 225 8; 226 1; 237 35; 239 153; 
240 27; 241 3; 251 1; 252 1; 279 2; 
281 1; 296 5; 339 1; 340 1; 
