Name: Diphenylamine
InChIKey: DMBHHRLKUKUOEG-UHFFFAOYSA-N
Formula: C12H11N
MW: 169
ExactMass: 169.089149
CASNO: 122394
ID: 1720
Comment: DEA SWL
Num Peaks: 67
40 9; 41 5; 50 36; 51 139; 52 27; 
53 2; 54 2; 58 2; 59 12; 61 3; 
62 11; 63 39; 64 25; 65 75; 66 73; 
67 5; 70 11; 71 18; 72 25; 74 13; 
75 12; 76 15; 77 114; 78 21; 83 11; 
84 152; 86 1; 87 4; 88 4; 89 18; 
90 9; 91 15; 92 12; 93 9; 101 4; 
102 7; 103 6; 104 15; 113 7; 114 7; 
115 52; 116 11; 117 7; 126 3; 127 10; 
128 16; 129 5; 130 5; 138 1; 139 38; 
140 26; 141 52; 142 23; 143 14; 151 1; 
152 2; 153 5; 154 24; 155 2; 164 1; 
165 2; 166 52; 167 341; 168 617; 169 999; 
170 126; 171 8; 
