Name: Diphenoxylate
Synon: Lomotil
InChIKey: HYPPXZBJBPSRLK-UHFFFAOYSA-N
Formula: C30H32N2O2
MW: 452
ExactMass: 452.246378
CASNO: 915300
ID: 1721
Comment: DEA SWL
Num Peaks: 169
41 14; 42 160; 43 15; 44 9; 45 2; 
50 3; 51 11; 52 2; 53 7; 54 10; 
55 21; 56 44; 57 12; 58 2; 59 18; 
60 2; 63 3; 65 6; 67 2; 68 9; 
69 12; 70 8; 71 4; 73 1; 74 1; 
75 2; 76 3; 77 27; 78 9; 79 4; 
80 4; 81 3; 82 23; 83 14; 84 7; 
86 3; 87 1; 88 1; 89 6; 90 1; 
91 121; 92 10; 93 1; 94 2; 95 3; 
96 12; 97 2; 99 3; 101 1; 102 9; 
103 70; 104 16; 105 12; 106 2; 107 1; 
108 5; 109 1; 110 3; 111 6; 112 2; 
113 1; 114 1; 115 68; 116 26; 117 26; 
118 13; 119 5; 120 1; 125 1; 126 2; 
127 8; 128 28; 129 47; 130 19; 131 40; 
132 9; 133 3; 135 1; 139 3; 140 6; 
141 6; 142 5; 143 18; 144 14; 145 6; 
146 3; 147 8; 148 2; 150 1; 151 2; 
152 9; 153 3; 154 4; 155 4; 156 25; 
157 9; 158 58; 159 11; 160 2; 162 1; 
163 5; 164 7; 165 87; 166 17; 167 4; 
168 1; 169 1; 170 4; 171 8; 172 53; 
173 20; 174 7; 176 5; 177 9; 178 21; 
179 16; 180 11; 181 2; 184 17; 185 5; 
186 10; 187 12; 188 3; 189 3; 190 24; 
191 13; 192 17; 193 12; 194 2; 202 1; 
203 2; 204 4; 205 2; 206 2; 216 2; 
217 2; 218 19; 219 3; 220 1; 230 1; 
232 14; 233 2; 244 4; 246 999; 247 167; 
248 17; 249 8; 250 1; 258 4; 259 8; 
260 7; 261 1; 275 5; 276 1; 301 2; 
345 1; 374 1; 377 15; 378 4; 379 11; 
380 3; 407 5; 408 1; 423 4; 424 1; 
451 8; 452 22; 453 7; 454 1; 
