Name: Dioctyl phthalate
Synon: Phthalate: Dioctyl
InChIKey: BJQHLKABXJIVAM-UHFFFAOYSA-N
Formula: C24H38O4
MW: 390
ExactMass: 390.27701
CASNO: 117817
ID: 1723
Comment: AAFS
Num Peaks: 69
50 11; 51 5; 52 1; 53 12; 54 8; 
55 113; 56 46; 57 260; 58 11; 59 1; 
63 1; 64 1; 65 21; 66 2; 67 11; 
68 6; 69 37; 70 126; 71 126; 72 7; 
74 2; 75 5; 76 50; 77 17; 78 1; 
79 4; 81 3; 82 9; 83 44; 84 23; 
85 2; 91 2; 92 1; 93 19; 94 1; 
95 1; 97 4; 104 81; 105 26; 106 2; 
112 33; 113 52; 114 4; 115 1; 121 19; 
122 18; 123 5; 129 1; 132 28; 133 5; 
134 1; 135 1; 145 1; 149 999; 150 113; 
151 12; 162 5; 163 3; 165 1; 167 287; 
168 26; 169 3; 179 1; 180 1; 261 1; 
262 1; 279 76; 280 14; 281 1; 
