Name: Di-n-propyl phthalate
Synon: Phthalate: Di-n-propyl
InChIKey: MQHNKCZKNAJROC-UHFFFAOYSA-N
Formula: C14H18O4
MW: 250
ExactMass: 250.120509
CASNO: 131168
ID: 1724
Comment: AAFS
Num Peaks: 44
50 37; 51 13; 52 2; 53 3; 57 1; 
59 3; 63 2; 65 52; 66 5; 74 10; 
75 13; 76 87; 77 24; 78 2; 79 1; 
91 2; 92 3; 93 39; 94 3; 104 73; 
105 44; 106 5; 107 1; 119 2; 121 34; 
122 28; 123 10; 132 7; 133 1; 135 9; 
136 1; 146 8; 147 5; 149 999; 150 90; 
151 10; 163 3; 164 1; 167 3; 191 48; 
192 6; 193 1; 209 52; 210 6; 
