Name: Diphenylhydantoin
Synon: Phenytoin
Synon: Dilantin
InChIKey: CXOFVDLJLONNDW-UHFFFAOYSA-N
Formula: C15H12N2O2
MW: 252
ExactMass: 252.089878
CASNO: 57410
ID: 1732
Comment: DEA SWL
Num Peaks: 112
40 2; 42 1; 43 4; 44 12; 50 45; 
51 158; 52 29; 53 3; 56 1; 57 1; 
61 2; 62 12; 63 28; 64 6; 65 5; 
66 2; 70 24; 73 3; 74 25; 75 27; 
76 69; 77 376; 78 94; 79 8; 80 1; 
82 56; 85 2; 86 7; 87 11; 88 7; 
89 15; 90 39; 92 3; 93 3; 98 5; 
99 4; 100 3; 101 4; 102 12; 104 473; 
105 54; 106 3; 109 1; 110 3; 111 4; 
112 1; 113 11; 114 5; 115 23; 116 2; 
117 2; 118 2; 121 1; 122 1; 125 3; 
126 20; 127 11; 128 4; 129 3; 130 13; 
131 3; 132 7; 137 4; 138 4; 139 35; 
140 7; 141 3; 145 5; 147 66; 148 7; 
149 1; 150 9; 151 16; 152 56; 153 17; 
154 8; 155 1; 161 1; 162 4; 163 39; 
164 52; 165 233; 166 46; 167 4; 175 24; 
176 3; 177 6; 178 13; 180 999; 181 191; 
182 18; 183 1; 184 1; 185 2; 190 1; 
191 1; 192 1; 193 1; 195 1; 205 5; 
206 4; 208 154; 209 284; 210 44; 211 4; 
221 3; 223 387; 224 76; 225 6; 252 265; 
253 47; 254 6; 
