Name: Diisopropyl phthalate
Synon: Phthalate, Diisopropyl
InChIKey: QWDBCIAVABMJPP-UHFFFAOYSA-N
Formula: C14H18O4
MW: 250
ExactMass: 250.120509
CASNO: 605458
ID: 1733
Comment: AAFS
Num Peaks: 48
50 41; 51 14; 52 3; 53 3; 58 1; 
59 20; 63 3; 65 60; 66 11; 73 1; 
74 11; 75 14; 76 89; 77 26; 78 3; 
79 2; 87 1; 91 3; 92 4; 93 37; 
94 4; 104 68; 105 68; 106 7; 117 1; 
119 1; 121 37; 122 55; 123 8; 129 2; 
131 2; 132 4; 133 1; 145 1; 147 8; 
149 999; 150 106; 151 12; 163 1; 164 1; 
167 26; 168 2; 191 16; 192 24; 193 3; 
209 38; 210 4; 250 1; 
