Name: Dihexyl phthalate
Synon: Phthalate, Dihexyl
InChIKey: KCXZNSGUUQJJTR-UHFFFAOYSA-N
Formula: C20H30O4
MW: 334
ExactMass: 334.214409
CASNO: 84753
ID: 1738
Comment: AAFS
Num Peaks: 45
50 11; 51 4; 53 5; 54 5; 55 41; 
56 31; 57 14; 63 1; 65 20; 66 1; 
67 4; 68 1; 69 11; 74 2; 75 5; 
76 37; 77 11; 78 1; 79 1; 83 3; 
84 7; 85 13; 91 1; 93 17; 94 1; 
104 33; 105 20; 106 1; 121 17; 122 13; 
123 10; 132 3; 135 1; 146 2; 149 999; 
150 93; 151 10; 167 9; 176 2; 233 14; 
234 3; 251 58; 252 9; 253 1; 334 1; 
