Name: Diheptyl phthalate
Synon: Phthalate, Diheptyl
InChIKey: JQCXWCOOWVGKMT-UHFFFAOYSA-N
Formula: C22H34O4
MW: 362
ExactMass: 362.24571
CASNO: 3648213
ID: 1739
Comment: AAFS
Num Peaks: 53
50 8; 51 4; 53 6; 54 5; 55 54; 
56 31; 57 92; 58 4; 64 1; 65 16; 
66 1; 67 5; 68 5; 69 17; 70 18; 
71 2; 74 2; 75 3; 76 31; 77 10; 
78 1; 79 1; 81 2; 83 2; 91 1; 
92 1; 93 14; 94 1; 97 2; 98 6; 
99 3; 104 29; 105 17; 106 1; 121 14; 
122 11; 123 10; 132 2; 133 1; 135 1; 
149 999; 150 93; 151 10; 160 1; 167 11; 
168 1; 176 2; 247 11; 248 3; 265 63; 
266 10; 267 1; 362 1; 
