Name: Diethyl phthalate
Synon: Phthalate, Diethyl
InChIKey: FLKPEMZONWLCSK-UHFFFAOYSA-N
Formula: C12H14O4
MW: 222
ExactMass: 222.089209
CASNO: 84662
ID: 1740
Comment: AAFS
Num Peaks: 47
50 74; 51 29; 52 5; 53 6; 62 2; 
63 7; 64 6; 65 101; 66 14; 73 3; 
74 26; 75 27; 76 126; 77 54; 78 6; 
79 1; 91 8; 92 7; 93 72; 94 5; 
104 82; 105 90; 106 16; 107 2; 119 2; 
121 65; 122 36; 123 3; 131 3; 132 16; 
133 5; 135 7; 136 1; 149 999; 150 117; 
151 12; 152 1; 164 3; 176 87; 177 200; 
178 38; 179 4; 194 2; 195 2; 221 4; 
222 14; 223 2; 
