Name: Didecyl phthalate
Synon: Phthalate: Didecyl
InChIKey: PGIBJVOPLXHHGS-UHFFFAOYSA-N
Formula: C28H46O4
MW: 446
ExactMass: 446.33961
CASNO: 84775
ID: 1743
Comment: AAFS
Num Peaks: 70
50 9; 51 3; 53 10; 54 10; 55 164; 
56 61; 57 278; 58 11; 63 2; 65 14; 
67 25; 68 15; 69 144; 70 84; 71 203; 
72 13; 75 3; 76 30; 77 22; 78 3; 
79 6; 81 17; 82 15; 83 67; 84 37; 
85 189; 86 12; 91 3; 93 13; 94 2; 
95 10; 96 8; 97 36; 98 17; 99 46; 
100 4; 104 38; 105 20; 109 3; 110 4; 
111 27; 112 17; 113 4; 121 17; 122 10; 
123 8; 125 5; 132 5; 133 4; 138 2; 
140 15; 141 72; 142 7; 146 6; 147 4; 
149 999; 150 108; 151 12; 162 2; 167 105; 
168 8; 176 8; 193 3; 289 4; 290 3; 
307 164; 308 31; 309 5; 321 3; 361 3; 
