Name: Dibucaine
InChIKey: PUFQVTATUTYEAL-UHFFFAOYSA-N
Formula: C20H29N3O2
MW: 343
ExactMass: 343.225977
CASNO: 85790
ID: 1745
Comment: DEA SWL
Num Peaks: 54
41 19; 42 13; 43 4; 44 6; 55 4; 
56 19; 57 20; 58 46; 59 2; 63 1; 
70 7; 71 8; 72 6; 73 1; 75 2; 
84 11; 86 999; 87 58; 88 3; 89 11; 
90 2; 96 1; 99 22; 100 4; 101 4; 
113 4; 114 4; 115 8; 116 44; 117 6; 
127 10; 128 8; 129 3; 130 2; 135 2; 
143 8; 144 14; 145 5; 156 1; 157 2; 
158 2; 170 2; 171 3; 172 8; 186 3; 
199 1; 215 4; 228 7; 229 1; 253 1; 
271 6; 326 2; 327 1; 341 2; 
