Name: Trazodone
Synon: Desyrel
InChIKey: PHLBKPHSAVXXEF-UHFFFAOYSA-N
Formula: C19H22ClN5O
MW: 371
ExactMass: 371.151287
CASNO: 19794935
ID: 1756
Comment: DEA SWL
Num Peaks: 215
40 15; 41 186; 42 398; 43 126; 44 192; 
45 4; 49 2; 50 26; 51 119; 52 58; 
53 19; 54 68; 55 80; 56 491; 57 66; 
58 18; 59 2; 61 4; 62 3; 63 18; 
64 26; 65 49; 66 45; 67 30; 68 123; 
69 190; 70 891; 71 76; 72 22; 73 6; 
74 9; 75 67; 76 39; 77 89; 78 627; 
79 213; 80 35; 81 12; 82 110; 83 100; 
84 77; 85 13; 86 2; 87 4; 88 4; 
89 27; 90 17; 91 46; 92 57; 93 175; 
94 165; 95 38; 96 178; 97 143; 98 32; 
99 20; 100 2; 101 8; 102 11; 103 20; 
104 37; 105 81; 106 19; 107 33; 108 8; 
109 10; 110 9; 111 284; 112 51; 113 82; 
114 18; 115 7; 116 39; 117 59; 118 40; 
119 60; 120 83; 121 68; 122 8; 123 7; 
124 4; 125 113; 126 13; 127 42; 128 6; 
129 5; 130 48; 131 48; 132 23; 133 57; 
134 14; 135 114; 136 349; 137 40; 138 431; 
139 399; 140 258; 141 121; 142 47; 143 13; 
144 11; 145 4; 146 11; 147 11; 148 298; 
149 45; 150 9; 151 13; 152 19; 153 33; 
154 75; 155 16; 156 18; 157 6; 158 8; 
159 6; 160 8; 161 31; 162 181; 163 24; 
164 10; 165 16; 166 254; 167 55; 168 115; 
169 21; 170 16; 171 4; 172 5; 173 7; 
174 18; 175 55; 176 478; 177 53; 178 22; 
179 30; 180 19; 181 51; 182 10; 183 13; 
184 3; 186 3; 187 3; 188 2; 189 3; 
190 2; 191 15; 192 10; 193 20; 194 144; 
195 127; 196 70; 197 43; 198 4; 203 4; 
205 999; 206 122; 207 42; 208 15; 209 244; 
210 35; 211 89; 212 10; 217 4; 218 65; 
219 144; 220 22; 221 8; 222 3; 223 14; 
224 3; 225 6; 230 2; 231 183; 232 30; 
233 3; 235 26; 236 6; 237 7; 238 2; 
244 2; 245 1; 250 6; 251 3; 253 2; 
265 2; 267 2; 269 2; 277 7; 278 171; 
279 30; 280 57; 281 15; 282 3; 283 3; 
308 2; 327 3; 329 11; 330 3; 331 6; 
336 6; 341 2; 342 3; 343 1; 344 2; 
356 96; 357 21; 358 35; 359 4; 369 4; 
370 6; 371 26; 372 5; 373 7; 374 2; 
