Name: Desipramine
Synon: Norpramin
InChIKey: HCYAFALTSJYZDH-UHFFFAOYSA-N
Formula: C18H22N2
MW: 266
ExactMass: 266.178299
CASNO: 50475
ID: 1758
Comment: DEA SWL
Num Peaks: 157
40 4; 41 20; 42 47; 44 358; 45 14; 
50 6; 51 24; 52 8; 53 3; 54 3; 
55 3; 56 39; 57 22; 58 9; 62 4; 
63 28; 64 10; 65 45; 66 4; 67 1; 
68 3; 70 60; 71 189; 72 36; 73 2; 
74 3; 75 9; 76 13; 77 59; 78 23; 
79 9; 80 1; 83 2; 84 8; 86 1; 
87 3; 89 78; 90 33; 91 119; 92 11; 
93 3; 94 1; 96 7; 97 6; 98 1; 
99 1; 100 1; 101 9; 102 20; 103 25; 
104 15; 105 14; 106 51; 107 18; 109 2; 
110 1; 111 1; 113 6; 114 7; 115 57; 
116 47; 117 69; 118 55; 119 12; 120 4; 
125 2; 126 10; 127 19; 128 42; 129 39; 
130 187; 131 27; 132 8; 133 10; 137 2; 
138 4; 139 30; 140 24; 141 13; 142 10; 
143 10; 144 13; 145 2; 146 2; 150 11; 
151 31; 152 83; 153 25; 154 19; 155 3; 
156 3; 157 1; 158 3; 159 1; 162 2; 
163 22; 164 29; 165 185; 166 80; 167 128; 
168 27; 169 3; 174 1; 175 4; 176 36; 
177 41; 178 173; 179 169; 180 144; 181 26; 
182 4; 188 2; 189 15; 190 54; 191 162; 
192 332; 193 950; 194 645; 195 849; 196 131; 
197 9; 201 1; 202 6; 203 12; 204 113; 
205 59; 206 209; 207 78; 208 657; 209 130; 
210 11; 215 2; 216 5; 217 23; 218 58; 
219 37; 220 220; 221 77; 222 99; 223 20; 
224 1; 230 2; 232 15; 234 999; 235 759; 
236 126; 237 15; 238 1; 249 1; 250 1; 
251 6; 252 1; 263 2; 264 2; 266 280; 
267 59; 268 6; 
