Name: Dehydroisoandrosterone 3-Acetate
Synon: Prasterone 3-acetate
InChIKey: NCMZQTLCXHGLOK-UHFFFAOYSA-N
Formula: C21H30O3
MW: 330
ExactMass: 330.219496
CASNO: 853236
ID: 1761
Comment: DEA SWL
Num Peaks: 186
40 7; 41 90; 43 396; 44 11; 45 2; 
50 1; 51 5; 52 5; 53 40; 55 100; 
56 6; 57 12; 60 1; 61 3; 63 2; 
65 33; 66 13; 67 108; 68 13; 69 25; 
70 2; 71 4; 72 1; 73 1; 75 1; 
77 112; 78 33; 79 187; 80 26; 81 100; 
82 12; 83 12; 84 2; 85 4; 87 1; 
89 3; 91 297; 92 63; 93 181; 94 44; 
95 61; 96 10; 97 80; 98 16; 99 2; 
100 2; 102 5; 103 33; 104 30; 105 279; 
106 92; 107 234; 108 82; 109 48; 110 13; 
111 7; 112 1; 115 63; 116 33; 117 128; 
118 60; 119 140; 120 113; 121 515; 122 77; 
123 30; 124 8; 125 2; 126 1; 127 17; 
128 71; 129 103; 130 42; 131 140; 132 43; 
133 82; 134 35; 135 35; 136 23; 137 14; 
138 1; 139 2; 141 46; 142 36; 143 143; 
144 49; 145 179; 146 58; 147 100; 148 61; 
149 75; 150 81; 151 19; 152 10; 153 13; 
154 8; 155 32; 156 20; 157 88; 158 45; 
159 114; 160 36; 161 40; 162 19; 163 23; 
164 10; 165 13; 166 5; 167 11; 168 7; 
169 26; 170 18; 171 77; 172 45; 173 59; 
174 31; 175 17; 176 9; 177 9; 178 3; 
179 6; 180 2; 181 23; 182 7; 183 24; 
184 10; 185 60; 186 22; 187 23; 188 15; 
189 7; 190 2; 191 1; 193 2; 194 1; 
195 21; 196 8; 197 31; 199 128; 200 32; 
201 31; 202 9; 203 3; 207 2; 208 2; 
209 10; 210 6; 211 26; 212 18; 213 116; 
214 89; 215 26; 216 16; 217 3; 218 1; 
221 1; 222 2; 223 5; 224 3; 225 4; 
226 21; 227 75; 228 51; 229 17; 230 2; 
231 1; 235 1; 237 83; 238 16; 239 3; 
241 23; 242 55; 243 9; 244 1; 251 2; 
252 14; 253 6; 255 267; 256 51; 257 7; 
270 999; 271 211; 272 22; 273 2; 287 3; 
288 1; 
