Name: Dehydroisoandrosterone
Synon: Prasterone
Synon: Dehydroepiandrosterone
Synon: DHEA
InChIKey: FMGSKLZLMKYGDP-UHFFFAOYSA-N
Formula: C19H28O2
MW: 288
ExactMass: 288.208931
CASNO: 53430
ID: 1762
Comment: DEA SWL
Num Peaks: 171
41 492; 42 56; 43 145; 44 43; 50 13; 
51 55; 53 190; 55 473; 56 42; 57 327; 
58 18; 63 16; 64 24; 65 165; 66 57; 
67 388; 68 75; 69 101; 71 28; 73 19; 
77 517; 78 167; 79 783; 80 101; 81 301; 
82 49; 83 63; 85 14; 86 12; 89 31; 
91 999; 92 182; 93 496; 94 177; 95 215; 
96 56; 97 288; 98 31; 99 12; 102 33; 
103 124; 104 110; 105 927; 106 273; 107 589; 
108 115; 109 140; 110 42; 111 54; 114 19; 
115 242; 116 113; 117 379; 118 138; 119 628; 
120 356; 121 368; 122 79; 123 112; 124 52; 
125 68; 127 72; 128 238; 129 350; 130 128; 
131 518; 132 173; 133 371; 134 119; 135 217; 
136 72; 137 53; 138 31; 139 15; 141 120; 
142 89; 143 377; 144 165; 145 527; 146 133; 
147 175; 148 126; 149 157; 150 49; 151 62; 
152 29; 153 36; 154 42; 155 94; 156 55; 
157 264; 158 121; 159 378; 160 94; 161 118; 
162 40; 163 83; 164 42; 165 25; 167 49; 
168 18; 169 92; 170 35; 171 173; 172 122; 
173 180; 174 138; 175 87; 176 237; 177 329; 
178 79; 179 25; 181 51; 182 26; 183 73; 
184 27; 185 181; 186 63; 187 98; 188 52; 
189 47; 190 25; 195 62; 196 14; 197 90; 
198 29; 199 202; 200 50; 201 66; 202 61; 
203 365; 204 87; 207 31; 209 36; 211 70; 
212 30; 213 286; 214 102; 215 37; 216 35; 
217 26; 218 18; 226 18; 227 111; 228 102; 
229 104; 230 30; 231 88; 232 22; 237 195; 
238 21; 241 47; 242 86; 243 12; 244 45; 
245 34; 246 12; 252 15; 255 595; 256 117; 
257 16; 260 13; 270 344; 271 70; 272 13; 
273 72; 274 15; 281 16; 288 652; 289 136; 
290 14; 
