Name: Oxaprozin
Synon: Daypro
InChIKey: OFPXSFXSNFPTHF-UHFFFAOYSA-N
Formula: C18H15NO3
MW: 293
ExactMass: 293.105194
CASNO: 21256188
ID: 1765
Comment: AAFS
Num Peaks: 67
43 6; 45 21; 50 13; 51 51; 52 5; 
54 5; 55 60; 57 6; 62 12; 63 38; 
73 18; 74 9; 75 9; 76 20; 77 192; 
78 15; 82 7; 87 8; 88 9; 89 40; 
90 6; 91 8; 103 158; 104 74; 105 64; 
106 6; 113 5; 114 5; 115 47; 116 27; 
117 50; 118 5; 123 42; 128 20; 133 5; 
139 24; 140 5; 147 7; 152 5; 163 30; 
164 48; 165 376; 166 59; 167 10; 178 6; 
190 6; 192 5; 193 11; 194 6; 204 6; 
206 54; 207 10; 218 5; 219 17; 220 6; 
221 7; 232 8; 234 7; 246 6; 247 67; 
248 999; 249 188; 250 19; 276 7; 293 420; 
294 83; 295 11; 
