Name: d-Propoxyphene
Synon: Darvon
Synon: Dextropropoxyphene
InChIKey: XLMALTXPSGQGBX-UHFFFAOYSA-N
Formula: C22H29NO2
MW: 339
ExactMass: 339.21983
CASNO: 469625
ID: 1766
Comment: DEA SWL
Num Peaks: 101
40 1; 41 4; 42 22; 43 7; 44 8; 
45 4; 50 2; 51 10; 52 2; 53 1; 
55 2; 56 6; 57 44; 58 999; 59 36; 
63 5; 64 1; 65 16; 70 4; 71 6; 
73 5; 74 5; 75 3; 76 4; 77 28; 
78 8; 79 2; 82 1; 84 5; 85 4; 
86 9; 87 2; 88 1; 89 9; 90 1; 
91 87; 92 7; 94 1; 96 2; 101 2; 
102 7; 103 8; 104 2; 105 29; 106 2; 
115 74; 116 14; 117 35; 118 4; 119 1; 
126 1; 127 6; 128 17; 129 26; 130 30; 
131 6; 133 6; 134 4; 135 3; 139 1; 
141 1; 143 4; 147 3; 151 3; 152 7; 
153 1; 158 2; 163 1; 164 1; 165 12; 
166 2; 167 1; 174 5; 176 4; 177 3; 
178 23; 179 16; 180 2; 189 5; 190 3; 
191 11; 192 4; 193 25; 194 4; 197 4; 
202 3; 203 2; 204 2; 205 3; 206 2; 
207 8; 208 30; 209 5; 250 5; 253 2; 
265 2; 266 3; 267 1; 281 2; 327 1; 
341 2; 
