Name: Mefloquine
Synon: Lariam
InChIKey: XEEQGYMUWCZPDN-UHFFFAOYSA-N
Formula: C17H16F6N2O
MW: 378
ExactMass: 378.116682
CASNO: 53230107
ID: 1770
Comment: AAFS / ANTIMALARIAL
Num Peaks: 198
41 30; 42 29; 43 6; 45 1; 50 2; 
51 3; 52 1; 53 5; 54 18; 55 59; 
56 132; 57 16; 58 1; 63 2; 65 3; 
67 15; 68 13; 69 14; 70 3; 73 1; 
74 1; 75 6; 76 2; 77 2; 78 1; 
80 4; 81 4; 82 26; 84 999; 85 62; 
86 5; 87 1; 88 2; 89 1; 93 1; 
95 2; 96 1; 98 1; 99 6; 100 4; 
101 4; 102 1; 105 1; 112 1; 113 1; 
115 1; 118 1; 119 2; 120 1; 124 1; 
125 1; 126 2; 127 2; 128 8; 129 1; 
131 1; 132 1; 133 1; 138 1; 139 1; 
140 2; 143 2; 144 2; 145 3; 146 3; 
147 1; 149 5; 150 6; 151 7; 152 4; 
153 1; 154 1; 156 1; 157 1; 158 4; 
163 1; 164 1; 165 2; 166 1; 167 1; 
168 2; 169 13; 170 4; 171 1; 176 36; 
177 7; 178 4; 181 1; 182 2; 183 2; 
184 1; 187 1; 188 1; 189 2; 190 1; 
194 5; 195 3; 196 46; 197 9; 198 1; 
200 3; 201 1; 202 4; 203 1; 205 1; 
206 8; 207 4; 208 4; 209 1; 210 2; 
213 1; 214 14; 215 6; 216 2; 217 1; 
220 3; 221 1; 222 2; 224 18; 225 3; 
226 5; 227 5; 228 1; 229 1; 231 1; 
232 1; 233 1; 234 4; 235 3; 236 3; 
237 1; 238 4; 239 1; 240 1; 244 3; 
245 3; 246 43; 247 8; 248 1; 249 2; 
250 1; 251 1; 252 3; 253 1; 254 1; 
256 1; 258 2; 259 3; 260 1; 261 1; 
262 1; 263 1; 264 15; 265 8; 266 2; 
270 3; 271 2; 272 1; 274 11; 275 8; 
276 8; 277 2; 278 6; 279 2; 281 1; 
283 1; 284 3; 285 4; 286 1; 289 1; 
290 2; 291 3; 292 4; 293 21; 294 7; 
295 6; 296 3; 297 1; 298 3; 299 1; 
303 2; 304 4; 305 2; 307 1; 311 2; 
316 2; 317 5; 318 5; 319 2; 331 3; 
339 7; 341 1; 343 1; 345 2; 359 18; 
360 12; 361 2; 377 3; 
