Name: Levamisole
Synon: Phenyltetrahydroimidazothiazole
Synon: L-2,3,5,6-Tetrahyro-6-phenylimidazo(2,1-b)thiazole
Synon: l-Tetramisole
Synon: (-) Tetramisole
InChIKey: HLFSDGLLUJUHTE-UHFFFAOYSA-N
Formula: C11H12N2S
MW: 204
ExactMass: 204.07212
CASNO: 6649236
ID: 1775
Comment: DEA SWL
Num Peaks: 126
36 1; 37 6; 38 17; 39 86; 40 19; 
41 48; 42 52; 43 11; 44 5; 45 130; 
46 23; 47 9; 49 3; 50 65; 51 151; 
52 38; 53 11; 54 52; 55 18; 56 97; 
57 11; 58 24; 59 39; 60 38; 61 18; 
62 30; 63 89; 64 31; 65 51; 66 6; 
67 6; 68 11; 69 25; 70 15; 71 19; 
72 82; 73 498; 74 46; 75 50; 76 44; 
77 203; 78 69; 79 8; 80 5; 81 5; 
82 4; 83 2; 84 8; 85 4; 86 19; 
87 10; 88 24; 89 146; 90 60; 91 93; 
92 12; 93 8; 94 7; 95 2; 96 6; 
97 1; 98 28; 99 43; 100 20; 101 436; 
102 66; 103 144; 104 183; 105 21; 106 3; 
108 1; 109 4; 111 3; 113 4; 114 4; 
115 18; 116 57; 117 89; 118 30; 119 9; 
120 15; 121 284; 122 40; 123 17; 124 6; 
125 12; 126 31; 127 213; 128 28; 129 18; 
130 24; 131 22; 132 8; 133 1; 134 2; 
135 12; 136 4; 142 6; 143 16; 144 22; 
145 8; 146 15; 147 19; 148 999; 149 123; 
150 53; 151 5; 157 5; 158 1; 160 1; 
169 2; 170 2; 174 7; 175 14; 176 60; 
177 12; 178 4; 189 3; 194 1; 201 8; 
202 36; 203 284; 204 645; 205 99; 206 33; 
207 4; 
