Name: Isoniazid
Synon: Isoniazide
InChIKey: QRXWMOHMRWLFEY-UHFFFAOYSA-N
Formula: C6H7N3O
MW: 137
ExactMass: 137.058912
CASNO: 54853
ID: 1778
Comment: AAFS / Probability Based Matching Data Base Entry
Num Peaks: 64
42 2; 43 9; 44 3; 45 19; 48 1; 
49 15; 50 134; 51 327; 52 48; 53 13; 
54 3; 55 3; 56 1; 57 2; 58 1; 
59 2; 60 3; 61 2; 62 3; 63 3; 
64 3; 65 3; 66 3; 67 2; 68 1; 
69 3; 70 1; 71 2; 73 3; 74 3; 
75 15; 76 19; 77 16; 78 916; 79 127; 
80 7; 81 2; 82 1; 83 2; 84 1; 
85 1; 87 1; 91 3; 92 1; 93 1; 
94 1; 95 1; 97 2; 98 1; 100 4; 
101 1; 106 999; 107 124; 108 8; 109 1; 
110 2; 120 1; 122 2; 123 1; 127 1; 
135 1; 137 613; 138 56; 139 3; 
