Name: Isocarboxazid
InChIKey: XKFPYPQQHFEXRZ-UHFFFAOYSA-N
Formula: C12H13N3O2
MW: 231
ExactMass: 231.100777
CASNO: 59632
ID: 1779
Comment: AAFS / Probability Based Matching Data Base Entry
Num Peaks: 80
42 12; 43 101; 44 8; 45 1; 50 14; 
51 37; 52 14; 53 7; 54 5; 55 2; 
56 1; 57 1; 58 5; 62 5; 63 23; 
64 8; 65 101; 66 10; 67 10; 68 47; 
69 5; 70 15; 71 7; 73 1; 74 3; 
75 3; 76 5; 77 64; 78 27; 79 25; 
80 2; 81 2; 82 1; 83 6; 84 22; 
85 8; 86 1; 87 1; 89 24; 91 999; 
92 89; 93 5; 95 1; 97 1; 100 5; 
103 2; 104 62; 105 33; 106 275; 107 22; 
109 8; 110 263; 111 17; 112 25; 113 18; 
114 1; 115 1; 116 1; 117 1; 118 1; 
119 9; 120 21; 121 15; 122 2; 127 353; 
128 21; 129 2; 130 6; 131 1; 132 1; 
146 4; 149 2; 154 1; 171 1; 172 1; 
175 1; 188 8; 189 1; 231 25; 232 3; 
