Name: Isobutylnitrite
Synon: Isobutylnitriet
InChIKey: APNSGVMLAYLYCT-UHFFFAOYSA-N
Formula: C4H9NO2
MW: 103
ExactMass: 103.0633287
CASNO: 542563
ID: 1780
Comment: ENFSI / NFI/case sample 99.05.17.023/1; FTIR identified
Num Peaks: 34
25 1; 26 18; 27 281; 28 43; 29 179; 
30 269; 31 47; 32 2; 33 20; 37 7; 
38 18; 39 157; 40 22; 41 702; 42 77; 
43 999; 44 39; 45 7; 46 1; 50 2; 
51 2; 53 5; 54 1; 55 14; 56 6; 
57 247; 58 12; 59 2; 60 103; 61 1; 
71 6; 72 16; 73 3; 74 4; 
