Name: Malathion
Synon: Insecticide No. 4049
InChIKey: JXSJBGJIGXNWCI-UHFFFAOYSA-N
Formula: C10H19O6PS2
MW: 330
ExactMass: 330.036066
CASNO: 121755
ID: 1782
Comment: AAFS / Probability Based Matching Data Base Entry
Num Peaks: 140
35 1; 42 6; 43 25; 44 4; 45 76; 
46 10; 47 132; 48 4; 49 8; 53 13; 
54 13; 55 178; 56 9; 57 2; 58 38; 
59 74; 60 21; 61 20; 62 56; 63 194; 
64 37; 65 11; 66 4; 71 35; 72 31; 
73 61; 74 5; 75 18; 76 4; 77 15; 
79 249; 80 12; 81 12; 82 11; 85 9; 
86 19; 87 55; 88 5; 89 19; 90 3; 
91 6; 93 999; 94 33; 95 60; 96 31; 
97 5; 98 8; 99 399; 100 28; 101 37; 
102 4; 103 46; 104 14; 105 9; 106 2; 
107 16; 108 1; 109 15; 110 2; 111 58; 
112 6; 113 23; 115 16; 116 5; 117 45; 
118 3; 121 7; 123 1; 125 926; 126 79; 
127 792; 128 129; 129 35; 130 4; 132 29; 
133 20; 134 3; 137 2; 139 11; 141 3; 
142 18; 143 207; 144 18; 145 116; 146 9; 
147 45; 148 4; 149 8; 153 2; 154 1; 
155 5; 157 117; 158 401; 159 109; 160 50; 
161 14; 162 1; 163 2; 170 5; 171 21; 
173 800; 174 77; 175 13; 177 4; 182 4; 
183 8; 184 11; 185 2; 186 1; 187 4; 
188 5; 189 6; 191 2; 195 2; 196 1; 
197 5; 199 5; 205 4; 209 1; 210 5; 
211 45; 212 5; 213 5; 223 2; 225 3; 
227 12; 228 2; 229 2; 238 15; 255 16; 
256 49; 257 14; 258 6; 259 1; 269 3; 
283 3; 284 18; 285 41; 286 5; 287 4; 
