Name: Tryptophol
Synon: Indole-3-ethanol
InChIKey: MBBOMCVGYCRMEA-UHFFFAOYSA-N
Formula: C10H11NO
MW: 161
ExactMass: 161.084064
CASNO: 526556
ID: 1783
Comment: DEA SWL
Num Peaks: 59
41 1; 43 1; 49 1; 50 16; 51 40; 
52 14; 53 4; 54 1; 58 2; 59 2; 
61 3; 62 10; 63 24; 64 4; 65 11; 
71 3; 73 1; 74 13; 75 19; 76 22; 
77 116; 78 12; 79 2; 85 1; 86 3; 
87 4; 88 3; 89 17; 90 9; 91 3; 
98 2; 99 1; 100 1; 101 12; 102 56; 
103 87; 104 12; 113 2; 114 3; 115 22; 
116 6; 117 16; 118 8; 127 1; 128 41; 
129 39; 130 999; 131 102; 132 7; 140 2; 
141 1; 142 5; 143 13; 144 3; 159 3; 
160 1; 161 191; 162 21; 163 1; 
