Name: Indole
InChIKey: SIKJAQJRHWYJAI-UHFFFAOYSA-N
Formula: C8H7N
MW: 117
ExactMass: 117.0578494
CASNO: 120729
ID: 1784
Comment: DEA SWL / Aldrich lot I3408
Num Peaks: 43
40 7; 41 5; 43 3; 45 2; 46 4; 
49 4; 50 28; 51 29; 52 17; 53 2; 
54 1; 57 1; 58 9; 59 71; 60 2; 
61 21; 62 55; 63 124; 64 38; 65 12; 
66 2; 67 1; 73 2; 74 10; 75 8; 
76 8; 77 3; 78 8; 84 2; 85 8; 
86 16; 87 19; 88 17; 89 309; 90 385; 
91 35; 92 1; 114 7; 115 6; 116 80; 
117 999; 118 87; 119 3; 
