Name: Indomethacin
Synon: Indocin
InChIKey: CGIGDMFJXJATDK-UHFFFAOYSA-N
Formula: C19H16ClNO4
MW: 357
ExactMass: 357.076786
CASNO: 53861
ID: 1785
Comment: AAFS
Num Peaks: 111
42 3; 43 6; 44 3; 45 6; 50 23; 
51 23; 52 6; 53 6; 54 2; 55 6; 
57 3; 61 2; 62 8; 63 29; 64 5; 
65 8; 67 3; 68 2; 69 3; 71 2; 
73 5; 74 13; 75 82; 76 33; 77 30; 
78 7; 79 4; 80 3; 81 2; 83 2; 
84 3; 85 7; 86 2; 87 6; 88 8; 
89 25; 90 7; 91 11; 92 3; 98 2; 
100 2; 101 7; 102 11; 103 21; 104 21; 
105 4; 107 2; 111 253; 112 20; 113 78; 
114 8; 115 9; 116 10; 117 4; 118 2; 
119 5; 127 2; 128 7; 129 6; 130 34; 
131 17; 132 3; 133 3; 137 3; 139 999; 
140 85; 141 326; 142 27; 143 5; 144 3; 
145 2; 148 2; 152 2; 156 4; 158 61; 
159 16; 160 3; 169 4; 172 8; 173 48; 
174 15; 175 3; 176 19; 177 3; 178 2; 
204 2; 213 2; 214 2; 215 3; 217 2; 
218 8; 219 3; 228 2; 230 2; 249 3; 
256 15; 257 2; 258 5; 259 2; 286 3; 
301 6; 303 2; 312 21; 313 7; 314 10; 
315 2; 332 2; 357 210; 358 45; 359 75; 
360 15; 
