Name: Indapamide
InChIKey: NDDAHWYSQHTHNT-UHFFFAOYSA-N
Formula: C16H16ClN3O3S
MW: 365
ExactMass: 365.060091
CASNO: 26807658
ID: 1787
Comment: AAFS
Num Peaks: 53
42 5; 48 6; 50 7; 51 8; 52 5; 
63 16; 64 15; 65 35; 74 11; 75 29; 
77 33; 78 11; 79 9; 80 6; 89 24; 
90 20; 91 55; 92 51; 93 7; 99 5; 
103 23; 104 12; 105 6; 106 26; 109 15; 
110 22; 111 9; 112 5; 115 21; 116 20; 
117 43; 118 51; 119 92; 120 15; 129 6; 
130 118; 131 280; 132 110; 133 18; 138 7; 
139 5; 142 5; 143 10; 145 15; 147 999; 
148 107; 149 5; 218 49; 220 18; 234 9; 
365 67; 366 13; 367 25; 
