Name: Imipramine
Synon: Tofranil
InChIKey: BCGWQEUPMDMJNV-UHFFFAOYSA-N
Formula: C19H24N2
MW: 280
ExactMass: 280.193949
CASNO: 50497
ID: 1790
Comment: DEA SWL
Num Peaks: 137
40 3; 41 20; 42 104; 43 38; 44 70; 
45 4; 50 5; 51 22; 52 7; 53 4; 
54 2; 55 2; 56 32; 57 40; 58 999; 
59 47; 62 3; 63 22; 64 9; 65 39; 
66 3; 68 4; 70 121; 71 31; 72 28; 
73 3; 74 3; 75 8; 76 11; 77 53; 
78 21; 79 6; 82 5; 84 117; 85 579; 
86 77; 87 8; 88 4; 89 66; 90 30; 
91 116; 92 11; 93 3; 96 6; 97 9; 
101 9; 102 16; 103 24; 104 16; 105 16; 
106 72; 107 29; 108 3; 113 4; 114 5; 
115 51; 116 41; 117 77; 118 64; 119 16; 
120 4; 125 1; 126 8; 127 16; 128 38; 
129 53; 130 267; 131 39; 132 6; 137 1; 
138 2; 139 24; 140 35; 141 12; 142 9; 
143 13; 144 15; 145 1; 150 7; 151 24; 
152 62; 153 19; 154 14; 155 2; 156 3; 
158 3; 163 13; 164 19; 165 128; 166 54; 
167 84; 168 18; 169 1; 176 21; 177 27; 
178 114; 179 127; 180 80; 181 13; 182 1; 
189 9; 190 28; 191 91; 192 189; 193 472; 
194 319; 195 368; 196 55; 197 4; 202 4; 
203 7; 204 73; 205 42; 206 151; 207 47; 
208 222; 209 51; 210 5; 216 3; 217 16; 
218 43; 219 28; 220 183; 221 51; 222 52; 
223 9; 230 1; 231 1; 232 14; 234 903; 
235 773; 236 132; 237 10; 265 3; 280 199; 
281 44; 282 4; 
