Name: Hydromorphone TMS derivative
InChIKey: OTAGLWYPCUBLAU-UHFFFAOYSA-N
Formula: C20H27NO3Si
MW: 357
ExactMass: 357.17602
CASNO: 221209081
ID: 1792
Comment: DEA SWL
Num Peaks: 295
40 3; 41 31; 42 175; 43 38; 44 130; 
45 111; 46 7; 47 9; 49 1; 50 2; 
51 8; 52 4; 53 19; 54 11; 55 72; 
56 22; 57 48; 58 45; 59 350; 60 58; 
61 14; 62 2; 63 9; 64 3; 65 17; 
66 6; 67 23; 68 38; 69 12; 70 187; 
71 18; 72 14; 73 686; 74 62; 75 172; 
76 18; 77 49; 78 13; 79 18; 80 16; 
81 30; 82 112; 83 45; 84 61; 85 9; 
86 4; 87 5; 88 4; 89 17; 90 6; 
91 38; 92 11; 93 15; 94 61; 95 21; 
96 298; 97 27; 98 15; 99 11; 100 7; 
101 19; 102 18; 103 21; 104 8; 105 17; 
106 14; 107 54; 108 34; 109 14; 110 20; 
111 12; 112 14; 113 23; 114 44; 115 153; 
116 26; 117 26; 118 11; 119 20; 120 41; 
121 26; 122 27; 124 35; 125 9; 126 24; 
127 76; 128 112; 129 58; 130 27; 131 25; 
132 17; 133 18; 134 73; 136 67; 137 13; 
138 6; 139 43; 140 22; 141 86; 143 108; 
144 26; 145 27; 146 16; 147 14; 148 17; 
149 37; 150 42; 151 33; 152 60; 153 59; 
154 27; 155 41; 156 23; 157 33; 158 12; 
159 13; 160 11; 161 42; 162 68; 163 28; 
164 12; 165 52; 166 26; 167 29; 168 34; 
169 35; 170 22; 171 37; 172 12; 173 71; 
174 25; 175 17; 176 8; 177 15; 178 15; 
179 80; 180 24; 181 51; 182 26; 183 29; 
184 24; 185 37; 186 109; 187 40; 188 14; 
189 21; 190 8; 191 18; 192 11; 193 29; 
194 11; 195 18; 196 36; 197 29; 198 26; 
199 65; 200 45; 201 71; 202 19; 203 112; 
204 47; 205 38; 206 10; 207 42; 208 13; 
209 13; 210 20; 211 23; 212 39; 213 29; 
214 21; 215 25; 216 173; 217 92; 218 32; 
219 24; 220 11; 221 7; 222 4; 223 13; 
224 26; 225 19; 226 18; 227 29; 228 18; 
229 171; 230 79; 231 39; 232 38; 233 26; 
234 12; 235 6; 236 6; 237 7; 238 6; 
239 13; 240 30; 241 65; 242 122; 243 294; 
244 93; 245 76; 246 77; 247 24; 248 8; 
249 4; 250 2; 251 4; 252 4; 253 47; 
254 45; 255 229; 256 157; 257 171; 258 77; 
259 54; 260 39; 261 10; 262 5; 263 1; 
264 1; 265 2; 266 12; 267 20; 268 24; 
269 40; 270 129; 271 102; 272 246; 273 71; 
274 25; 275 8; 276 2; 277 1; 279 2; 
280 3; 281 26; 282 21; 283 29; 284 157; 
285 85; 286 235; 287 76; 288 49; 289 9; 
290 3; 291 1; 292 1; 293 1; 294 1; 
295 3; 296 7; 297 9; 298 133; 299 229; 
300 586; 301 364; 302 98; 303 22; 304 3; 
308 1; 309 1; 310 3; 311 5; 312 17; 
313 11; 314 206; 315 57; 316 16; 317 3; 
324 5; 325 2; 326 8; 327 5; 328 65; 
329 28; 330 7; 331 3; 338 1; 339 1; 
340 15; 341 8; 342 269; 343 73; 344 20; 
345 3; 346 1; 354 1; 355 10; 356 80; 
357 999; 358 270; 359 73; 360 12; 361 1; 
