Name: Hydroquinine
InChIKey: LJOQGZACKSYWCH-UHFFFAOYSA-N
Formula: C20H26N2O2
MW: 326
ExactMass: 326.199429
CASNO: 522667
ID: 1793
Comment: AAFS
Num Peaks: 207
42 122; 43 57; 44 43; 50 5; 51 11; 
52 6; 53 45; 54 32; 55 318; 56 130; 
57 41; 58 8; 62 9; 63 18; 64 9; 
65 15; 66 7; 67 77; 68 53; 69 56; 
70 68; 71 7; 72 8; 74 6; 75 10; 
76 10; 77 52; 78 9; 79 28; 80 32; 
81 35; 82 331; 83 79; 84 71; 85 13; 
87 8; 88 21; 89 41; 90 30; 91 16; 
92 6; 93 15; 94 26; 95 67; 96 54; 
97 26; 98 13; 100 8; 101 38; 102 24; 
103 21; 104 5; 106 7; 107 6; 108 45; 
109 31; 110 532; 111 114; 112 28; 113 12; 
114 13; 115 53; 116 91; 117 115; 118 17; 
120 5; 122 27; 123 46; 124 69; 125 22; 
126 169; 127 30; 128 34; 129 28; 130 30; 
131 13; 132 6; 133 6; 135 9; 136 56; 
138 999; 139 279; 140 227; 141 30; 142 24; 
143 35; 144 28; 145 60; 146 27; 151 8; 
152 75; 153 13; 154 62; 155 29; 156 18; 
157 18; 158 219; 159 279; 160 775; 161 106; 
162 9; 163 8; 166 51; 167 32; 168 63; 
169 33; 170 55; 171 23; 172 214; 173 286; 
174 160; 175 26; 176 21; 179 6; 180 7; 
181 9; 182 28; 183 26; 184 54; 185 34; 
186 223; 187 105; 188 153; 189 782; 190 97; 
191 11; 192 5; 194 5; 196 25; 197 20; 
198 48; 199 41; 200 77; 201 203; 202 162; 
203 27; 204 7; 207 6; 208 6; 209 5; 
210 14; 211 22; 212 37; 213 32; 214 106; 
215 34; 216 23; 217 15; 220 8; 224 9; 
225 11; 226 33; 227 27; 228 18; 229 21; 
230 5; 236 8; 237 7; 238 8; 239 10; 
240 34; 241 18; 242 28; 243 15; 250 5; 
251 26; 252 11; 253 17; 254 25; 255 30; 
256 6; 257 26; 264 5; 265 13; 266 8; 
267 55; 268 47; 269 160; 270 48; 271 17; 
277 5; 278 5; 279 19; 280 7; 281 17; 
282 12; 283 18; 284 9; 285 10; 293 7; 
294 6; 295 20; 297 269; 298 64; 299 9; 
307 14; 308 14; 309 79; 310 24; 311 332; 
312 76; 313 8; 316 7; 325 94; 326 913; 
327 222; 328 26; 
