Name: Hexylresorcinol
InChIKey: WFJIVOKAWHGMBH-UHFFFAOYSA-N
Formula: C12H18O2
MW: 194
ExactMass: 194.13068
CASNO: 136776
ID: 1794
Comment: AAFS / Probability Based Matching Data Base Entry
Num Peaks: 33
40 3; 41 13; 43 10; 51 6; 53 6; 
55 14; 63 3; 65 12; 66 9; 67 24; 
69 13; 77 22; 78 3; 79 8; 81 7; 
84 3; 91 9; 93 3; 94 8; 95 21; 
107 6; 110 13; 111 4; 121 5; 123 999; 
124 80; 125 7; 135 3; 136 7; 137 5; 
149 6; 194 146; 195 19; 
