Name: Myristic Acid
Synon: Fatty Acid: Myristic
Synon: Tetradecanoic acid
Synon: n-Tetradecanoic acid
InChIKey: TUNFSRHWOTWDNC-UHFFFAOYSA-N
Formula: C14H28O2
MW: 228
ExactMass: 228.20893
CASNO: 544638
ID: 1796
Comment: AAFS
Num Peaks: 96
42 96; 43 520; 44 18; 45 66; 46 2; 
51 3; 52 2; 53 28; 54 30; 55 391; 
56 90; 57 467; 58 28; 59 36; 60 778; 
61 172; 62 5; 65 5; 66 4; 67 48; 
68 42; 69 261; 70 81; 71 287; 73 999; 
74 92; 75 7; 77 4; 78 2; 79 13; 
80 5; 81 36; 82 44; 83 191; 84 105; 
85 190; 86 23; 87 201; 88 19; 89 3; 
91 3; 93 9; 94 5; 95 23; 96 36; 
97 131; 98 93; 99 62; 100 10; 101 76; 
102 18; 107 7; 108 3; 109 10; 110 21; 
111 57; 112 23; 113 33; 115 139; 116 40; 
117 5; 121 8; 122 3; 123 4; 124 12; 
125 27; 126 11; 127 12; 129 495; 130 48; 
131 4; 135 5; 138 10; 139 8; 140 9; 
143 116; 144 12; 149 3; 153 2; 157 42; 
158 7; 166 22; 167 4; 168 9; 169 4; 
171 106; 172 11; 185 288; 186 33; 187 2; 
192 2; 199 44; 200 6; 211 3; 228 160; 
229 25; 
