Name: Lignoceric Acid
Synon: Fatty Acid: Lignoceric
Synon: Tetracosanoic acid
InChIKey: QZZGJDVWLFXDLK-UHFFFAOYSA-N
Formula: C24H48O2
MW: 368
ExactMass: 368.36543
CASNO: 557595
ID: 1797
Comment: AAFS
Num Peaks: 114
42 90; 43 756; 44 32; 45 43; 53 18; 
54 51; 55 584; 56 149; 57 810; 58 44; 
60 629; 61 298; 62 10; 67 91; 68 86; 
69 434; 70 145; 71 536; 73 999; 74 73; 
77 15; 79 37; 80 19; 81 105; 82 93; 
83 382; 84 170; 85 363; 86 30; 87 219; 
88 15; 91 19; 93 20; 94 18; 95 86; 
96 107; 97 382; 98 219; 99 96; 100 23; 
101 85; 102 31; 107 28; 108 15; 109 42; 
110 43; 111 193; 112 54; 113 64; 114 14; 
115 181; 116 92; 117 16; 119 11; 121 28; 
122 10; 123 34; 124 24; 125 86; 126 22; 
127 39; 129 601; 130 64; 131 10; 135 28; 
137 15; 138 19; 139 39; 140 17; 141 18; 
143 67; 144 14; 149 22; 152 12; 153 27; 
154 13; 155 13; 157 53; 158 22; 163 11; 
167 18; 169 10; 171 99; 172 26; 180 9; 
181 12; 183 11; 185 164; 186 29; 199 32; 
200 15; 207 8; 213 71; 214 20; 227 61; 
228 13; 241 73; 242 9; 255 31; 269 120; 
270 27; 283 52; 284 20; 297 41; 306 11; 
311 31; 312 13; 325 158; 326 36; 339 18; 
340 33; 368 502; 369 135; 370 19; 
