Name: Hexane
InChIKey: VLKZOEOYAKHREP-UHFFFAOYSA-N
Formula: C6H14
MW: 86
ExactMass: 86.1095505
CASNO: 110543
ID: 1799
Comment: DEA SWL
Num Peaks: 34
15 5; 26 15; 27 146; 28 46; 29 199; 
30 5; 31 1; 32 1; 37 3; 38 12; 
39 148; 41 641; 42 279; 43 549; 44 19; 
50 8; 51 13; 52 4; 53 23; 54 8; 
55 85; 56 541; 57 999; 58 43; 62 1; 
63 2; 65 3; 67 2; 69 4; 70 9; 
71 49; 72 2; 86 156; 87 10; 
