Name: Harmine
InChIKey: BXNJHAXVSOCGBA-UHFFFAOYSA-N
Formula: C13H12N2O
MW: 212
ExactMass: 212.094963
CASNO: 442513
ID: 1801
Comment: ENFSI / NFI/Aldrich 12603EQ TR
Num Peaks: 109
37 1; 38 5; 39 14; 40 3; 41 3; 
42 9; 44 1; 49 1; 50 19; 51 29; 
52 19; 53 6; 54 3; 55 1; 56 1; 
57 3; 58 6; 61 6; 62 27; 63 50; 
64 16; 65 10; 66 3; 67 1; 68 1; 
69 1; 71 16; 73 2; 74 33; 75 48; 
76 28; 77 37; 78 9; 79 2; 80 1; 
85 23; 86 13; 87 23; 88 26; 89 25; 
90 19; 91 23; 93 1; 98 9; 99 16; 
100 32; 101 51; 102 24; 103 6; 104 3; 
106 98; 110 2; 111 4; 112 6; 113 30; 
114 39; 115 78; 116 30; 117 16; 118 3; 
123 1; 124 2; 125 6; 126 24; 127 51; 
128 47; 129 13; 130 2; 138 5; 139 7; 
140 69; 141 55; 142 32; 143 13; 144 2; 
151 2; 152 12; 153 29; 154 22; 155 8; 
156 4; 157 1; 164 1; 165 2; 166 9; 
167 39; 168 116; 169 760; 170 101; 171 7; 
179 13; 180 9; 181 28; 182 21; 183 66; 
184 19; 185 2; 194 1; 195 11; 196 12; 
197 230; 198 33; 199 2; 209 1; 210 4; 
211 64; 212 999; 213 152; 214 11; 
