Name: Triazolam
Synon: Halcion
InChIKey: JOFWLTCLBGQGBO-UHFFFAOYSA-N
Formula: C17H12Cl2N4
MW: 342
ExactMass: 342.043901
CASNO: 28911015
ID: 1803
Comment: DEA SWL
Num Peaks: 244
40 34; 41 20; 42 30; 43 1; 44 3; 
49 11; 50 60; 51 66; 52 17; 53 11; 
54 7; 55 3; 56 1; 60 3; 61 18; 
62 41; 63 64; 64 22; 65 10; 66 12; 
67 7; 68 5; 69 4; 72 4; 73 45; 
74 91; 75 308; 76 84; 77 49; 78 10; 
79 3; 80 9; 81 22; 82 21; 84 12; 
85 29; 86 34; 87 58; 88 82; 89 82; 
90 18; 91 2; 92 15; 93 17; 96 4; 
97 18; 98 32; 99 68; 100 108; 101 112; 
102 232; 103 26; 104 3; 106 33; 109 20; 
110 66; 111 218; 112 53; 113 96; 114 42; 
116 77; 117 3; 120 70; 122 16; 123 40; 
124 74; 125 56; 126 43; 127 34; 128 11; 
129 47; 130 6; 133 64; 135 15; 136 115; 
137 269; 138 130; 139 86; 140 44; 141 19; 
142 36; 143 4; 144 18; 145 12; 146 4; 
147 10; 148 13; 149 46; 150 85; 151 78; 
152 38; 154 41; 155 16; 157 2; 158 1; 
159 3; 160 9; 161 31; 162 57; 163 149; 
164 60; 165 36; 166 12; 167 3; 168 1; 
170 12; 171 7; 172 4; 173 8; 174 29; 
175 72; 176 145; 177 282; 178 60; 179 37; 
180 4; 183 2; 184 6; 185 12; 186 19; 
187 18; 188 36; 189 26; 190 39; 191 15; 
192 6; 196 2; 197 14; 198 21; 199 18; 
200 18; 201 51; 202 109; 203 335; 204 124; 
205 51; 206 7; 207 9; 208 1; 209 4; 
210 10; 211 42; 212 33; 213 27; 214 19; 
215 10; 216 10; 217 10; 218 5; 219 1; 
220 2; 221 1; 222 3; 223 4; 224 13; 
225 7; 226 12; 227 4; 228 6; 229 5; 
230 22; 231 28; 232 7; 233 12; 234 3; 
235 10; 236 11; 238 780; 239 304; 240 282; 
241 99; 242 23; 243 20; 244 15; 245 4; 
246 4; 247 4; 248 6; 249 5; 250 5; 
251 8; 252 12; 253 39; 254 10; 255 15; 
256 3; 258 2; 260 1; 261 1; 262 1; 
263 2; 264 18; 265 30; 266 44; 267 20; 
268 12; 269 2; 271 4; 272 23; 273 72; 
274 38; 275 56; 276 27; 277 35; 278 26; 
279 230; 280 49; 281 77; 282 17; 283 2; 
286 2; 287 16; 288 46; 289 16; 290 28; 
291 9; 292 6; 293 2; 299 5; 300 22; 
301 7; 302 15; 303 3; 304 4; 305 1; 
307 56; 308 11; 309 18; 310 3; 311 1; 
313 999; 314 243; 315 684; 316 153; 317 122; 
318 25; 319 2; 327 3; 342 322; 343 77; 
344 210; 345 41; 346 36; 347 7; 
