Name: Haloperidol
Synon: Haldol
InChIKey: LNEPOXFFQSENCJ-UHFFFAOYSA-N
Formula: C21H23ClFNO2
MW: 375
ExactMass: 375.140135
CASNO: 52868
ID: 1804
Comment: DEA SWL
Num Peaks: 121
41 102; 42 675; 43 87; 44 28; 50 24; 
51 31; 53 15; 54 42; 55 137; 56 276; 
57 55; 58 26; 60 37; 63 9; 68 71; 
69 49; 70 137; 71 74; 73 11; 74 13; 
75 123; 76 27; 77 51; 78 4; 82 78; 
83 186; 84 166; 85 15; 86 61; 89 22; 
91 29; 94 32; 95 429; 96 96; 97 24; 
98 101; 99 8; 101 31; 102 40; 103 43; 
104 15; 108 8; 109 45; 110 8; 111 120; 
112 63; 113 48; 114 8; 115 69; 116 23; 
117 4; 121 7; 122 11; 123 850; 124 68; 
125 132; 126 17; 127 69; 128 58; 129 83; 
130 61; 131 18; 132 4; 133 45; 135 35; 
136 4; 137 105; 138 71; 139 223; 140 19; 
141 75; 142 12; 143 10; 146 9; 147 20; 
149 26; 150 4; 151 26; 154 24; 156 7; 
163 15; 164 26; 165 200; 166 30; 167 40; 
169 8; 171 8; 174 4; 176 71; 177 35; 
178 4; 179 8; 182 4; 184 4; 189 25; 
190 23; 191 22; 192 87; 193 24; 194 36; 
206 360; 207 53; 208 125; 209 39; 210 33; 
218 14; 219 45; 220 38; 221 28; 222 36; 
224 999; 225 133; 226 321; 227 41; 236 8; 
237 759; 238 110; 239 256; 240 37; 253 16; 
281 4; 
