Name: Glipizide
Synon: Glucotrol
InChIKey: ZJJXGWJIGJFDTL-UHFFFAOYSA-N
Formula: C21H27N5O4S
MW: 445
ExactMass: 445.178375
CASNO: 29094619
ID: 1811
Comment: DEA SWL
Num Peaks: 94
40 32; 41 14; 42 17; 43 4; 44 2; 
45 2; 48 2; 50 7; 51 25; 52 72; 
53 50; 54 10; 55 10; 56 5; 57 3; 
62 4; 63 25; 64 52; 65 35; 66 150; 
67 22; 68 6; 69 2; 71 2; 73 1; 
74 2; 75 6; 76 7; 77 65; 78 26; 
79 10; 80 11; 81 7; 82 5; 83 3; 
87 2; 88 1; 89 70; 90 92; 91 50; 
92 26; 93 609; 94 98; 95 9; 102 11; 
103 58; 104 17; 105 9; 106 51; 107 43; 
108 5; 109 3; 115 3; 116 2; 117 13; 
118 22; 119 39; 120 41; 121 675; 122 52; 
123 2; 128 1; 133 2; 134 3; 135 3; 
136 2; 137 7; 138 37; 139 6; 146 1; 
148 1; 149 1; 150 999; 151 90; 152 7; 
154 1; 156 1; 167 21; 168 2; 170 4; 
182 3; 183 202; 184 22; 185 11; 186 1; 
195 1; 198 1; 199 2; 208 1; 239 21; 
240 2; 263 4; 320 11; 321 1; 
