Name: Prazosin
Synon: Furazosin
InChIKey: IENZQIKPVFGBNW-UHFFFAOYSA-N
Formula: C19H21N5O4
MW: 383
ExactMass: 383.159353
CASNO: 19216569
ID: 1814
Comment: AAFS
Num Peaks: 95
43 8; 44 6; 53 10; 55 8; 56 68; 
65 5; 66 8; 67 14; 68 7; 69 6; 
73 6; 77 6; 78 8; 79 5; 81 10; 
83 5; 90 6; 92 7; 93 5; 95 253; 
96 10; 104 13; 105 6; 117 11; 118 5; 
119 7; 130 7; 131 6; 133 13; 135 21; 
147 21; 159 8; 160 17; 161 5; 162 6; 
163 8; 172 9; 173 8; 174 5; 175 9; 
177 20; 186 5; 187 5; 188 16; 189 19; 
190 63; 191 30; 201 13; 202 5; 203 6; 
204 59; 205 96; 206 17; 215 8; 216 6; 
217 47; 218 21; 219 11; 220 38; 221 30; 
229 14; 230 12; 231 24; 233 999; 234 140; 
235 10; 243 39; 244 18; 245 300; 246 102; 
247 63; 248 6; 255 5; 257 8; 259 292; 
260 59; 261 7; 271 45; 272 22; 273 5; 
274 18; 281 8; 287 7; 288 39; 302 6; 
315 12; 340 18; 354 14; 355 6; 368 7; 
381 5; 382 50; 383 342; 384 79; 385 12; 
