Name: Fluvoxamine
Synon: Luvox
InChIKey: CJOFXWAVKWHTFT-ZHZULCJRSA-N
Formula: C15H21F3N2O2
MW: 318
ExactMass: 318.155512
CASNO: 54739183
ID: 1815
Comment: DEA SWL / Sigma lot 053K1435
Num Peaks: 195
40 15; 41 238; 42 107; 43 795; 44 417; 
45 999; 46 24; 47 3; 50 24; 51 25; 
52 7; 53 34; 54 24; 55 151; 56 76; 
57 31; 58 61; 59 18; 60 17; 61 5; 
62 8; 63 12; 64 4; 65 4; 66 3; 
67 6; 68 6; 69 26; 71 950; 72 44; 
73 6; 74 16; 75 67; 76 30; 77 14; 
78 3; 80 4; 81 9; 82 11; 83 5; 
84 5; 85 12; 86 59; 87 17; 88 7; 
89 8; 90 4; 91 10; 92 1; 93 3; 
94 12; 95 84; 96 13; 97 2; 98 2; 
99 14; 100 11; 101 11; 102 59; 103 16; 
104 3; 105 3; 106 5; 107 17; 108 5; 
109 17; 110 1; 112 2; 113 5; 114 7; 
115 38; 116 23; 117 16; 118 8; 119 20; 
120 12; 121 54; 122 6; 123 2; 125 96; 
126 108; 127 55; 128 31; 129 13; 130 36; 
131 19; 132 31; 133 19; 134 4; 135 2; 
137 3; 138 5; 139 7; 140 13; 141 17; 
142 13; 143 33; 145 466; 146 48; 147 4; 
148 2; 151 78; 152 74; 153 23; 154 5; 
155 4; 156 4; 157 8; 158 21; 159 67; 
160 17; 161 3; 162 4; 163 1; 164 17; 
165 20; 166 19; 167 4; 168 37; 169 11; 
170 32; 171 89; 172 520; 173 65; 174 22; 
175 3; 177 23; 178 8; 179 9; 180 19; 
181 3; 182 5; 183 16; 184 13; 185 83; 
187 898; 188 109; 189 9; 190 7; 191 9; 
192 6; 194 2; 195 5; 196 6; 197 5; 
198 119; 199 77; 200 329; 201 51; 202 15; 
203 9; 204 2; 206 2; 207 3; 208 4; 
209 5; 210 8; 211 28; 212 69; 213 22; 
214 66; 215 19; 216 20; 217 2; 224 22; 
226 94; 227 154; 228 63; 229 12; 230 7; 
239 3; 240 3; 241 1; 242 29; 243 3; 
244 78; 245 12; 255 1; 256 15; 257 6; 
258 48; 259 43; 260 8; 270 5; 271 3; 
273 7; 274 1; 276 500; 277 71; 278 8; 
287 2; 299 148; 300 23; 301 4; 319 1; 
