Name: Flutamide
InChIKey: MKXKFYHWDHIYRV-UHFFFAOYSA-N
Formula: C11H11F3N2O3
MW: 276
ExactMass: 276.072176
CASNO: 13311847
ID: 1816
Comment: AAFS
Num Peaks: 49
42 38; 43 999; 44 35; 52 10; 53 5; 
55 18; 56 5; 57 6; 62 11; 63 51; 
64 8; 69 19; 70 204; 71 675; 72 30; 
74 6; 75 19; 81 9; 83 5; 88 8; 
89 5; 90 5; 94 8; 108 6; 112 6; 
113 13; 120 6; 125 9; 128 5; 131 5; 
132 34; 133 8; 138 5; 139 11; 140 9; 
143 17; 144 11; 159 8; 160 38; 174 5; 
176 28; 186 21; 187 58; 188 5; 190 46; 
206 20; 233 20; 276 112; 277 15; 
