Name: Flurbiprofen
InChIKey: SYTBZMRGLBWNTM-UHFFFAOYSA-N
Formula: C15H13FO2
MW: 244
ExactMass: 244.089958
CASNO: 5104494
ID: 1817
Comment: AAFS / Probability Based Matching Data Base Entry
Num Peaks: 77
41 11; 43 15; 44 1; 45 17; 51 25; 
55 17; 57 17; 63 13; 69 16; 71 10; 
73 18; 74 14; 75 24; 76 15; 77 56; 
81 16; 83 16; 85 28; 86 11; 87 13; 
88 19; 89 15; 91 12; 92 11; 95 11; 
96 14; 97 15; 98 31; 99 20; 101 21; 
103 17; 105 10; 115 12; 120 13; 121 20; 
123 9; 125 15; 127 10; 133 34; 139 9; 
144 9; 145 9; 146 13; 150 21; 151 37; 
152 76; 153 36; 157 20; 159 15; 163 9; 
165 25; 166 9; 168 13; 169 22; 170 88; 
171 45; 172 25; 175 9; 176 44; 177 49; 
178 247; 179 171; 180 26; 181 11; 183 192; 
184 159; 185 67; 195 9; 196 65; 197 75; 
198 67; 199 999; 200 154; 201 14; 244 461; 
245 70; 246 10; 
