Name: Fluoxetine
Synon: Prozac
InChIKey: RTHCYVBBDHJXIQ-UHFFFAOYSA-N
Formula: C17H18F3NO
MW: 309
ExactMass: 309.134048
CASNO: 54910893
ID: 1819
Comment: DEA SWL
Num Peaks: 112
40 1; 41 7; 42 53; 44 999; 45 27; 
50 7; 51 18; 52 5; 53 2; 54 1; 
55 1; 56 7; 57 10; 58 7; 59 30; 
60 1; 62 4; 63 21; 64 6; 65 16; 
66 1; 68 3; 69 2; 70 13; 71 1; 
74 4; 75 9; 76 7; 77 52; 78 51; 
79 7; 81 1; 83 16; 84 1; 87 2; 
88 6; 89 12; 91 60; 92 5; 93 1; 
94 1; 95 10; 96 1; 99 1; 101 1; 
102 12; 103 61; 104 103; 105 30; 106 4; 
107 3; 112 11; 113 21; 114 13; 115 39; 
116 9; 117 25; 118 25; 119 8; 120 8; 
121 1; 125 6; 126 3; 127 2; 128 1; 
130 5; 131 3; 132 17; 133 27; 134 2; 
141 1; 143 30; 144 7; 145 23; 146 25; 
147 15; 148 39; 149 4; 151 1; 152 3; 
153 3; 154 3; 159 3; 161 9; 162 44; 
163 4; 164 22; 165 4; 175 1; 176 1; 
178 1; 181 1; 183 31; 184 4; 186 2; 
187 2; 188 1; 201 2; 203 4; 204 1; 
205 5; 231 1; 232 4; 233 1; 249 1; 
251 11; 252 7; 277 2; 278 2; 309 52; 
310 10; 311 1; 
