Name: Flavone
InChIKey: VHBFFQKBGNRLFZ-UHFFFAOYSA-N
Formula: C15H10O2
MW: 222
ExactMass: 222.06808
CASNO: 525826
ID: 1823
Comment: AAFS / Probability Based Matching Data Base Entry
Num Peaks: 56
50 65; 51 64; 52 21; 53 16; 55 6; 
61 9; 62 40; 63 162; 64 133; 65 19; 
66 8; 69 34; 73 9; 74 69; 75 64; 
76 92; 77 65; 78 6; 82 106; 85 6; 
86 11; 87 20; 88 7; 89 27; 90 7; 
91 12; 92 433; 93 31; 97 122; 99 6; 
101 13; 102 110; 103 9; 105 17; 111 6; 
113 7; 115 11; 120 515; 121 45; 122 6; 
126 7; 129 21; 139 32; 152 6; 163 27; 
164 26; 165 108; 166 19; 181 6; 194 453; 
195 65; 196 6; 221 389; 222 999; 223 156; 
224 16; 
