Name: Fenoprofen
InChIKey: RDJGLLICXDHJDY-UHFFFAOYSA-N
Formula: C15H14O3
MW: 242
ExactMass: 242.094295
CASNO: 31879057
ID: 1827
Comment: AAFS / Probability Based Matching Data Base Entry
Num Peaks: 143
37 1; 38 7; 39 51; 40 5; 41 12; 
42 1; 43 14; 45 54; 46 1; 50 33; 
51 125; 52 17; 53 16; 54 2; 55 20; 
56 1; 57 3; 60 3; 61 2; 62 11; 
63 46; 64 20; 65 142; 66 19; 67 5; 
68 3; 69 7; 70 4; 71 3; 73 7; 
74 20; 75 21; 76 34; 77 285; 78 91; 
79 18; 80 2; 81 5; 82 7; 83 6; 
84 5; 85 3; 86 2; 87 5; 88 3; 
89 27; 91 293; 92 52; 93 42; 94 17; 
95 5; 96 1; 97 6; 98 28; 101 6; 
102 32; 103 134; 104 138; 105 52; 106 5; 
107 3; 109 1; 111 1; 112 1; 113 3; 
114 2; 115 41; 116 6; 117 3; 118 2; 
119 61; 120 18; 121 13; 122 2; 126 2; 
127 7; 128 24; 129 18; 130 2; 131 11; 
132 3; 133 3; 134 3; 135 2; 137 2; 
139 16; 140 4; 141 50; 142 11; 143 2; 
144 1; 147 1; 149 1; 150 1; 151 7; 
152 41; 153 35; 154 33; 155 16; 156 2; 
157 3; 163 2; 164 3; 165 30; 166 8; 
167 20; 168 45; 169 62; 170 16; 171 4; 
176 4; 177 10; 178 71; 179 54; 180 9; 
181 84; 182 64; 183 51; 184 8; 185 2; 
186 1; 193 1; 194 2; 195 26; 197 955; 
198 181; 199 21; 200 2; 209 1; 213 2; 
214 14; 215 1; 218 4; 223 1; 224 4; 
227 1; 228 1; 230 1; 242 999; 243 163; 
244 21; 245 1; 246 2; 
