Name: Methyl stearate
Synon: Octadecanoic acid, methyl ester
Synon: Stearic acid methyl ester
InChIKey: HPEUJPJOZXNMSJ-UHFFFAOYSA-N
Formula: C19H38O2
MW: 298
ExactMass: 298.28718
CASNO: 112618
ID: 1834
Comment: DEA SWL
Num Peaks: 114
40 6; 41 218; 42 46; 43 337; 44 12; 
45 10; 51 1; 53 15; 54 18; 55 283; 
56 52; 57 187; 58 13; 59 94; 60 3; 
61 2; 65 3; 66 1; 67 36; 68 16; 
69 145; 70 26; 71 63; 72 4; 73 24; 
74 999; 75 225; 76 10; 77 3; 78 1; 
79 10; 80 3; 81 29; 82 11; 83 93; 
84 35; 85 31; 86 1; 87 744; 88 62; 
89 5; 91 2; 93 8; 94 2; 95 23; 
96 9; 97 78; 98 32; 99 7; 100 2; 
101 66; 102 6; 107 6; 108 1; 109 11; 
110 4; 111 29; 112 7; 113 4; 114 1; 
115 22; 116 9; 117 1; 121 8; 122 1; 
123 6; 124 2; 125 13; 126 2; 127 2; 
129 71; 130 16; 131 1; 135 6; 136 1; 
137 2; 138 1; 139 6; 140 1; 141 1; 
143 204; 144 20; 145 1; 149 4; 151 1; 
153 3; 157 22; 158 3; 163 2; 167 1; 
171 10; 172 2; 177 1; 181 1; 185 27; 
186 5; 199 57; 200 8; 213 17; 214 2; 
227 5; 228 1; 241 12; 242 2; 255 64; 
256 11; 257 1; 267 23; 268 4; 269 11; 
270 2; 298 53; 299 11; 300 1; 
