Name: Methyl salicylate
Synon: Methyl o-hydroxybenzoate
InChIKey: OSWPMRLSEDHDFF-UHFFFAOYSA-N
Formula: C8H8O3
MW: 152
ExactMass: 152.047344
CASNO: 119368
ID: 1837
Comment: AAFS / Probability Based Matching Data Base Entry
Num Peaks: 26
50 20; 51 10; 52 10; 53 60; 61 10; 
62 30; 63 100; 64 120; 65 180; 66 20; 
74 10; 75 10; 76 20; 77 10; 81 20; 
91 10; 92 540; 93 120; 94 10; 95 10; 
120 999; 121 290; 122 20; 152 490; 153 40; 
154 10; 
