Name: Methyldopa
InChIKey: CJCSPKMFHVPWAR-UHFFFAOYSA-N
Formula: C10H13NO4
MW: 211
ExactMass: 211.084458
CASNO: 555306
ID: 1840
Comment: AAFS / Probability Based Matching Data Base Entry
Num Peaks: 98
42 420; 43 61; 44 13; 45 30; 46 2; 
47 1; 50 19; 51 102; 52 24; 53 28; 
54 10; 55 27; 56 20; 57 32; 58 9; 
60 18; 61 2; 62 10; 63 23; 64 9; 
65 37; 66 33; 67 24; 68 8; 69 6; 
70 19; 71 20; 72 1; 73 1; 74 8; 
75 12; 76 15; 77 186; 78 67; 79 20; 
80 12; 81 14; 82 5; 83 19; 86 1; 
88 999; 89 71; 90 9; 91 20; 92 8; 
93 13; 94 27; 95 14; 96 4; 97 2; 
101 3; 102 14; 103 65; 104 17; 105 37; 
106 25; 107 16; 108 5; 109 6; 110 13; 
111 2; 116 1; 117 4; 118 7; 119 3; 
120 6; 121 15; 122 11; 123 550; 124 266; 
125 22; 126 2; 130 3; 131 33; 132 7; 
133 5; 134 5; 135 4; 136 8; 137 3; 
138 1; 139 1; 146 6; 147 5; 148 10; 
149 13; 150 10; 151 13; 152 2; 162 1; 
163 1; 164 2; 165 21; 166 136; 167 13; 
179 1; 211 18; 212 5; 
