Name: Methyldihydromorphinone
Synon: Morphinan-6-one, 4,5-.alpha.-epoxy-3-hydroxy-5-.beta.-17-dimethyl-
InChIKey: NPZXCTIHHUUEEJ-UHFFFAOYSA-N
Formula: C18H21NO3
MW: 299
ExactMass: 299.152143
CASNO: 143522
ID: 1841
Comment: AAFS / Probability Based Matching Data Base Entry
Num Peaks: 204
42 203; 43 104; 44 72; 45 11; 50 7; 
51 36; 52 15; 53 31; 54 18; 55 93; 
56 26; 57 40; 58 62; 59 90; 60 19; 
62 6; 63 31; 64 10; 65 33; 66 15; 
67 30; 68 42; 69 29; 70 101; 71 22; 
72 10; 73 12; 74 9; 75 17; 76 20; 
77 106; 78 37; 79 33; 80 17; 81 33; 
82 100; 83 40; 84 56; 85 15; 86 35; 
87 13; 88 7; 89 29; 90 13; 91 79; 
92 17; 93 16; 94 46; 95 21; 96 269; 
97 37; 98 31; 99 18; 100 13; 101 16; 
102 33; 103 43; 104 20; 105 35; 106 17; 
107 31; 108 23; 109 15; 110 32; 111 14; 
112 18; 113 28; 115 142; 116 33; 117 27; 
118 18; 119 15; 120 18; 121 51; 123 19; 
124 32; 125 15; 126 20; 127 77; 128 118; 
129 51; 130 17; 131 52; 132 22; 133 13; 
134 22; 135 10; 136 10; 137 12; 138 9; 
139 39; 140 13; 141 56; 142 19; 143 27; 
144 31; 145 31; 146 28; 147 34; 148 41; 
149 38; 151 14; 152 42; 153 38; 154 22; 
155 31; 156 15; 157 44; 158 19; 159 16; 
160 24; 161 29; 162 32; 163 20; 164 20; 
165 30; 166 14; 167 22; 168 23; 169 36; 
170 18; 171 65; 172 26; 173 64; 174 29; 
175 36; 176 67; 177 21; 178 9; 179 6; 
180 5; 181 31; 182 18; 183 19; 184 35; 
185 210; 186 76; 187 62; 188 69; 189 35; 
190 9; 191 4; 193 8; 194 6; 195 26; 
196 13; 197 40; 198 107; 199 134; 200 73; 
201 46; 202 57; 203 118; 204 22; 205 5; 
207 4; 208 4; 209 8; 210 14; 211 22; 
212 81; 213 90; 214 142; 215 51; 216 28; 
217 10; 223 7; 224 35; 225 28; 226 32; 
227 29; 228 221; 229 56; 230 70; 231 30; 
232 15; 233 10; 238 7; 239 7; 240 57; 
241 45; 242 316; 243 239; 244 54; 245 18; 
246 6; 253 4; 254 21; 255 9; 256 91; 
257 19; 258 4; 268 5; 270 68; 271 49; 
272 8; 282 17; 283 6; 284 48; 285 9; 
298 158; 299 999; 300 201; 301 31; 
