Name: Orthocaine
Synon: Methyl 3-amino-4-hydroxybenzoate
InChIKey: VNQABZCSYCTZMS-UHFFFAOYSA-N
Formula: C8H9NO3
MW: 167
ExactMass: 167.058243
CASNO: 536254
ID: 1842
Comment: AAFS / Probability Based Matching Data Base Entry
Num Peaks: 93
41 20; 42 8; 43 22; 44 13; 45 13; 
48 5; 50 39; 51 76; 52 86; 53 130; 
54 53; 55 34; 56 8; 57 25; 58 7; 
59 10; 60 19; 61 10; 62 25; 63 53; 
64 11; 65 18; 66 9; 67 19; 68 42; 
69 30; 70 13; 71 19; 72 5; 73 29; 
74 7; 75 9; 76 25; 77 21; 78 70; 
79 76; 80 289; 81 33; 82 8; 83 20; 
85 11; 86 6; 87 7; 88 2; 89 4; 
90 21; 91 30; 92 6; 93 4; 94 5; 
95 21; 96 10; 97 11; 98 7; 99 4; 
100 4; 101 4; 103 2; 104 2; 105 4; 
106 37; 107 84; 108 395; 109 77; 110 38; 
111 10; 112 4; 113 3; 115 7; 117 3; 
118 2; 121 10; 122 20; 123 8; 124 4; 
125 3; 127 2; 129 8; 130 3; 133 4; 
135 19; 136 999; 137 88; 138 4; 143 2; 
149 6; 150 3; 151 3; 152 10; 153 2; 
165 12; 167 465; 169 4; 
