Name: Methenolone Acetate
InChIKey: PGAUJQOPTMSERF-UHFFFAOYSA-N
Formula: C22H32O3
MW: 344
ExactMass: 344.235146
CASNO: 434059
ID: 1846
Comment: DEA SWL
Num Peaks: 235
40 14; 41 149; 43 831; 44 21; 45 7; 
50 1; 51 11; 52 8; 53 73; 54 16; 
55 167; 56 10; 57 19; 58 2; 59 1; 
60 1; 61 2; 63 3; 65 57; 66 24; 
67 173; 68 28; 69 80; 70 6; 71 12; 
72 1; 73 2; 75 1; 77 203; 78 46; 
79 418; 80 58; 81 204; 82 75; 83 200; 
84 20; 85 8; 86 5; 89 2; 91 385; 
92 63; 93 331; 94 236; 95 235; 96 60; 
97 29; 98 10; 99 7; 100 2; 101 2; 
102 3; 103 29; 104 22; 105 243; 106 68; 
107 320; 108 166; 109 191; 110 47; 111 17; 
112 2; 113 1; 115 46; 116 23; 117 73; 
118 25; 119 167; 120 72; 121 361; 122 380; 
123 999; 124 478; 125 64; 126 5; 127 10; 
128 36; 129 44; 130 21; 131 98; 132 35; 
133 236; 134 130; 135 659; 136 903; 137 536; 
138 62; 139 8; 140 2; 141 16; 142 17; 
143 36; 144 37; 145 113; 146 65; 147 193; 
148 334; 149 240; 150 56; 151 24; 152 12; 
153 8; 154 3; 155 11; 156 8; 157 33; 
158 27; 159 107; 160 220; 161 338; 162 88; 
163 41; 164 8; 165 16; 166 5; 167 7; 
168 2; 169 12; 170 7; 171 42; 172 17; 
173 71; 174 36; 175 54; 176 21; 177 21; 
178 8; 179 19; 180 6; 181 6; 182 4; 
183 13; 184 7; 185 42; 186 68; 187 67; 
188 30; 189 24; 190 18; 191 13; 192 2; 
193 5; 194 1; 195 5; 196 2; 197 11; 
198 7; 199 46; 200 23; 201 30; 202 24; 
203 17; 204 8; 205 5; 206 1; 207 5; 
208 12; 209 7; 210 2; 211 7; 212 4; 
213 32; 214 11; 215 38; 216 8; 217 6; 
218 2; 219 2; 220 3; 221 19; 222 3; 
223 10; 224 2; 225 8; 227 31; 228 13; 
229 9; 230 3; 231 3; 232 2; 233 4; 
234 1; 237 2; 238 1; 239 2; 241 55; 
242 23; 243 21; 244 4; 246 101; 247 25; 
248 3; 251 10; 252 1; 253 2; 254 1; 
255 6; 256 8; 257 4; 258 10; 259 33; 
260 18; 261 6; 262 3; 265 1; 266 6; 
267 3; 269 62; 270 11; 271 1; 273 4; 
274 5; 275 5; 276 1; 281 1; 282 1; 
283 6; 284 59; 285 20; 287 49; 288 11; 
289 3; 290 1; 302 248; 303 57; 304 8; 
305 1; 313 1; 315 1; 316 3; 329 13; 
330 3; 344 198; 345 46; 346 7; 347 1; 
