Name: Metharbital
InChIKey: FWJKNZONDWOGMI-UHFFFAOYSA-N
Formula: C9H14N2O3
MW: 198
ExactMass: 198.100442
CASNO: 50113
ID: 1847
Comment: DEA SWL
Num Peaks: 70
40 19; 41 134; 42 41; 43 14; 44 25; 
45 2; 50 2; 51 7; 52 8; 53 50; 
54 35; 55 152; 56 56; 57 16; 58 47; 
59 1; 63 1; 64 1; 65 5; 66 11; 
67 22; 68 19; 69 95; 70 56; 71 4; 
73 2; 77 1; 78 2; 80 11; 81 4; 
82 9; 83 146; 84 29; 85 19; 86 1; 
94 18; 95 10; 96 10; 97 45; 98 118; 
99 12; 100 1; 101 1; 108 7; 109 1; 
110 3; 111 3; 112 235; 113 17; 114 2; 
124 2; 126 99; 127 22; 128 1; 129 1; 
138 1; 140 8; 141 5; 142 6; 143 1; 
153 1; 155 999; 156 73; 157 8; 167 1; 
168 1; 169 208; 170 755; 171 65; 172 6; 
