Name: Methandriol Dipropionate
InChIKey: YUKFLTKJFMBYJM-UHFFFAOYSA-N
Formula: C26H40O4
MW: 416
ExactMass: 416.29266
CASNO: 3593859
ID: 1850
Comment: DEA SWL
Num Peaks: 169
40 4; 41 74; 42 9; 43 171; 44 9; 
45 14; 51 6; 53 32; 55 101; 57 999; 
58 39; 59 8; 65 19; 66 8; 67 119; 
68 9; 69 47; 71 28; 73 10; 74 14; 
75 11; 77 78; 78 21; 79 172; 80 22; 
81 225; 82 19; 83 20; 85 21; 89 4; 
91 275; 92 51; 93 171; 94 36; 95 103; 
96 11; 97 17; 98 5; 99 12; 103 26; 
105 288; 106 72; 107 224; 108 88; 109 89; 
110 6; 111 9; 112 6; 113 6; 115 45; 
116 23; 117 128; 118 49; 119 144; 120 82; 
121 145; 122 46; 123 46; 124 5; 125 5; 
127 15; 128 49; 129 92; 130 43; 131 155; 
132 40; 133 135; 134 29; 135 41; 136 7; 
137 7; 141 45; 142 43; 143 197; 144 95; 
145 270; 146 86; 147 247; 148 64; 149 41; 
150 8; 151 11; 152 6; 153 8; 154 10; 
155 36; 156 16; 157 137; 158 175; 159 211; 
160 131; 161 136; 162 61; 163 100; 164 16; 
165 15; 166 7; 167 7; 168 7; 169 33; 
170 15; 171 57; 172 33; 173 63; 174 29; 
175 31; 176 7; 177 12; 179 7; 180 4; 
181 11; 182 10; 183 42; 184 19; 185 50; 
186 23; 187 37; 188 11; 189 6; 191 4; 
195 11; 197 83; 198 29; 199 78; 200 24; 
201 39; 202 4; 203 6; 207 11; 209 10; 
211 144; 212 83; 213 117; 214 29; 215 29; 
216 5; 223 3; 225 33; 226 74; 227 247; 
228 103; 229 14; 237 8; 238 4; 239 23; 
240 11; 241 7; 243 4; 251 15; 253 365; 
254 72; 255 11; 265 4; 267 132; 268 212; 
269 101; 270 20; 271 13; 281 7; 285 37; 
286 8; 295 13; 309 5; 324 6; 327 37; 
328 11; 342 511; 343 139; 344 22; 
