Name: Sibutramine
Synon: Meridia
InChIKey: UNAANXDKBXWMLN-UHFFFAOYSA-N
Formula: C17H26ClN
MW: 279
ExactMass: 279.175377
CASNO: 106650560
ID: 1854
Comment: DEA SWL
Num Peaks: 98
41 17; 42 26; 43 21; 44 13; 45 1; 
46 1; 50 1; 51 4; 52 1; 53 4; 
54 1; 55 6; 56 17; 57 16; 58 46; 
59 1; 63 3; 64 1; 65 2; 67 1; 
68 2; 69 2; 70 16; 71 20; 72 130; 
73 6; 74 1; 75 7; 76 3; 77 6; 
79 8; 80 4; 81 1; 82 4; 83 1; 
84 6; 85 1; 86 1; 89 4; 90 1; 
91 2; 94 1; 96 1; 97 2; 98 16; 
99 3; 100 1; 101 21; 102 19; 103 5; 
111 2; 112 3; 113 3; 114 999; 115 105; 
116 11; 117 1; 125 20; 126 3; 127 16; 
128 21; 129 19; 130 9; 131 1; 136 5; 
137 20; 138 4; 139 8; 140 1; 141 4; 
142 3; 143 2; 144 4; 149 3; 150 1; 
151 2; 152 1; 153 1; 154 1; 156 1; 
157 1; 158 7; 159 1; 162 1; 163 1; 
164 2; 165 4; 166 1; 167 1; 177 1; 
178 4; 179 2; 180 1; 186 1; 192 2; 
194 3; 222 3; 224 1; 
