Name: (-) Menthol
InChIKey: NOOLISFMXDJSKH-UHFFFAOYSA-N
Formula: C10H20O
MW: 156
ExactMass: 156.151415
CASNO: 2216515
ID: 1859
Comment: DEA SWL
Num Peaks: 74
40 47; 41 732; 42 113; 43 471; 44 78; 
45 33; 46 1; 50 7; 51 32; 52 15; 
53 154; 54 66; 55 556; 56 220; 57 386; 
58 38; 59 16; 60 1; 62 1; 63 7; 
64 1; 65 48; 66 15; 67 431; 68 137; 
69 337; 70 147; 71 999; 72 54; 73 12; 
74 1; 76 1; 77 58; 78 13; 79 85; 
80 121; 81 909; 82 382; 83 130; 84 37; 
85 100; 86 29; 87 4; 89 1; 91 29; 
92 4; 93 54; 94 64; 95 794; 96 277; 
97 55; 98 6; 99 35; 100 4; 103 1; 
105 2; 107 4; 108 2; 109 146; 110 80; 
111 19; 112 16; 113 12; 121 1; 123 353; 
124 38; 125 3; 137 7; 138 167; 139 20; 
140 1; 141 5; 154 1; 155 1; 
