Name: Melatonin
Synon: N-acetyl-5-methoxytryptamine
Synon: TIHKAL #35
InChIKey: DRLFMBDRBRZALE-UHFFFAOYSA-N
Formula: C13H16N2O2
MW: 232
ExactMass: 232.121178
CASNO: 73314
ID: 1860
Comment: DEA SWL / Aldrich lot 10528HO
Num Peaks: 90
40 2; 41 3; 42 10; 43 98; 44 5; 
50 8; 51 14; 52 12; 53 4; 54 2; 
55 1; 56 1; 59 1; 60 1; 62 8; 
63 29; 64 10; 65 11; 66 2; 67 1; 
71 1; 72 8; 73 1; 74 6; 75 12; 
76 15; 77 29; 78 10; 79 3; 80 3; 
86 2; 87 5; 88 6; 89 71; 90 58; 
91 17; 92 3; 93 1; 98 1; 100 1; 
101 8; 102 28; 103 26; 104 12; 105 3; 
113 2; 114 4; 115 24; 116 45; 117 207; 
118 33; 119 4; 127 2; 128 21; 129 27; 
130 72; 131 19; 132 10; 133 3; 140 1; 
141 3; 142 11; 143 12; 144 38; 145 259; 
146 45; 147 11; 148 1; 155 3; 156 4; 
158 137; 160 999; 161 117; 162 12; 170 1; 
171 3; 173 928; 174 129; 175 13; 176 1; 
187 1; 188 4; 189 11; 190 2; 201 1; 
214 1; 217 1; 232 195; 233 29; 234 3; 
