Name: Maprotiline
InChIKey: QSLMDECMDJKHMQ-UHFFFAOYSA-N
Formula: C20H23N
MW: 277
ExactMass: 277.18305
CASNO: 10262698
ID: 1864
Comment: AAFS / Probability Based Matching Data Base Entry
Num Peaks: 161
35 6; 37 6; 39 6; 41 11; 42 56; 
44 679; 45 22; 46 1; 47 4; 49 7; 
51 5; 52 6; 56 50; 57 54; 58 13; 
59 535; 60 18; 62 7; 63 6; 65 5; 
68 5; 70 528; 71 253; 72 24; 74 1; 
75 9; 76 7; 77 13; 79 5; 82 7; 
85 5; 87 11; 88 1; 89 19; 91 26; 
92 6; 94 28; 96 8; 97 2; 98 7; 
99 10; 101 29; 102 6; 103 5; 104 4; 
105 11; 106 14; 107 22; 108 13; 111 6; 
112 6; 114 2; 115 26; 116 12; 117 23; 
118 5; 119 5; 120 1; 121 1; 122 8; 
124 6; 125 5; 126 9; 127 9; 128 19; 
129 8; 130 4; 131 8; 132 5; 135 3; 
138 5; 139 8; 140 5; 141 18; 142 10; 
143 4; 145 3; 149 5; 150 23; 151 29; 
152 41; 153 8; 154 7; 155 5; 157 4; 
161 3; 162 4; 163 26; 164 15; 165 85; 
166 14; 167 5; 168 1; 169 4; 170 3; 
174 9; 175 10; 176 85; 177 43; 178 197; 
179 46; 180 2; 181 3; 182 2; 186 4; 
187 22; 188 25; 189 180; 190 93; 191 204; 
192 78; 193 12; 194 5; 197 4; 199 4; 
200 38; 201 44; 202 260; 203 305; 204 201; 
205 108; 206 18; 207 2; 213 17; 214 7; 
215 75; 216 34; 217 133; 218 143; 219 35; 
220 19; 221 3; 225 3; 227 2; 228 13; 
229 12; 230 6; 231 7; 232 9; 233 9; 
234 7; 235 3; 239 3; 243 6; 244 6; 
245 5; 246 23; 247 14; 248 14; 249 8; 
258 8; 259 7; 260 3; 262 10; 263 13; 
274 4; 275 9; 277 999; 278 226; 279 23; 
280 5; 
