Name: Lidocaine
Synon: Xylocaine
InChIKey: NNJVILVZKWQKPM-UHFFFAOYSA-N
Formula: C14H22N2O
MW: 234
ExactMass: 234.173213
CASNO: 137586
ID: 1868
Comment: DEA SWL
Num Peaks: 73
38 1; 39 9; 40 2; 41 8; 42 36; 
43 13; 44 5; 50 1; 51 6; 52 4; 
53 5; 54 4; 55 2; 56 35; 57 14; 
58 82; 59 3; 63 3; 64 1; 65 9; 
66 2; 67 1; 70 5; 71 2; 72 28; 
73 2; 76 1; 77 25; 78 6; 79 8; 
80 2; 84 11; 85 7; 86 999; 87 59; 
88 2; 89 2; 90 1; 91 24; 92 5; 
93 3; 94 1; 102 2; 103 8; 104 4; 
105 11; 106 5; 107 1; 109 1; 115 1; 
116 2; 117 4; 118 10; 119 7; 120 27; 
121 6; 122 1; 130 3; 131 1; 132 7; 
133 2; 134 7; 144 1; 145 1; 146 2; 
147 5; 148 5; 160 1; 163 1; 217 1; 
219 1; 234 9; 235 1; 
