Name: Vardenafil
Synon: Levitra
InChIKey: SECKRCOLJRRGGV-UHFFFAOYSA-N
Formula: C23H32N6O4S
MW: 488
ExactMass: 488.220575
CASNO: 224785904
ID: 1872
Comment: DEA SWL
Num Peaks: 81
41 8; 42 40; 43 14; 44 11; 48 1; 
51 1; 52 2; 53 4; 54 9; 55 14; 
56 103; 57 18; 58 27; 59 1; 63 1; 
64 4; 66 4; 67 15; 68 6; 69 5; 
70 111; 71 9; 72 57; 73 4; 77 2; 
78 2; 80 3; 81 4; 82 4; 83 6; 
84 23; 85 6; 90 2; 91 2; 92 1; 
93 7; 94 8; 95 1; 96 3; 97 8; 
98 50; 99 4; 103 2; 105 2; 106 1; 
109 4; 110 5; 111 20; 112 8; 113 999; 
114 73; 115 3; 118 2; 119 7; 120 2; 
121 7; 122 4; 123 7; 131 1; 132 1; 
133 4; 134 1; 135 6; 145 2; 147 2; 
149 6; 151 5; 166 1; 193 1; 207 3; 
209 1; 254 2; 281 1; 282 6; 283 14; 
284 3; 296 1; 311 3; 312 1; 488 8; 
489 2; 
