Name: Levodopa
Synon: L-DOPA
InChIKey: WTDRDQBEARUVNC-UHFFFAOYSA-N
Formula: C9H11NO4
MW: 197
ExactMass: 197.068808
CASNO: 59927
ID: 1874
Comment: AAFS / Probability Based Matching Data Base Entry
Num Peaks: 59
42 3; 43 3; 45 4; 46 7; 50 8; 
51 35; 52 9; 53 28; 54 3; 55 7; 
56 1; 57 7; 61 2; 62 7; 63 9; 
64 2; 65 10; 66 11; 67 19; 68 2; 
74 55; 75 26; 76 20; 77 95; 78 23; 
79 12; 80 4; 81 4; 89 4; 92 1; 
93 1; 94 6; 95 4; 104 4; 105 23; 
106 15; 107 29; 108 3; 109 5; 110 8; 
116 1; 121 2; 123 999; 124 124; 125 9; 
132 5; 133 3; 134 8; 135 9; 136 6; 
149 1; 150 1; 151 12; 152 24; 153 4; 
179 2; 180 2; 197 66; 198 6; 
