Name: Laudanosine
InChIKey: KGPAYJZAMGEDIQ-UHFFFAOYSA-N
Formula: C21H27NO4
MW: 357
ExactMass: 357.194008
CASNO: 1699510
ID: 1875
Comment: AAFS / ATRACURIUM METABOLITE
Num Peaks: 73
42 15; 44 1; 51 4; 52 1; 53 1; 
63 2; 64 1; 65 8; 66 1; 76 1; 
77 9; 78 7; 79 4; 80 2; 89 4; 
90 5; 91 7; 92 2; 93 1; 94 1; 
102 2; 103 3; 104 1; 105 6; 106 7; 
107 12; 108 3; 115 3; 116 1; 117 3; 
118 5; 119 2; 120 1; 121 1; 128 1; 
130 2; 131 4; 132 19; 133 5; 134 1; 
135 3; 143 1; 144 5; 145 19; 146 6; 
147 4; 148 10; 149 1; 151 25; 152 4; 
153 1; 159 2; 160 8; 161 15; 162 32; 
163 4; 165 2; 173 3; 174 7; 175 2; 
176 3; 177 1; 188 7; 190 104; 191 38; 
192 4; 204 13; 206 999; 207 124; 208 12; 
209 1; 340 2; 356 1; 
