Name: Nandrolone Phenylpropionate
InChIKey: UBWXUGDQUBIEIZ-UHFFFAOYSA-N
Formula: C27H34O3
MW: 406
ExactMass: 406.250795
CASNO: 62908
ID: 1878
Comment: DEA SWL
Num Peaks: 157
40 8; 41 69; 42 7; 43 32; 44 2; 
50 6; 51 22; 52 10; 53 40; 54 10; 
55 112; 56 7; 57 8; 63 8; 65 67; 
66 14; 67 82; 68 10; 69 18; 71 5; 
73 3; 77 176; 78 67; 79 239; 80 38; 
81 94; 82 13; 83 22; 84 3; 85 3; 
86 3; 89 12; 91 872; 92 83; 93 97; 
94 31; 95 79; 96 9; 97 15; 98 2; 
101 2; 102 13; 103 94; 104 168; 105 767; 
106 85; 107 250; 108 39; 109 65; 110 122; 
111 14; 115 29; 116 15; 117 65; 118 24; 
119 78; 120 37; 121 42; 122 27; 123 43; 
124 8; 127 4; 128 23; 129 38; 130 16; 
131 77; 132 27; 133 201; 134 42; 135 149; 
136 20; 137 9; 139 2; 141 12; 142 10; 
143 34; 144 17; 145 67; 146 42; 147 249; 
148 47; 149 56; 150 34; 151 6; 152 2; 
153 3; 155 9; 156 5; 157 25; 158 14; 
159 46; 160 24; 161 72; 162 25; 163 31; 
164 9; 165 7; 168 2; 169 11; 170 5; 
171 21; 172 14; 173 23; 174 13; 175 23; 
176 7; 177 4; 181 6; 182 3; 183 17; 
184 7; 185 25; 186 16; 187 33; 188 9; 
189 14; 195 5; 197 14; 198 7; 199 32; 
200 12; 201 32; 202 9; 203 5; 207 4; 
211 10; 212 7; 213 18; 214 8; 215 60; 
216 15; 217 17; 218 6; 223 4; 227 4; 
228 8; 229 17; 230 6; 231 30; 232 5; 
237 3; 239 126; 240 26; 241 8; 246 16; 
247 3; 256 172; 257 999; 258 222; 259 29; 
260 4; 273 8; 274 11; 275 4; 346 3; 
406 9; 407 2; 
