Name: Nandrolone Laurate
Synon: Nandrolone Dodecanoate
InChIKey: OXXNTXVXBWLYQE-UHFFFAOYSA-N
Formula: C30H48O3
MW: 456
ExactMass: 456.360346
CASNO: 0
ID: 1879
Comment: DEA SWL
Num Peaks: 185
40 18; 41 508; 42 123; 43 899; 44 38; 
45 22; 51 1; 53 76; 54 44; 55 708; 
56 140; 57 855; 58 47; 59 8; 60 46; 
65 48; 66 21; 67 269; 68 67; 69 263; 
70 72; 71 363; 72 21; 73 69; 74 7; 
75 2; 77 164; 78 59; 79 329; 80 65; 
81 346; 82 60; 83 252; 84 67; 85 242; 
86 23; 87 9; 91 419; 92 77; 93 289; 
94 121; 95 409; 96 61; 97 204; 98 73; 
99 37; 101 2; 103 47; 104 43; 105 298; 
106 83; 107 298; 108 139; 109 315; 110 999; 
111 146; 112 10; 113 8; 115 79; 116 23; 
117 153; 118 61; 119 251; 120 145; 121 146; 
122 129; 123 169; 124 49; 125 16; 128 40; 
129 99; 130 42; 131 195; 132 70; 133 250; 
134 123; 135 304; 136 75; 137 48; 141 32; 
142 29; 143 86; 144 78; 145 197; 146 288; 
147 631; 148 236; 149 187; 150 34; 151 3; 
153 1; 154 2; 155 28; 156 37; 157 76; 
158 61; 159 143; 160 181; 161 174; 162 167; 
163 112; 164 73; 165 70; 167 2; 169 21; 
170 3; 171 60; 172 46; 173 80; 174 68; 
175 67; 176 11; 177 12; 179 1; 181 20; 
182 11; 183 633; 184 102; 185 87; 186 53; 
187 69; 188 19; 189 37; 191 5; 193 2; 
195 40; 196 5; 197 62; 198 28; 199 93; 
200 65; 201 57; 202 19; 203 5; 207 13; 
208 6; 209 11; 210 21; 211 10; 212 51; 
213 88; 214 76; 215 164; 216 71; 217 91; 
218 23; 223 26; 227 21; 228 81; 229 40; 
230 32; 231 316; 232 56; 237 17; 238 95; 
239 85; 240 9; 241 98; 242 14; 245 2; 
246 362; 247 65; 253 10; 254 9; 255 55; 
256 559; 257 591; 258 115; 259 39; 267 11; 
273 82; 274 828; 275 207; 276 23; 281 6; 
282 2; 283 5; 316 5; 327 16; 331 3; 
341 2; 355 6; 456 597; 457 200; 458 37; 
