Name: Nandrolone Decanoate
InChIKey: JKWKMORAXJQQSR-UHFFFAOYSA-N
Formula: C28H44O3
MW: 428
ExactMass: 428.329044
CASNO: 360703
ID: 1880
Comment: DEA SWL
Num Peaks: 200
40 20; 41 323; 42 86; 43 604; 44 14; 
45 17; 51 14; 53 69; 54 31; 55 493; 
56 86; 57 446; 58 28; 59 12; 60 51; 
65 42; 66 21; 67 221; 68 56; 69 235; 
70 45; 71 432; 72 32; 73 47; 74 2; 
75 13; 77 157; 78 40; 79 292; 80 66; 
81 322; 82 37; 83 137; 84 44; 85 268; 
86 34; 87 20; 89 10; 91 398; 92 73; 
93 283; 94 113; 95 339; 96 21; 97 98; 
98 37; 99 13; 101 15; 102 7; 103 38; 
104 43; 105 315; 106 84; 107 271; 108 139; 
109 209; 110 999; 111 131; 112 15; 113 10; 
115 75; 116 27; 117 151; 118 65; 119 236; 
120 127; 121 138; 122 110; 123 154; 124 57; 
125 12; 127 11; 128 36; 129 106; 130 46; 
131 195; 132 72; 133 222; 134 114; 135 290; 
136 71; 137 61; 141 36; 142 28; 143 77; 
144 79; 145 197; 146 286; 147 580; 148 234; 
149 169; 150 36; 151 10; 152 16; 153 13; 
154 20; 155 860; 156 95; 157 70; 158 57; 
159 148; 160 177; 161 157; 162 154; 163 91; 
164 59; 165 53; 166 8; 167 9; 168 8; 
169 28; 170 17; 171 57; 172 48; 173 77; 
174 64; 175 69; 176 20; 177 10; 179 8; 
181 16; 182 19; 183 34; 184 29; 185 82; 
186 52; 187 58; 188 17; 189 39; 190 9; 
191 2; 193 8; 195 20; 196 12; 197 44; 
198 32; 199 75; 200 59; 201 37; 202 19; 
203 16; 207 25; 208 1; 209 9; 210 14; 
211 15; 212 47; 213 85; 214 88; 215 144; 
216 68; 217 86; 218 37; 223 24; 225 7; 
227 18; 228 91; 229 37; 230 41; 231 286; 
232 46; 237 23; 238 93; 239 67; 240 12; 
241 83; 242 17; 245 15; 246 343; 247 66; 
248 8; 249 1; 253 14; 254 5; 255 58; 
256 571; 257 488; 258 83; 259 34; 272 7; 
273 70; 274 802; 275 220; 276 29; 281 5; 
316 16; 325 2; 327 4; 331 2; 341 3; 
342 12; 343 1; 355 10; 386 7; 400 9; 
403 7; 405 4; 428 456; 429 142; 430 24; 
