Name: Nandrolone Cypionate
InChIKey: REWKEGSQGOSEES-UHFFFAOYSA-N
Formula: C26H38O3
MW: 398
ExactMass: 398.282095
CASNO: 601638
ID: 1881
Comment: DEA SWL
Num Peaks: 233
40 27; 41 393; 42 61; 43 98; 44 5; 
45 4; 50 3; 51 12; 52 14; 53 101; 
54 72; 55 932; 56 53; 57 48; 58 4; 
59 4; 60 47; 61 5; 62 1; 63 3; 
65 68; 66 36; 67 341; 68 73; 69 345; 
70 23; 71 37; 72 4; 73 40; 74 5; 
75 3; 77 212; 78 72; 79 611; 80 103; 
81 482; 82 68; 83 145; 84 11; 85 16; 
86 9; 89 4; 91 448; 92 86; 93 242; 
94 95; 95 283; 96 48; 97 240; 98 20; 
99 13; 100 7; 101 4; 102 5; 103 45; 
104 46; 105 309; 106 81; 107 755; 108 147; 
109 185; 110 759; 111 84; 112 6; 113 8; 
115 80; 116 33; 117 160; 118 59; 119 219; 
120 120; 121 113; 122 100; 123 151; 124 61; 
125 827; 126 69; 127 22; 128 56; 129 106; 
130 48; 131 179; 132 70; 133 228; 134 99; 
135 234; 136 57; 137 38; 138 4; 139 5; 
141 46; 142 50; 143 92; 144 72; 145 172; 
146 233; 147 509; 148 186; 149 131; 150 31; 
151 11; 152 10; 153 10; 154 9; 155 24; 
156 19; 157 68; 158 60; 159 134; 160 151; 
161 152; 162 162; 163 92; 164 66; 165 47; 
166 12; 167 11; 168 6; 169 27; 170 15; 
171 62; 172 53; 173 82; 174 66; 175 71; 
176 18; 177 7; 178 5; 179 4; 181 17; 
182 13; 183 33; 184 21; 185 85; 186 53; 
187 67; 188 27; 189 33; 190 10; 191 4; 
192 1; 193 3; 194 3; 195 23; 196 15; 
197 40; 198 25; 199 93; 200 54; 201 51; 
202 25; 203 16; 204 4; 207 8; 208 1; 
209 12; 210 15; 211 13; 212 53; 213 90; 
214 84; 215 162; 216 64; 217 111; 218 31; 
219 4; 220 2; 221 1; 222 1; 223 21; 
224 4; 225 2; 226 2; 227 26; 228 90; 
229 50; 231 337; 232 71; 233 6; 234 1; 
237 28; 238 112; 239 75; 240 16; 241 89; 
242 20; 243 5; 246 427; 247 83; 248 6; 
252 1; 256 680; 257 886; 258 179; 259 48; 
260 9; 261 1; 269 1; 271 1; 274 999; 
275 221; 276 27; 277 3; 281 1; 283 1; 
284 1; 287 2; 288 3; 289 2; 290 1; 
301 5; 302 2; 316 53; 317 17; 318 3; 
328 1; 329 1; 338 2; 339 1; 341 1; 
342 1; 354 1; 355 1; 356 9; 357 2; 
370 11; 371 2; 380 7; 381 1; 383 2; 
398 155; 399 40; 400 7; 
