Name: Naloxone
Synon: Narcan
InChIKey: UZHSEJADLWPNLE-UHFFFAOYSA-N
Formula: C19H21NO4
MW: 327
ExactMass: 327.147058
CASNO: 465656
ID: 1883
Comment: DEA SWL
Num Peaks: 235
40 21; 41 306; 42 106; 43 62; 44 33; 
45 1; 50 7; 51 37; 52 16; 53 34; 
54 39; 55 150; 56 81; 57 41; 58 14; 
59 1; 62 5; 63 33; 64 14; 65 48; 
66 13; 67 29; 68 131; 69 46; 70 202; 
71 18; 72 4; 73 20; 74 5; 75 18; 
76 20; 77 106; 78 36; 79 31; 80 35; 
81 20; 82 155; 83 83; 84 159; 85 45; 
86 8; 87 11; 88 7; 89 54; 90 19; 
91 105; 92 19; 93 13; 94 23; 95 21; 
96 222; 97 42; 98 25; 99 12; 100 1; 
101 26; 102 45; 103 71; 104 27; 105 27; 
106 17; 107 19; 108 18; 109 17; 110 59; 
111 9; 112 8; 113 11; 114 13; 115 244; 
116 60; 117 76; 118 40; 119 20; 120 25; 
121 9; 122 10; 123 11; 124 34; 125 9; 
126 26; 127 138; 128 118; 129 65; 130 30; 
131 132; 132 43; 133 26; 134 19; 135 10; 
136 15; 137 20; 138 78; 139 32; 140 13; 
141 49; 142 25; 143 40; 144 79; 145 85; 
146 45; 147 85; 148 37; 149 11; 150 9; 
151 11; 152 46; 153 35; 154 30; 155 42; 
156 25; 157 57; 158 34; 159 48; 160 75; 
161 119; 162 66; 163 18; 164 7; 165 19; 
166 103; 167 26; 168 24; 169 41; 170 38; 
171 172; 172 81; 173 176; 174 129; 175 79; 
176 27; 177 10; 178 3; 179 4; 180 6; 
181 22; 182 22; 183 37; 184 73; 185 77; 
186 81; 187 165; 188 89; 189 32; 190 12; 
191 9; 192 1; 193 8; 194 9; 195 15; 
196 19; 197 51; 198 48; 199 54; 200 128; 
201 195; 202 149; 203 39; 204 24; 205 4; 
207 28; 208 9; 209 8; 210 20; 211 29; 
212 64; 213 47; 214 54; 215 38; 216 43; 
217 12; 218 1; 222 8; 223 13; 224 16; 
225 16; 226 35; 227 23; 228 77; 229 118; 
230 47; 231 12; 236 1; 237 1; 238 9; 
239 11; 240 49; 241 66; 242 281; 243 76; 
244 82; 245 25; 246 4; 250 1; 251 11; 
252 20; 253 12; 254 17; 255 4; 256 18; 
257 16; 258 24; 259 2; 264 7; 266 7; 
267 1; 268 14; 269 4; 270 30; 271 25; 
272 12; 280 10; 281 13; 282 13; 283 3; 
284 11; 285 8; 286 191; 287 35; 288 4; 
298 12; 299 5; 300 57; 301 10; 308 10; 
309 2; 310 15; 311 1; 312 21; 313 1; 
325 1; 326 4; 327 999; 328 203; 329 29; 
