Name: N-acetylmethamphetamine
InChIKey: XCLNTWGFRQKLDT-UHFFFAOYSA-N
Formula: C12H17NO
MW: 191
ExactMass: 191.131014
CASNO: 27765806
ID: 1889
Comment: ENFSI / NFI/OPG 75A29-60079
Num Peaks: 61
38 1; 39 22; 40 2; 41 15; 42 58; 
43 107; 44 6; 50 5; 51 18; 52 5; 
53 2; 54 4; 55 3; 56 55; 57 22; 
58 999; 59 38; 62 3; 63 15; 64 4; 
65 50; 66 3; 70 1; 71 5; 72 2; 
74 9; 75 2; 76 2; 77 17; 78 8; 
79 4; 87 1; 89 15; 90 5; 91 124; 
92 11; 93 1; 100 582; 101 34; 102 5; 
103 8; 104 4; 105 3; 115 23; 116 7; 
117 43; 118 30; 119 11; 120 1; 130 2; 
131 2; 132 8; 133 4; 134 19; 135 2; 
144 1; 146 4; 147 2; 148 8; 149 1; 
191 4; 
