Name: N-acetylmescaline
InChIKey: SNMFNOQKGANWHD-UHFFFAOYSA-N
Formula: C13H19NO4
MW: 253
ExactMass: 253.131408
CASNO: 4593899
ID: 1890
Comment: ENFSI / NFI/GL 921106NS, derivatised
Num Peaks: 118
38 4; 39 22; 40 4; 41 11; 42 14; 
43 175; 44 11; 45 7; 50 10; 51 30; 
52 41; 53 37; 54 5; 55 11; 56 4; 
57 4; 59 3; 60 1; 61 1; 62 4; 
63 20; 64 21; 65 51; 66 23; 67 16; 
68 3; 69 7; 70 1; 72 14; 73 1; 
74 2; 75 4; 76 9; 77 59; 78 38; 
79 40; 80 34; 81 12; 82 3; 83 1; 
85 1; 86 1; 89 18; 90 28; 91 62; 
92 23; 93 22; 94 11; 95 31; 96 4; 
97 2; 99 1; 102 2; 103 10; 104 8; 
105 28; 106 28; 107 32; 108 19; 109 19; 
110 5; 111 2; 117 2; 118 16; 119 41; 
120 30; 121 44; 122 17; 123 28; 124 10; 
125 3; 126 1; 127 1; 131 1; 132 3; 
133 12; 134 19; 135 19; 136 91; 137 58; 
138 23; 139 10; 146 1; 147 7; 148 127; 
149 22; 150 9; 151 122; 152 15; 153 5; 
161 3; 162 3; 163 4; 164 15; 165 23; 
166 7; 167 48; 168 7; 176 1; 177 3; 
178 18; 179 513; 180 65; 181 504; 182 57; 
183 7; 192 2; 193 6; 194 999; 195 129; 
196 14; 197 1; 210 4; 222 1; 238 1; 
253 114; 254 18; 255 1; 
