Name: Nabumetone
Synon: Relafen
InChIKey: BLXXJMDCKKHMKV-UHFFFAOYSA-N
Formula: C15H16O2
MW: 228
ExactMass: 228.115029
CASNO: 42924538
ID: 1892
Comment: DEA SWL
Num Peaks: 103
40 1; 41 2; 42 6; 43 142; 44 3; 
45 2; 50 6; 51 13; 52 3; 53 2; 
55 14; 58 1; 61 1; 62 8; 63 25; 
64 5; 65 7; 70 1; 71 1; 74 8; 
75 12; 76 13; 77 15; 78 7; 79 1; 
85 1; 86 5; 87 10; 88 12; 89 14; 
90 2; 91 6; 93 4; 98 3; 99 3; 
100 2; 101 6; 102 25; 103 4; 107 4; 
111 1; 112 1; 113 20; 114 45; 115 146; 
116 17; 117 1; 125 2; 126 23; 127 50; 
128 254; 129 34; 130 3; 131 1; 137 1; 
138 3; 139 68; 140 23; 141 148; 142 52; 
143 10; 144 4; 145 2; 150 5; 151 14; 
152 51; 153 59; 154 37; 155 23; 156 19; 
157 10; 158 57; 159 7; 165 6; 166 2; 
167 3; 168 5; 169 28; 170 64; 171 999; 
172 131; 173 9; 178 1; 179 3; 180 1; 
181 5; 182 2; 183 3; 184 17; 185 114; 
186 15; 187 1; 195 7; 196 1; 197 2; 
209 1; 211 1; 212 1; 213 6; 214 1; 
228 272; 229 45; 230 4; 
