Name: Stearic Acid
Synon: Octadecanoic acid
InChIKey: QIQXTHQIDYTFRH-UHFFFAOYSA-N
Formula: C18H36O2
MW: 284
ExactMass: 284.27153
CASNO: 57114
ID: 1902
Comment: DEA SWL
Num Peaks: 83
40 31; 41 642; 42 154; 43 999; 44 79; 
45 81; 53 42; 54 60; 55 832; 56 210; 
57 934; 58 49; 59 56; 60 942; 61 301; 
67 90; 68 62; 69 376; 70 113; 71 447; 
72 24; 73 999; 74 92; 75 12; 77 14; 
79 30; 80 13; 81 64; 82 71; 83 311; 
84 132; 85 303; 86 24; 87 224; 88 19; 
93 20; 95 44; 96 69; 97 266; 98 161; 
99 98; 100 12; 101 76; 102 24; 107 14; 
109 27; 110 27; 111 118; 112 41; 113 57; 
115 135; 116 80; 121 19; 123 16; 124 16; 
125 47; 126 16; 127 37; 129 468; 130 53; 
135 30; 138 14; 139 19; 141 15; 143 72; 
147 13; 157 31; 171 79; 172 18; 185 183; 
186 25; 199 58; 207 55; 208 16; 213 18; 
222 13; 227 42; 241 144; 242 23; 255 22; 
281 19; 284 134; 285 29; 
