Name: n-Tridecane
Synon: Tridecane
InChIKey: IIYFAKIEWZDVMP-UHFFFAOYSA-N
Formula: C13H28
MW: 184
ExactMass: 184.219101
CASNO: 629505
ID: 1905
Comment: DEA WRL
Num Peaks: 23
41 447; 42 80; 43 837; 55 129; 56 152; 
57 999; 58 56; 69 67; 70 103; 71 594; 
72 27; 84 59; 85 335; 86 20; 97 23; 
98 56; 99 81; 112 41; 113 35; 126 27; 
127 36; 141 28; 184 89; 
