Name: n-Tetracosane
Synon: Tetracosane
InChIKey: POOSGDOYLQNASK-UHFFFAOYSA-N
Formula: C24H50
MW: 338
ExactMass: 338.391253
CASNO: 646311
ID: 1906
Comment: DEA WRL
Num Peaks: 49
27 35; 28 27; 29 114; 39 27; 41 344; 
42 85; 43 766; 54 25; 55 319; 56 150; 
57 999; 58 33; 67 43; 68 25; 69 185; 
70 124; 71 700; 72 37; 82 23; 83 127; 
84 83; 85 536; 86 32; 96 15; 97 118; 
98 67; 99 165; 111 45; 112 39; 113 86; 
125 22; 126 37; 127 82; 139 5; 140 26; 
141 55; 154 27; 155 47; 168 19; 169 36; 
182 15; 183 33; 196 13; 197 14; 224 5; 
225 8; 238 2; 253 6; 338 35; 
