Name: Procaine
Synon: Novocain
InChIKey: MFDFERRIHVXMIY-UHFFFAOYSA-N
Formula: C13H20N2O2
MW: 236
ExactMass: 236.152478
CASNO: 59461
ID: 1907
Comment: DEA SWL
Num Peaks: 68
38 4; 39 22; 40 2; 41 15; 42 49; 
43 12; 44 23; 45 2; 46 1; 50 2; 
51 3; 52 6; 53 2; 54 8; 55 7; 
56 56; 57 14; 58 83; 59 3; 60 1; 
62 2; 63 8; 64 10; 65 80; 66 10; 
67 1; 68 1; 69 2; 70 22; 71 47; 
72 11; 73 1; 74 1; 75 1; 76 1; 
77 2; 78 1; 82 2; 84 43; 85 5; 
86 999; 87 57; 88 1; 89 1; 90 3; 
91 10; 92 78; 93 6; 94 1; 96 1; 
97 2; 98 2; 99 281; 100 25; 101 1; 
106 1; 111 7; 116 1; 118 2; 119 6; 
120 202; 121 16; 122 1; 137 14; 138 1; 
163 2; 164 32; 165 3; 
