Name: Norverapamil
Synon: (RS)-2-(3,4-dimethoxyphenyl)-5-[2-(3,4-dimethoxyphenyl)ethylamino]-2-isopropylpentanenitrile
InChIKey: UPKQNCPKPOLASS-UHFFFAOYSA-N
Formula: C26H36N2O4
MW: 440
ExactMass: 440.267508
CASNO: 67018853
ID: 1909
Comment: AAFS
Num Peaks: 193
42 24; 43 81; 44 217; 45 9; 50 1; 
51 7; 52 4; 53 6; 54 2; 55 11; 
56 46; 57 51; 58 3; 59 1; 63 4; 
64 3; 65 19; 66 5; 67 7; 68 7; 
69 6; 70 38; 71 3; 72 1; 75 2; 
76 4; 77 36; 78 26; 79 26; 80 14; 
81 6; 82 3; 83 1; 84 4; 86 1; 
88 1; 89 13; 90 21; 91 53; 92 9; 
93 8; 94 13; 95 17; 96 10; 97 3; 
98 2; 101 3; 102 6; 103 26; 104 12; 
105 39; 106 33; 107 72; 108 26; 109 16; 
110 4; 112 1; 114 1; 115 21; 116 17; 
117 15; 118 15; 119 30; 120 15; 121 29; 
122 31; 123 25; 124 15; 125 1; 127 5; 
128 14; 129 9; 130 9; 131 13; 132 10; 
133 16; 134 21; 135 32; 136 19; 137 46; 
138 57; 139 27; 140 7; 141 4; 142 12; 
143 8; 144 8; 145 11; 146 20; 147 10; 
148 6; 149 15; 150 45; 151 418; 152 233; 
153 24; 154 4; 155 2; 156 8; 157 4; 
158 7; 159 10; 160 17; 161 10; 162 11; 
163 11; 164 30; 165 132; 166 16; 167 2; 
168 1; 169 2; 170 13; 171 8; 172 10; 
173 6; 174 15; 175 9; 176 22; 177 41; 
178 10; 179 35; 180 6; 183 1; 184 4; 
185 13; 186 10; 187 10; 188 10; 189 21; 
190 9; 191 11; 192 11; 193 26; 194 13; 
195 2; 198 1; 199 1; 200 3; 201 5; 
202 11; 203 19; 204 9; 205 2; 206 5; 
207 1; 212 1; 213 1; 214 3; 215 3; 
216 14; 217 13; 218 29; 219 7; 220 5; 
228 1; 229 2; 230 2; 231 5; 232 3; 
233 5; 234 1; 243 4; 244 2; 245 18; 
246 6; 247 1; 257 1; 258 4; 259 2; 
260 88; 261 16; 262 6; 263 1; 273 2; 
274 1; 275 1; 285 1; 287 4; 289 999; 
290 344; 291 40; 292 3; 303 1; 397 2; 
398 1; 423 1; 425 1; 438 4; 439 7; 
440 2; 441 5; 442 1; 
