Name: Normeperidine
Synon: Norpethidine
InChIKey: QKHMFBKXTNQCTM-UHFFFAOYSA-N
Formula: C14H19NO2
MW: 233
ExactMass: 233.141579
CASNO: 77178
ID: 1911
Comment: AAFS / Probability Based Matching Data Base Entry
Num Peaks: 65
40 10; 41 10; 42 260; 43 180; 44 40; 
45 10; 54 10; 55 30; 56 260; 57 999; 
58 50; 68 10; 69 20; 70 20; 71 40; 
81 10; 82 40; 83 30; 84 10; 85 30; 
91 70; 92 10; 95 10; 97 10; 103 80; 
115 20; 116 20; 117 40; 118 10; 126 40; 
127 10; 128 20; 129 30; 130 30; 131 150; 
132 30; 133 10; 141 10; 142 10; 143 30; 
144 30; 145 20; 149 20; 155 30; 156 20; 
157 10; 158 180; 159 70; 160 130; 161 20; 
162 10; 172 10; 176 10; 177 10; 187 90; 
188 30; 189 10; 190 20; 204 50; 205 20; 
230 10; 232 30; 233 310; 234 40; 235 10; 
