Name: Phenylpropanolamine
Synon: Norephedrine
Synon: PPA
InChIKey: DLNKOYKMWOXYQA-UHFFFAOYSA-N
Formula: C9H13NO
MW: 151
ExactMass: 151.099714
CASNO: 492411
ID: 1914
Comment: DEA SWL
Num Peaks: 48
40 3; 41 5; 42 25; 43 14; 44 999; 
45 29; 50 15; 51 41; 52 13; 53 8; 
54 1; 55 2; 56 1; 57 2; 59 2; 
61 1; 62 3; 63 9; 64 2; 65 6; 
66 1; 73 1; 74 4; 75 3; 76 3; 
77 105; 78 24; 79 59; 80 5; 89 6; 
90 3; 91 14; 92 2; 103 2; 104 2; 
105 27; 106 9; 107 19; 108 3; 115 4; 
116 1; 117 10; 118 9; 119 2; 130 1; 
132 4; 133 2; 134 1; 
