Name: Tamoxifen
Synon: Nolvadex
InChIKey: NKANXQFJJICGDU-OCEACIFDSA-N
Formula: C26H29NO
MW: 371
ExactMass: 371.224915
CASNO: 10540291
ID: 1916
Comment: DEA SWL
Num Peaks: 136
41 2; 42 40; 43 18; 44 22; 45 1; 
51 3; 53 1; 54 1; 55 3; 56 24; 
57 18; 58 999; 59 49; 63 2; 65 4; 
70 18; 71 17; 72 376; 73 17; 74 1; 
75 1; 76 1; 77 11; 78 3; 79 4; 
87 1; 88 1; 89 4; 90 1; 91 44; 
92 3; 95 1; 101 2; 102 4; 103 8; 
104 1; 105 13; 106 1; 107 2; 113 3; 
114 2; 115 25; 116 4; 117 5; 118 1; 
120 2; 125 1; 126 9; 127 9; 128 11; 
129 25; 130 2; 131 1; 132 2; 133 1; 
139 6; 141 3; 150 3; 151 8; 152 22; 
153 8; 154 2; 155 1; 162 1; 163 7; 
164 6; 165 36; 166 8; 167 6; 168 1; 
176 10; 177 6; 178 31; 179 10; 180 1; 
181 2; 183 1; 187 1; 188 2; 189 21; 
190 9; 191 23; 192 6; 193 3; 194 1; 
200 2; 201 2; 202 12; 203 8; 204 3; 
205 5; 206 3; 207 3; 208 1; 213 3; 
214 1; 215 10; 216 2; 217 1; 219 1; 
221 1; 224 1; 225 1; 226 8; 227 3; 
228 7; 229 3; 237 2; 238 1; 239 21; 
240 8; 241 8; 242 3; 243 1; 250 6; 
251 3; 252 28; 253 28; 254 18; 255 6; 
256 1; 263 4; 264 1; 265 12; 266 4; 
267 7; 268 3; 269 1; 270 1; 283 1; 
284 2; 299 1; 313 1; 371 62; 372 17; 
373 2; 
