Name: Phenyltoloxamine
Synon: N,N-Dimethyl-2-(.alpha.-phenyl-o-toloxy)ethylamine
InChIKey: IZRPKIZLIFYYKR-UHFFFAOYSA-N
Formula: C17H21NO
MW: 255
ExactMass: 255.162314
CASNO: 92126
ID: 1919
Comment: AAFS / Probability Based Matching Data Base Entry
Num Peaks: 39
39 9; 40 69; 41 9; 42 39; 43 19; 
44 29; 45 9; 46 29; 50 4; 51 9; 
54 4; 55 9; 56 29; 57 19; 58 999; 
59 39; 70 14; 71 39; 72 49; 73 4; 
76 4; 77 19; 78 19; 79 4; 90 4; 
91 34; 92 4; 164 4; 165 19; 166 9; 
167 4; 181 9; 182 4; 183 9; 184 19; 
210 34; 211 4; 255 99; 256 19; 
