Name: N-methylphthalimide
InChIKey: ZXLYYQUMYFHCLQ-UHFFFAOYSA-N
Formula: C9H7NO2
MW: 161
ExactMass: 161.047678
CASNO: 550447
ID: 1921
Comment: DEA SWL
Num Peaks: 41
37 19; 38 44; 39 12; 40 19; 44 27; 
49 21; 50 298; 51 91; 52 71; 53 17; 
56 14; 61 11; 62 12; 63 20; 64 13; 
66 116; 73 35; 74 156; 75 157; 76 521; 
77 195; 78 38; 89 16; 90 45; 91 12; 
102 11; 103 30; 104 487; 105 177; 106 35; 
116 24; 117 416; 118 40; 130 7; 132 211; 
133 139; 134 13; 160 126; 161 999; 162 97; 
163 8; 
