Name: Nifedipine
Synon: Procardia
InChIKey: HYIMSNHJOBLJNT-UHFFFAOYSA-N
Formula: C17H18N2O6
MW: 346
ExactMass: 346.116486
CASNO: 21829254
ID: 1927
Comment: DEA SWL
Num Peaks: 227
40 3; 41 4; 42 56; 43 14; 44 2; 
45 2; 46 5; 50 17; 51 21; 52 11; 
53 11; 54 6; 55 3; 56 3; 57 1; 
58 2; 59 37; 60 2; 61 1; 62 5; 
63 29; 64 13; 65 18; 66 10; 67 31; 
68 5; 70 4; 71 3; 72 3; 73 1; 
74 9; 75 19; 76 38; 77 53; 78 15; 
79 16; 80 6; 81 1; 84 17; 85 3; 
86 4; 87 8; 88 9; 89 25; 90 16; 
91 17; 92 12; 93 11; 94 5; 95 2; 
97 6; 98 8; 99 9; 100 5; 101 13; 
102 18; 103 14; 104 29; 105 20; 106 23; 
107 10; 108 3; 109 1; 110 1; 111 7; 
113 18; 114 16; 115 68; 116 16; 117 5; 
118 10; 119 6; 120 10; 121 30; 122 7; 
123 2; 124 1; 125 9; 126 24; 127 61; 
128 70; 129 20; 130 16; 131 7; 132 32; 
134 34; 136 5; 137 4; 138 9; 139 66; 
140 44; 141 30; 142 21; 143 19; 144 9; 
145 3; 146 4; 147 1; 148 6; 149 65; 
150 38; 151 25; 152 71; 153 48; 154 43; 
155 29; 156 23; 157 7; 158 10; 159 5; 
160 39; 161 4; 162 2; 163 5; 164 42; 
165 34; 166 32; 167 58; 168 60; 169 31; 
170 18; 171 8; 172 4; 173 1; 174 1; 
175 1; 176 8; 177 6; 178 16; 179 23; 
180 80; 181 48; 182 33; 183 28; 184 11; 
185 5; 186 3; 187 2; 188 2; 189 1; 
190 9; 191 6; 192 60; 193 35; 194 42; 
195 46; 196 62; 197 35; 198 25; 199 5; 
200 4; 202 1; 203 1; 206 3; 207 7; 
208 55; 209 41; 210 47; 211 32; 212 19; 
213 7; 214 4; 215 1; 216 1; 218 1; 
220 2; 221 7; 222 10; 224 592; 225 110; 
226 103; 227 20; 228 6; 229 2; 230 1; 
234 1; 235 7; 236 24; 237 11; 238 10; 
239 24; 240 36; 241 10; 242 18; 243 2; 
244 1; 252 65; 253 93; 254 117; 255 24; 
256 42; 257 9; 258 1; 259 1; 265 1; 
266 3; 268 485; 269 102; 270 128; 271 20; 
272 4; 281 7; 282 3; 284 999; 285 184; 
286 24; 287 21; 288 2; 296 2; 297 2; 
298 24; 299 7; 300 2; 312 5; 313 2; 
314 6; 315 26; 316 5; 317 1; 329 951; 
330 169; 331 29; 332 2; 345 5; 346 50; 
347 11; 348 2; 
