Name: Palmitic Acid
Synon: n-hexadecanoic acid
InChIKey: IPCSVZSSVZVIGE-UHFFFAOYSA-N
Formula: C16H32O2
MW: 256
ExactMass: 256.24023
CASNO: 57103
ID: 1932
Comment: DEA SWL
Num Peaks: 136
40 18; 41 574; 42 130; 43 817; 44 30; 
45 82; 46 2; 47 2; 50 2; 51 6; 
52 4; 53 46; 54 57; 55 766; 56 187; 
57 840; 58 42; 59 47; 60 999; 61 264; 
62 10; 63 3; 64 2; 65 9; 66 6; 
67 71; 68 53; 69 351; 70 104; 71 373; 
72 24; 73 980; 74 83; 75 8; 76 1; 
77 7; 78 4; 79 21; 80 8; 81 54; 
82 58; 83 267; 84 117; 85 248; 86 24; 
87 194; 88 26; 89 3; 91 8; 92 3; 
93 16; 94 7; 95 38; 96 50; 97 209; 
98 127; 99 83; 100 11; 101 97; 102 35; 
103 3; 105 3; 107 11; 108 5; 109 17; 
110 25; 111 88; 112 38; 113 46; 114 6; 
115 158; 116 54; 117 4; 119 4; 120 3; 
121 14; 122 4; 123 8; 124 15; 125 38; 
126 15; 127 29; 129 435; 130 43; 131 4; 
135 11; 136 3; 137 6; 138 9; 139 13; 
140 8; 141 16; 142 2; 143 70; 144 15; 
145 1; 147 1; 149 5; 151 1; 152 8; 
153 7; 154 4; 155 6; 157 138; 158 19; 
159 2; 163 2; 165 1; 166 4; 167 3; 
168 7; 169 1; 171 121; 172 17; 173 1; 
181 1; 185 111; 186 14; 187 1; 194 18; 
195 4; 196 7; 197 3; 199 43; 200 7; 
213 156; 214 22; 215 2; 220 2; 227 36; 
228 6; 239 3; 241 1; 256 155; 257 27; 
258 3; 
