Name: N-butylbenzylamine
InChIKey: HIPXPABRMMYVQD-UHFFFAOYSA-N
Formula: C11H17N
MW: 163
ExactMass: 163.1361
CASNO: 2403227
ID: 1938
Comment: DEA SWL / Acros lot A0147615001
Num Peaks: 52
40 4; 41 36; 42 9; 43 11; 44 12; 
50 7; 51 21; 52 7; 53 3; 54 1; 
55 3; 56 3; 57 6; 59 3; 60 19; 
62 2; 63 13; 64 4; 65 78; 66 5; 
72 4; 75 1; 76 1; 77 18; 78 6; 
79 14; 80 1; 83 1; 84 3; 86 5; 
89 16; 90 8; 91 999; 92 87; 93 3; 
103 1; 104 8; 105 2; 106 50; 107 5; 
117 3; 118 17; 119 4; 120 464; 121 46; 
122 2; 132 4; 133 3; 160 1; 162 5; 
163 12; 164 1; 
