Name: N-butylnitrite
Synon: N-butylnitriet
InChIKey: JQJPBYFTQAANLE-UHFFFAOYSA-N
Formula: C4H9NO2
MW: 103
ExactMass: 103.0633287
CASNO: 544161
ID: 1939
Comment: ENFSI / NFI/Sigma/Aldrich 03111-048
Num Peaks: 36
25 1; 26 33; 27 480; 28 99; 29 365; 
30 630; 31 149; 32 5; 33 8; 37 10; 
38 22; 39 205; 40 30; 41 999; 42 117; 
43 955; 44 103; 45 17; 46 3; 49 1; 
50 6; 51 5; 52 1; 53 8; 54 3; 
55 49; 56 134; 57 323; 58 16; 60 661; 
61 11; 62 2; 71 18; 72 30; 73 4; 
74 3; 
