Name: N-ethylbenzylamine
Synon: N-benzylethylamine
InChIKey: HVAAHUDGWQAAOJ-UHFFFAOYSA-N
Formula: C9H13N
MW: 135
ExactMass: 135.104799
CASNO: 14321278
ID: 1942
Comment: DEA SWL
Num Peaks: 59
37 2; 38 8; 39 58; 40 6; 41 19; 
42 18; 43 4; 44 116; 45 3; 49 1; 
50 27; 51 65; 52 19; 53 6; 54 2; 
55 1; 56 23; 57 11; 58 145; 59 9; 
60 16; 61 2; 62 10; 63 36; 64 10; 
65 121; 66 8; 67 1; 74 6; 75 5; 
76 7; 77 62; 78 19; 79 57; 80 4; 
86 2; 87 1; 89 33; 90 13; 91 999; 
92 95; 93 4; 103 3; 104 22; 105 5; 
106 29; 107 2; 117 5; 118 17; 119 3; 
120 296; 121 27; 122 1; 130 1; 132 8; 
133 4; 134 111; 135 105; 136 10; 
