Name: Oxazolam
InChIKey: VCCZBYPHZRWKFY-UHFFFAOYSA-N
Formula: C18H17ClN2O2
MW: 328
ExactMass: 328.097855
CASNO: 24143177
ID: 1951
Comment: DEA SWL
Num Peaks: 132
40 10; 41 164; 42 198; 43 14; 44 6; 
50 20; 51 81; 52 12; 54 15; 55 10; 
56 21; 57 28; 58 13; 62 14; 63 23; 
64 7; 65 9; 68 25; 70 339; 71 37; 
73 5; 74 21; 75 17; 76 19; 77 216; 
78 20; 82 10; 86 8; 87 9; 88 8; 
89 29; 90 20; 91 35; 96 26; 97 23; 
98 8; 99 17; 100 10; 101 14; 102 35; 
103 12; 104 21; 105 178; 106 23; 110 19; 
111 22; 112 8; 113 22; 114 12; 115 15; 
116 11; 117 16; 118 10; 124 41; 125 20; 
126 46; 127 24; 128 27; 130 11; 131 7; 
132 13; 133 15; 135 5; 138 16; 139 17; 
140 21; 149 13; 150 20; 151 39; 152 41; 
153 22; 154 50; 155 13; 156 9; 158 7; 
161 8; 162 12; 163 15; 164 24; 165 31; 
166 98; 167 30; 168 23; 176 2; 177 31; 
178 24; 180 37; 181 9; 182 46; 184 25; 
189 7; 190 11; 191 22; 192 16; 193 17; 
194 81; 195 28; 196 38; 202 61; 203 10; 
204 8; 205 9; 206 7; 207 20; 208 8; 
209 9; 213 12; 214 15; 216 10; 223 32; 
225 17; 227 8; 228 10; 229 9; 230 12; 
238 8; 240 15; 241 17; 242 11; 243 15; 
251 999; 252 167; 253 353; 254 43; 255 8; 
269 7; 281 3; 283 42; 284 14; 285 26; 
286 8; 328 7; 
