Name: Pipradrol
Synon: Pipradol
InChIKey: XSWHNYGMWWVAIE-UHFFFAOYSA-N
Formula: C18H21NO
MW: 267
ExactMass: 267.162313
CASNO: 467607
ID: 1959
Comment: AAFS
Num Peaks: 74
42 16; 43 4; 44 1; 50 3; 51 18; 
52 3; 53 3; 54 6; 55 26; 56 88; 
57 7; 63 2; 65 3; 67 8; 68 7; 
69 2; 70 2; 74 1; 75 1; 76 5; 
77 76; 78 9; 79 2; 80 2; 82 14; 
84 999; 85 65; 86 1; 88 1; 89 3; 
90 1; 91 6; 102 2; 103 2; 104 1; 
105 49; 106 6; 115 5; 116 1; 117 1; 
118 1; 126 1; 127 1; 128 2; 129 1; 
130 2; 131 1; 139 1; 144 1; 151 2; 
152 9; 153 4; 154 1; 163 1; 164 2; 
165 14; 166 3; 167 5; 168 1; 172 2; 
173 1; 176 1; 178 3; 179 1; 181 7; 
182 5; 183 3; 189 1; 190 3; 191 1; 
193 1; 204 1; 206 3; 248 1; 
