Name: Piperidine
InChIKey: NQRYJNQNLNOLGT-UHFFFAOYSA-N
Formula: C5H11N
MW: 85
ExactMass: 85.0891495
CASNO: 110894
ID: 1961
Comment: DEA SWL / Eastman catalog #P687
Num Peaks: 31
40 28; 41 165; 42 292; 43 235; 44 332; 
45 10; 49 3; 50 20; 51 27; 52 24; 
53 42; 54 58; 55 122; 56 715; 57 506; 
58 22; 65 5; 66 1; 67 26; 68 28; 
69 8; 70 126; 71 7; 78 1; 80 13; 
81 2; 82 23; 84 999; 85 521; 86 33; 
87 1; 
