Name: Tetramisole
Synon: Phenyltetrahydroimidazothiazole
InChIKey: HLFSDGLLUJUHTE-UHFFFAOYSA-N
Formula: C11H12N2S
MW: 204
ExactMass: 204.07212
CASNO: 6649236
ID: 1966
Comment: DEA SWL
Num Peaks: 127
40 11; 41 29; 42 34; 43 5; 44 5; 
45 93; 46 19; 47 6; 48 1; 49 2; 
50 46; 51 114; 52 27; 53 9; 54 37; 
55 17; 56 65; 57 7; 58 17; 59 35; 
60 32; 61 13; 62 25; 63 79; 64 26; 
65 44; 66 5; 67 5; 68 8; 69 23; 
70 13; 71 17; 72 81; 73 452; 74 40; 
75 42; 76 39; 77 214; 78 69; 79 9; 
80 1; 81 5; 82 3; 83 2; 84 6; 
85 2; 86 11; 87 7; 88 22; 89 146; 
90 58; 91 90; 92 11; 93 8; 94 4; 
95 3; 96 4; 97 1; 98 22; 99 43; 
100 18; 101 397; 102 63; 103 134; 104 186; 
105 19; 106 2; 108 2; 109 1; 111 2; 
113 4; 114 4; 115 17; 116 56; 117 87; 
118 29; 119 6; 120 13; 121 327; 122 43; 
123 18; 124 2; 125 9; 126 33; 127 215; 
128 26; 129 15; 130 21; 131 21; 132 5; 
133 1; 134 3; 135 12; 136 4; 137 1; 
142 4; 143 14; 144 19; 145 7; 146 12; 
147 2; 148 999; 149 113; 150 51; 151 5; 
157 6; 158 2; 159 1; 160 1; 161 1; 
169 3; 170 2; 171 1; 173 1; 174 3; 
175 11; 176 54; 177 10; 178 3; 189 1; 
201 2; 202 12; 203 275; 204 545; 205 83; 
206 28; 207 3; 
