Name: Phenylsalicylate
InChIKey: ZQBAKBUEJOMQEX-UHFFFAOYSA-N
Formula: C13H10O3
MW: 214
ExactMass: 214.062994
CASNO: 118558
ID: 1967
Comment: DEA SWL
Num Peaks: 37
40 5; 49 1; 50 10; 51 20; 52 2; 
53 18; 54 1; 55 2; 61 3; 62 12; 
63 48; 64 34; 65 180; 66 22; 67 2; 
74 5; 75 4; 76 2; 77 9; 78 1; 
81 1; 91 2; 92 55; 93 100; 94 31; 
95 2; 115 1; 119 2; 120 27; 121 999; 
122 76; 123 6; 127 1; 128 2; 139 1; 
214 45; 215 6; 
