Name: Phenylbutazone
InChIKey: VYMDGNCVAMGZFE-UHFFFAOYSA-N
Formula: C19H20N2O2
MW: 308
ExactMass: 308.152477
CASNO: 50339
ID: 1969
Comment: DEA SWL
Num Peaks: 122
40 8; 41 71; 42 14; 43 7; 50 12; 
51 93; 52 13; 53 10; 54 5; 55 112; 
56 8; 57 39; 58 1; 62 2; 63 22; 
64 59; 65 42; 66 7; 67 6; 68 2; 
69 34; 70 4; 73 1; 74 3; 75 5; 
76 17; 77 860; 78 68; 79 5; 80 2; 
81 8; 83 5; 89 3; 90 8; 91 112; 
92 26; 93 101; 94 13; 95 1; 96 1; 
97 7; 98 1; 102 4; 103 8; 104 31; 
105 184; 106 18; 107 2; 115 12; 116 3; 
117 10; 118 24; 119 66; 120 13; 125 39; 
126 6; 127 6; 128 13; 129 5; 130 15; 
131 3; 132 15; 133 8; 134 2; 135 3; 
139 4; 144 7; 145 5; 146 15; 147 4; 
148 1; 150 1; 151 12; 152 56; 153 29; 
154 15; 155 1; 156 3; 157 4; 158 1; 
159 1; 160 19; 161 2; 166 8; 167 10; 
168 5; 169 3; 172 5; 173 4; 174 17; 
175 1; 180 2; 181 14; 182 30; 183 999; 
184 318; 185 33; 186 2; 188 2; 191 1; 
195 4; 207 3; 208 2; 209 3; 210 2; 
211 9; 221 1; 235 6; 237 2; 247 1; 
251 15; 252 65; 253 15; 254 1; 265 16; 
266 3; 281 1; 291 2; 293 1; 308 313; 
309 69; 310 8; 
