Name: Phensuximide
InChIKey: WLWFNJKHKGIJNW-UHFFFAOYSA-N
Formula: C11H11NO2
MW: 189
ExactMass: 189.078979
CASNO: 86340
ID: 1973
Comment: AAFS / Probability Based Matching Data Base Entry
Num Peaks: 57
29 4; 37 1; 38 5; 39 21; 40 1; 
41 1; 42 4; 49 1; 50 26; 51 66; 
52 21; 53 4; 54 1; 55 2; 56 13; 
57 4; 58 8; 61 2; 62 8; 63 25; 
64 5; 65 10; 66 2; 70 2; 73 1; 
74 14; 75 13; 76 23; 77 115; 78 142; 
79 8; 85 1; 86 1; 87 3; 89 17; 
90 5; 91 8; 98 1; 101 3; 102 38; 
103 142; 104 999; 105 95; 106 4; 115 1; 
116 1; 117 2; 118 7; 130 1; 131 5; 
132 3; 160 2; 161 6; 187 4; 189 267; 
190 33; 191 2; 
