Name: Phenethylamine
InChIKey: BHHGXPLMPWCGHP-UHFFFAOYSA-N
Synon: 2-PEA
Synon: 2-Phenethylamine
Synon: PEA
Synon: Benzenethanamine
Synon: beta-Phenethylamine
Formula: C8H11N
MW: 121
ExactMass: 121.0891495
CASNO: 64040
ID: 1977
Comment: DEA SWL
Num Peaks: 43
36 22; 37 21; 38 72; 39 292; 40 61; 
41 69; 42 69; 43 25; 44 19; 50 144; 
51 283; 52 72; 53 31; 54 11; 59 27; 
60 23; 61 25; 62 78; 63 170; 64 42; 
65 454; 66 34; 74 48; 75 32; 76 18; 
77 175; 78 72; 79 11; 87 9; 89 147; 
90 47; 91 999; 92 306; 93 42; 102 22; 
103 77; 104 47; 117 17; 118 68; 119 46; 
120 50; 121 267; 122 24; 
