Name: Phenethyl acetate
InChIKey: MDHYEMXUFSJLGV-UHFFFAOYSA-N
Formula: C10H12O2
MW: 164
ExactMass: 164.08373
CASNO: 103457
ID: 1978
Comment: DEA SWL / Aldrich lot 10614PD
Num Peaks: 36
40 2; 41 6; 43 304; 44 7; 45 2; 
50 15; 51 39; 52 10; 53 4; 61 2; 
62 7; 63 23; 64 7; 65 72; 66 4; 
73 7; 74 5; 75 5; 76 6; 77 64; 
78 66; 79 22; 80 1; 86 1; 87 1; 
89 22; 91 220; 92 36; 93 2; 101 1; 
102 10; 103 97; 104 999; 105 146; 106 7; 
121 2; 
