Name: Perphenazine
InChIKey: RGCVKNLCSQQDEP-UHFFFAOYSA-N
Formula: C21H26ClN3OS
MW: 403
ExactMass: 403.148512
CASNO: 58399
ID: 1986
Comment: DEA SWL
Num Peaks: 166
41 46; 42 218; 43 64; 44 89; 45 44; 
54 14; 55 47; 56 141; 57 58; 58 76; 
63 15; 65 10; 68 17; 69 48; 70 244; 
71 51; 72 26; 73 43; 74 22; 75 10; 
77 11; 82 32; 83 28; 84 62; 85 20; 
86 19; 88 20; 95 12; 96 28; 97 55; 
98 141; 99 56; 100 113; 101 13; 102 9; 
107 8; 108 12; 109 10; 111 66; 112 20; 
113 132; 114 15; 115 27; 123 15; 125 74; 
126 19; 127 20; 128 27; 129 17; 131 14; 
133 8; 134 8; 138 13; 139 80; 140 24; 
141 60; 143 344; 144 38; 147 9; 150 10; 
151 27; 152 40; 153 86; 154 14; 157 139; 
158 21; 164 17; 165 20; 166 20; 167 9; 
168 9; 169 19; 170 15; 171 174; 172 33; 
177 18; 178 18; 179 23; 180 15; 183 14; 
184 18; 185 45; 186 90; 187 32; 188 31; 
190 10; 191 15; 193 11; 196 82; 197 74; 
198 38; 200 22; 201 13; 202 9; 204 8; 
207 58; 208 11; 209 25; 210 42; 211 55; 
212 47; 213 34; 214 245; 215 44; 216 99; 
217 10; 221 8; 222 9; 223 27; 224 26; 
225 11; 230 11; 232 394; 233 129; 234 132; 
235 32; 236 28; 237 11; 238 16; 239 16; 
240 7; 244 11; 246 999; 247 193; 248 353; 
249 70; 250 20; 258 29; 259 53; 260 46; 
261 29; 262 25; 263 9; 272 138; 273 76; 
274 39; 275 21; 276 7; 281 17; 283 8; 
302 9; 304 10; 316 28; 318 10; 329 23; 
331 8; 341 14; 344 16; 349 10; 355 10; 
357 8; 368 11; 370 7; 372 104; 373 67; 
374 45; 375 30; 376 8; 385 41; 386 18; 
387 19; 403 348; 404 89; 405 137; 406 41; 
407 9; 
