Name: Paroxetine
Synon: Paxil
InChIKey: AHOUBRCZNHFOSL-UHFFFAOYSA-N
Formula: C19H20FNO3
MW: 329
ExactMass: 329.142721
CASNO: 61869087
ID: 1993
Comment: DEA SWL
Num Peaks: 151
40 8; 41 181; 42 177; 43 93; 44 999; 
45 25; 50 24; 51 67; 52 34; 53 107; 
54 23; 55 26; 56 108; 57 42; 58 3; 
59 4; 61 4; 62 13; 63 47; 64 4; 
65 77; 66 10; 67 22; 68 136; 69 192; 
70 459; 71 21; 73 2; 74 3; 75 19; 
76 4; 77 15; 78 9; 79 155; 80 31; 
81 20; 82 32; 83 42; 84 2; 85 1; 
86 2; 87 3; 88 2; 89 13; 90 2; 
91 21; 92 4; 93 16; 94 10; 95 21; 
96 37; 97 10; 99 1; 100 2; 101 47; 
102 8; 103 25; 104 3; 105 3; 106 1; 
107 185; 108 23; 109 423; 110 31; 111 2; 
113 2; 114 2; 115 151; 116 18; 117 4; 
118 1; 119 8; 120 24; 121 106; 122 77; 
123 79; 124 6; 125 4; 126 2; 127 17; 
128 20; 129 7; 130 2; 131 3; 132 3; 
133 214; 134 53; 135 216; 136 35; 137 301; 
138 531; 139 41; 140 4; 141 4; 143 4; 
145 8; 146 63; 147 79; 148 54; 149 33; 
150 21; 151 16; 152 4; 154 1; 157 1; 
159 10; 160 4; 161 18; 162 18; 163 54; 
164 12; 165 5; 166 1; 170 3; 171 1; 
172 1; 173 2; 174 4; 175 6; 176 55; 
177 149; 178 43; 179 7; 181 1; 183 1; 
185 2; 188 6; 189 2; 190 37; 191 79; 
192 611; 193 81; 194 5; 195 1; 199 1; 
201 1; 206 3; 207 3; 208 7; 209 1; 
213 1; 240 1; 281 1; 282 3; 298 3; 
299 2; 327 2; 328 4; 329 220; 330 43; 
331 5; 
