Name: para-Dimethylaminobenzaldehyde
InChIKey: BGNGWHSBYQYVRX-UHFFFAOYSA-N
Formula: C9H11NO
MW: 149
ExactMass: 149.084064
CASNO: 100107
ID: 1995
Comment: DEA SWL / Sigma lot 42H0286
Num Peaks: 60
40 3; 41 5; 42 51; 43 5; 44 9; 
50 32; 51 58; 52 14; 53 6; 54 3; 
55 2; 59 8; 60 8; 61 24; 62 9; 
63 30; 64 13; 65 19; 66 6; 67 1; 
68 4; 69 2; 74 25; 75 15; 76 26; 
77 131; 78 46; 79 37; 80 6; 81 1; 
86 1; 87 1; 88 2; 89 6; 90 15; 
91 45; 92 21; 93 12; 94 7; 102 5; 
103 23; 104 71; 105 69; 106 12; 107 1; 
116 1; 117 9; 118 48; 119 31; 120 39; 
121 5; 132 106; 133 36; 134 10; 135 1; 
146 10; 148 999; 149 802; 150 70; 151 4; 
