Name: Papaverine
InChIKey: XQYZDYMELSJDRZ-UHFFFAOYSA-N
Formula: C20H21NO4
MW: 339
ExactMass: 339.147058
CASNO: 58742
ID: 1996
Comment: DEA SWL
Num Peaks: 235
36 4; 38 6; 39 28; 40 5; 41 2; 
42 5; 43 11; 44 12; 45 5; 50 26; 
51 71; 52 20; 53 21; 54 3; 55 16; 
56 2; 57 7; 59 4; 62 18; 63 51; 
64 21; 65 49; 66 10; 67 1; 68 1; 
69 15; 70 10; 71 19; 73 8; 74 17; 
75 54; 76 52; 77 84; 78 40; 79 28; 
80 14; 81 15; 82 8; 83 28; 84 47; 
86 6; 87 21; 88 31; 89 96; 90 60; 
91 41; 92 14; 93 7; 94 8; 95 7; 
96 112; 97 6; 98 22; 99 7; 100 12; 
101 35; 102 87; 103 54; 104 32; 105 51; 
106 49; 107 74; 108 30; 109 8; 110 34; 
111 33; 112 5; 113 10; 114 39; 115 35; 
116 35; 117 39; 118 26; 119 41; 120 5; 
121 1; 122 6; 124 21; 125 48; 126 11; 
127 46; 128 20; 129 13; 130 32; 131 30; 
132 8; 133 80; 134 3; 135 28; 136 4; 
137 3; 138 27; 139 71; 140 10; 141 69; 
142 21; 143 17; 144 15; 145 11; 146 15; 
147 67; 148 7; 149 5; 150 20; 151 112; 
152 49; 153 37; 154 245; 155 4; 156 15; 
157 16; 158 17; 159 8; 160 6; 161 2; 
162 14; 163 24; 164 23; 165 35; 166 56; 
167 65; 168 12; 170 91; 171 14; 172 19; 
173 2; 174 2; 175 3; 176 14; 177 24; 
178 92; 179 53; 180 50; 181 22; 182 10; 
183 23; 184 21; 185 2; 186 6; 187 8; 
188 20; 189 20; 190 42; 191 91; 192 54; 
193 19; 194 53; 195 48; 196 16; 197 10; 
200 2; 202 32; 203 26; 204 45; 205 17; 
206 38; 207 73; 208 52; 209 40; 210 54; 
211 13; 212 5; 214 3; 215 2; 216 8; 
217 11; 218 13; 219 23; 220 77; 221 43; 
222 44; 223 38; 224 16; 225 2; 227 10; 
231 4; 232 14; 233 24; 234 38; 235 32; 
236 57; 237 37; 238 53; 239 11; 240 11; 
245 1; 246 9; 247 12; 248 46; 249 42; 
250 66; 251 27; 252 44; 253 50; 254 12; 
260 5; 261 11; 262 34; 263 28; 264 86; 
265 44; 266 86; 267 20; 268 2; 276 16; 
277 30; 278 57; 279 25; 280 107; 281 49; 
282 12; 290 6; 291 11; 292 125; 293 143; 
294 87; 295 23; 296 32; 297 9; 306 19; 
307 41; 308 268; 309 72; 310 22; 311 3; 
322 115; 323 44; 324 997; 325 217; 326 29; 
327 7; 338 999; 339 780; 340 154; 341 28; 
