Name: Phenyl-2-propanone
Synon: Phenylacetone
Synon: P2P
Synon: Benzyl methyl ketone
Synon: Methyl benzyl ketone
InChIKey: QCCDLTOVEPVEJK-UHFFFAOYSA-N
Formula: C9H10O
MW: 134
ExactMass: 134.073165
CASNO: 103797
ID: 1997
Comment: DEA SWL
Num Peaks: 52
40 9; 41 24; 42 13; 43 991; 44 23; 
46 15; 49 3; 50 46; 51 83; 52 22; 
53 7; 55 1; 60 1; 61 12; 62 41; 
63 114; 64 30; 65 283; 66 17; 73 2; 
74 15; 75 10; 76 8; 77 32; 78 9; 
79 7; 84 1; 85 4; 86 9; 87 8; 
88 2; 89 100; 90 41; 91 999; 92 339; 
93 22; 94 1; 98 1; 102 4; 103 10; 
104 2; 105 4; 115 10; 116 2; 117 2; 
118 4; 119 10; 120 1; 131 1; 134 350; 
135 35; 136 2; 
