Name: Simvastatin
Synon: Zocor
InChIKey: RYMZZMVNJRMUDD-UHFFFAOYSA-N
Formula: C25H38O5
MW: 418
ExactMass: 418.271925
CASNO: 79902639
ID: 1998
Comment: DEA SWL
Num Peaks: 178
40 49; 41 230; 42 44; 43 415; 44 32; 
45 19; 51 2; 53 40; 54 5; 55 154; 
56 6; 57 19; 59 10; 65 34; 66 8; 
67 67; 68 138; 69 111; 70 19; 71 377; 
72 12; 73 25; 76 3; 77 68; 78 10; 
79 90; 80 66; 81 107; 82 8; 83 13; 
84 2; 86 3; 87 5; 88 6; 89 4; 
90 2; 91 212; 92 25; 93 63; 94 3; 
95 24; 96 7; 97 133; 98 4; 99 15; 
102 4; 103 32; 104 19; 105 277; 106 30; 
107 21; 108 19; 109 17; 110 3; 111 3; 
112 3; 113 3; 115 87; 116 39; 117 165; 
118 73; 119 95; 120 8; 121 13; 123 3; 
124 6; 125 16; 126 19; 127 34; 128 129; 
129 203; 130 91; 131 216; 132 48; 133 46; 
134 7; 135 13; 136 2; 137 3; 141 78; 
142 139; 143 337; 144 144; 145 154; 146 36; 
147 34; 148 2; 152 3; 153 7; 154 11; 
155 113; 156 138; 157 838; 158 259; 159 999; 
160 179; 161 33; 162 3; 163 2; 165 2; 
166 3; 167 12; 168 9; 169 145; 170 154; 
171 139; 172 468; 173 287; 174 38; 175 13; 
177 4; 178 1; 179 4; 180 5; 181 21; 
182 20; 183 164; 184 68; 185 34; 187 4; 
189 3; 191 4; 193 17; 194 2; 195 27; 
196 22; 197 215; 198 613; 199 621; 200 110; 
201 19; 203 3; 204 2; 207 10; 208 3; 
209 16; 210 8; 211 9; 212 12; 214 3; 
219 3; 221 6; 222 2; 223 21; 224 31; 
225 7; 228 2; 230 4; 233 47; 234 6; 
236 2; 237 2; 238 12; 239 15; 241 2; 
242 6; 249 4; 251 15; 253 13; 254 1; 
256 2; 257 2; 266 3; 267 7; 268 3; 
269 24; 270 4; 281 5; 282 3; 283 9; 
284 57; 285 9; 293 2; 327 1; 329 2; 
341 3; 346 2; 355 6; 
