Name: Salicylamide
InChIKey: SKZKKFZAGNVIMN-UHFFFAOYSA-N
Formula: C9H11NO2
MW: 165
ExactMass: 165.078979
CASNO: 65452
ID: 2002
Comment: DEA SWL
Num Peaks: 50
40 18; 41 8; 42 6; 43 7; 44 77; 
45 5; 46 10; 49 6; 50 40; 51 29; 
52 31; 53 96; 55 64; 60 5; 61 29; 
62 58; 63 174; 64 188; 65 237; 66 41; 
67 5; 68 6; 70 4; 73 4; 74 17; 
75 14; 76 17; 77 7; 78 3; 79 2; 
80 36; 81 7; 87 1; 88 1; 89 1; 
90 13; 91 72; 92 792; 93 127; 94 12; 
102 6; 108 5; 119 24; 120 999; 121 169; 
122 13; 123 1; 137 743; 138 60; 139 5; 
