Name: Quinine
InChIKey: LOUPRKONTZGTKE-UHFFFAOYSA-N
Formula: C20H24N2O2
MW: 324
ExactMass: 324.183779
CASNO: 130950
ID: 2006
Comment: DEA SWL
Num Peaks: 150
41 58; 42 63; 43 8; 44 12; 50 2; 
51 6; 52 5; 53 30; 54 17; 55 48; 
56 19; 57 4; 58 1; 62 3; 63 8; 
64 3; 65 12; 66 7; 67 24; 68 15; 
69 10; 70 8; 73 1; 74 2; 75 4; 
76 3; 77 29; 78 8; 79 61; 80 23; 
81 80; 82 35; 83 2; 84 2; 87 2; 
88 6; 89 22; 90 16; 91 14; 92 2; 
93 11; 94 19; 95 35; 96 4; 98 1; 
100 1; 101 8; 102 7; 103 7; 104 3; 
105 9; 106 9; 107 9; 108 16; 109 3; 
110 5; 113 2; 114 4; 115 13; 116 32; 
117 70; 118 10; 119 3; 120 5; 121 5; 
122 3; 124 1; 126 3; 127 5; 128 15; 
129 12; 130 15; 131 6; 132 3; 133 1; 
134 12; 136 999; 137 101; 138 4; 139 4; 
140 4; 141 4; 142 6; 143 7; 144 11; 
145 43; 146 11; 147 2; 151 1; 152 3; 
153 3; 154 11; 155 8; 156 6; 157 5; 
158 33; 159 17; 160 34; 161 3; 162 1; 
166 8; 167 6; 168 5; 169 8; 170 9; 
171 3; 172 32; 173 16; 174 29; 175 4; 
180 3; 181 3; 182 7; 183 7; 184 10; 
185 5; 186 10; 187 6; 188 24; 189 49; 
190 6; 192 2; 193 1; 196 5; 197 3; 
198 6; 199 5; 200 5; 201 4; 202 2; 
206 2; 207 3; 208 1; 210 2; 211 4; 
212 2; 213 3; 214 3; 215 1; 219 1; 
220 1; 221 1; 222 2; 223 1; 225 1; 
227 2; 229 1; 249 1; 309 1; 324 2; 
