Name: Pseudococaine
InChIKey: ZPUCINDJVBIVPJ-UHFFFAOYSA-N
Formula: C17H21NO4
MW: 303
ExactMass: 303.147058
CASNO: 478739
ID: 2015
Comment: DEA SWL / NIDA lot 2194-1022-197C
Num Peaks: 112
40 5; 41 40; 42 167; 43 9; 44 23; 
45 5; 50 17; 51 72; 52 8; 53 25; 
54 17; 55 56; 56 25; 57 31; 58 6; 
59 34; 61 1; 62 1; 63 2; 64 1; 
65 18; 66 9; 67 41; 68 43; 69 13; 
70 18; 71 6; 72 1; 73 1; 74 4; 
75 5; 76 13; 77 275; 78 28; 79 24; 
80 28; 81 95; 82 999; 83 361; 84 32; 
85 3; 87 1; 91 34; 92 9; 93 30; 
94 192; 95 28; 96 250; 97 111; 98 10; 
99 2; 100 10; 101 2; 104 3; 105 262; 
106 28; 107 12; 108 35; 109 7; 110 13; 
111 3; 112 1; 113 1; 114 2; 115 1; 
117 2; 118 5; 119 24; 120 17; 121 7; 
122 91; 123 13; 124 7; 125 3; 126 3; 
128 1; 132 2; 133 2; 134 1; 135 4; 
136 1; 138 17; 139 2; 140 10; 141 1; 
148 3; 149 3; 150 14; 151 2; 152 145; 
153 26; 154 11; 155 18; 156 2; 166 14; 
167 1; 168 1; 179 1; 180 6; 181 33; 
182 640; 183 69; 184 6; 198 61; 199 6; 
200 1; 244 2; 272 26; 273 4; 303 75; 
304 14; 305 2; 
