Name: Promazine
InChIKey: ZGUGWUXLJSTTMA-UHFFFAOYSA-N
Formula: C17H20N2S
MW: 284
ExactMass: 284.13472
CASNO: 58402
ID: 2019
Comment: DEA SWL
Num Peaks: 166
40 1; 41 12; 42 68; 43 22; 44 36; 
45 15; 50 6; 51 11; 52 2; 54 1; 
55 2; 56 18; 57 23; 58 999; 59 44; 
62 2; 63 12; 64 3; 65 10; 66 1; 
68 2; 69 21; 70 39; 71 20; 72 25; 
73 2; 74 3; 75 6; 76 7; 77 20; 
78 6; 79 1; 81 1; 82 8; 83 2; 
84 46; 85 105; 86 258; 87 17; 88 2; 
89 8; 90 3; 91 6; 92 1; 93 4; 
94 2; 95 6; 96 4; 99 2; 101 5; 
102 5; 103 3; 104 3; 105 2; 106 2; 
107 1; 108 12; 109 14; 110 2; 111 1; 
113 5; 114 4; 115 9; 116 4; 117 4; 
118 1; 119 1; 120 3; 121 4; 122 2; 
124 2; 125 2; 126 9; 127 32; 128 20; 
129 2; 130 8; 132 1; 133 2; 134 5; 
135 3; 136 4; 137 2; 138 5; 139 26; 
140 22; 141 4; 142 5; 145 4; 146 4; 
147 3; 148 6; 149 1; 150 3; 151 14; 
152 40; 153 24; 154 62; 155 8; 158 3; 
159 4; 160 1; 164 9; 165 7; 166 34; 
167 27; 168 4; 169 3; 170 6; 171 27; 
172 10; 173 3; 177 4; 178 17; 179 30; 
180 136; 181 20; 182 2; 183 6; 184 16; 
185 4; 186 2; 190 1; 191 6; 192 4; 
193 9; 194 7; 195 2; 196 18; 197 39; 
198 192; 199 192; 200 33; 201 10; 202 1; 
204 7; 205 4; 206 10; 207 4; 208 2; 
209 3; 210 17; 211 9; 212 68; 213 40; 
214 8; 215 2; 222 2; 223 18; 224 26; 
225 23; 226 24; 227 4; 228 1; 236 3; 
238 230; 239 66; 240 18; 241 4; 253 1; 
281 1; 282 1; 284 363; 285 74; 286 23; 
287 3; 
