Name: Procainamide
InChIKey: REQCZEXYDRLIBE-UHFFFAOYSA-N
Formula: C13H21N3O
MW: 235
ExactMass: 235.168463
CASNO: 51069
ID: 2021
Comment: DEA SWL
Num Peaks: 61
40 2; 41 8; 42 26; 43 8; 44 8; 
46 1; 50 1; 51 2; 52 4; 53 1; 
54 4; 55 2; 56 30; 57 9; 58 76; 
59 2; 62 1; 63 8; 64 10; 65 79; 
66 10; 67 1; 68 1; 69 2; 70 14; 
71 24; 72 9; 73 1; 74 1; 75 1; 
77 1; 78 1; 84 21; 86 999; 87 58; 
88 1; 90 3; 91 13; 92 93; 93 8; 
94 1; 97 1; 99 195; 100 14; 106 1; 
107 1; 113 2; 118 4; 120 185; 121 15; 
122 1; 132 1; 133 1; 134 1; 137 1; 
149 1; 161 1; 163 23; 164 2; 206 1; 
235 1; 
