Name: Probenecid
InChIKey: DBABZHXKTCFAPX-UHFFFAOYSA-N
Formula: C13H19NO4S
MW: 285
ExactMass: 285.10348
CASNO: 57669
ID: 2022
Comment: AAFS / Probability Based Matching Data Base Entry
Num Peaks: 54
30 30; 32 40; 39 20; 40 10; 41 80; 
42 70; 43 110; 44 10; 45 10; 50 20; 
51 20; 55 10; 56 20; 57 10; 58 20; 
64 10; 65 120; 66 10; 69 10; 70 60; 
71 10; 72 20; 75 10; 76 40; 77 20; 
93 20; 103 10; 104 20; 105 20; 106 10; 
121 530; 122 40; 123 10; 140 10; 149 40; 
150 10; 169 10; 176 10; 177 10; 185 520; 
186 40; 187 30; 224 170; 225 10; 226 10; 
238 10; 256 999; 257 140; 258 60; 259 10; 
267 20; 281 10; 285 20; 286 10; 
