Name: Prilocaine
InChIKey: MVFGUOIZUNYYSO-UHFFFAOYSA-N
Formula: C13H20N2O
MW: 220
ExactMass: 220.157563
CASNO: 721506
ID: 2024
Comment: DEA SWL
Num Peaks: 64
40 1; 41 28; 42 19; 43 30; 44 201; 
45 5; 50 2; 51 8; 52 6; 53 4; 
54 3; 55 5; 56 36; 57 10; 58 6; 
62 1; 63 4; 64 2; 65 16; 66 2; 
67 1; 68 2; 70 12; 76 1; 77 29; 
78 14; 79 11; 80 3; 84 12; 86 999; 
87 59; 88 1; 89 6; 90 3; 91 29; 
92 3; 93 2; 96 5; 103 1; 104 11; 
105 3; 106 42; 107 46; 108 6; 116 1; 
117 3; 118 6; 119 3; 120 11; 121 1; 
130 1; 131 1; 132 4; 133 3; 134 12; 
135 1; 146 2; 147 1; 148 1; 160 1; 
163 1; 189 1; 220 6; 221 1; 
