Name: Yohimbine
InChIKey: BLGXFZZNTVWLAY-UHFFFAOYSA-N
Formula: C21H26N2O3
MW: 354
ExactMass: 354.194344
CASNO: 146485
ID: 2030
Comment: DEA SWL
Num Peaks: 160
41 40; 42 35; 43 27; 44 14; 45 4; 
53 20; 54 11; 55 37; 56 3; 57 15; 
59 31; 65 11; 66 3; 67 28; 68 15; 
69 16; 71 4; 73 4; 74 1; 77 35; 
78 10; 79 32; 80 7; 81 24; 82 5; 
89 10; 90 3; 91 39; 92 32; 93 22; 
94 6; 95 12; 96 7; 101 7; 102 15; 
103 19; 104 9; 105 18; 106 4; 107 34; 
108 2; 109 3; 110 9; 111 12; 113 3; 
114 7; 115 81; 116 27; 117 38; 118 19; 
119 10; 123 2; 124 6; 125 14; 126 1; 
127 31; 128 71; 129 75; 130 68; 131 20; 
132 6; 133 6; 135 12; 137 1; 138 14; 
139 6; 140 24; 141 19; 142 76; 143 112; 
144 112; 145 18; 147 9; 152 11; 153 7; 
154 90; 155 64; 156 188; 157 64; 158 18; 
165 1; 166 11; 167 61; 168 102; 169 373; 
170 190; 171 68; 172 16; 177 28; 178 6; 
179 3; 180 36; 181 24; 182 34; 183 71; 
184 153; 185 37; 191 8; 192 9; 193 18; 
194 20; 195 28; 196 10; 197 38; 198 19; 
204 1; 205 6; 206 17; 207 24; 208 17; 
209 43; 210 30; 211 23; 212 9; 218 9; 
219 12; 220 8; 221 42; 222 12; 223 40; 
224 13; 225 10; 233 2; 234 10; 235 16; 
236 4; 237 11; 247 2; 248 2; 249 12; 
251 14; 253 10; 263 7; 265 1; 267 24; 
269 6; 275 2; 277 22; 278 9; 279 1; 
281 4; 282 6; 293 16; 294 4; 295 42; 
296 8; 321 8; 323 24; 324 2; 325 24; 
326 4; 335 1; 337 1; 339 4; 351 21; 
352 21; 353 999; 354 694; 355 146; 356 20; 
