Name: Vinbarbital
InChIKey: RAFOHKSPUDGZPR-VOTSOKGWSA-N
Formula: C11H16N2O3
MW: 224
ExactMass: 224.116093
CASNO: 125428
ID: 2032
Comment: DEA SWL
Num Peaks: 102
40 24; 41 203; 42 24; 43 42; 44 44; 
45 5; 46 1; 50 8; 51 29; 52 21; 
53 91; 54 19; 55 63; 56 10; 57 14; 
58 1; 59 1; 61 2; 62 4; 63 10; 
64 4; 65 40; 66 30; 67 119; 68 21; 
69 128; 70 42; 71 2; 76 1; 77 62; 
78 16; 79 83; 80 28; 81 51; 82 12; 
83 9; 84 7; 85 10; 86 2; 87 2; 
90 6; 91 34; 92 8; 93 36; 94 20; 
95 38; 96 25; 97 17; 98 38; 99 2; 
104 1; 105 3; 106 16; 107 27; 108 21; 
109 31; 110 19; 111 3; 112 8; 113 2; 
114 4; 118 1; 119 1; 120 6; 121 10; 
122 7; 123 29; 124 48; 125 19; 126 1; 
128 1; 129 3; 134 42; 135 150; 136 29; 
137 7; 138 26; 139 5; 141 165; 142 11; 
143 1; 149 2; 150 4; 152 92; 153 26; 
154 3; 155 8; 156 13; 157 8; 165 3; 
166 3; 167 13; 168 1; 177 4; 178 2; 
179 7; 180 1; 181 9; 193 2; 195 999; 
196 106; 197 11; 
