Name: Verapamil
InChIKey: SGTNSNPWRIOYBX-UHFFFAOYSA-N
Formula: C27H38N2O4
MW: 454
ExactMass: 454.283157
CASNO: 52539
ID: 2033
Comment: DEA SWL
Num Peaks: 183
40 1; 41 23; 42 48; 43 109; 44 54; 
45 3; 50 1; 51 4; 52 2; 53 4; 
54 1; 55 6; 56 4; 57 55; 58 281; 
59 10; 63 2; 64 1; 65 10; 66 3; 
67 3; 68 1; 69 2; 70 23; 71 35; 
72 2; 76 2; 77 25; 78 17; 79 19; 
80 7; 81 2; 82 5; 83 5; 84 69; 
85 5; 89 11; 90 13; 91 35; 92 7; 
93 4; 94 7; 95 7; 96 6; 97 1; 
98 1; 101 2; 102 5; 103 17; 104 6; 
105 24; 106 19; 107 51; 108 14; 109 7; 
110 1; 115 11; 116 11; 117 9; 118 8; 
119 20; 120 11; 121 20; 122 20; 123 12; 
124 8; 127 3; 128 9; 129 6; 130 22; 
131 8; 132 6; 133 10; 134 11; 135 26; 
136 14; 137 19; 138 27; 139 17; 140 4; 
141 2; 142 3; 143 3; 144 6; 145 5; 
146 13; 147 6; 148 5; 149 9; 150 31; 
151 234; 152 28; 153 3; 155 1; 156 6; 
157 1; 158 3; 159 5; 160 8; 161 3; 
162 4; 163 5; 164 14; 165 89; 166 11; 
167 1; 169 1; 170 4; 171 5; 172 8; 
173 2; 174 10; 175 5; 176 9; 177 30; 
178 7; 179 7; 180 2; 183 1; 184 3; 
185 4; 186 7; 187 8; 188 8; 189 13; 
190 5; 191 9; 192 2; 193 2; 198 1; 
199 2; 201 2; 202 8; 203 12; 204 3; 
206 3; 208 10; 212 1; 214 3; 215 1; 
216 1; 217 4; 218 11; 219 4; 220 2; 
228 1; 229 1; 230 1; 231 1; 233 2; 
234 4; 243 3; 244 2; 245 7; 246 1; 
249 1; 250 1; 252 1; 253 1; 259 3; 
260 29; 261 3; 271 2; 276 1; 278 3; 
287 2; 288 1; 289 1; 299 1; 300 1; 
301 4; 302 3; 303 999; 304 201; 305 23; 
306 1; 325 1; 405 1; 415 1; 429 1; 
452 1; 453 2; 454 1; 
