Name: Tropine
InChIKey: CYHOMWAPJJPNMW-UHFFFAOYSA-N
Formula: C8H15NO
MW: 141
ExactMass: 141.115364
CASNO: 120296
ID: 2035
Comment: AAFS / Probability Based Matching Data Base Entry
Num Peaks: 64
41 127; 42 449; 43 229; 44 167; 45 11; 
50 16; 51 37; 52 30; 53 64; 54 116; 
55 174; 56 103; 57 131; 58 44; 59 2; 
62 4; 63 9; 64 4; 65 36; 66 28; 
67 166; 68 149; 69 40; 70 108; 71 14; 
72 5; 74 2; 77 24; 78 24; 79 31; 
80 94; 81 91; 82 999; 83 450; 84 86; 
85 14; 86 9; 91 17; 92 9; 93 29; 
94 237; 95 47; 96 714; 97 168; 98 35; 
99 3; 104 1; 106 5; 107 8; 108 11; 
109 4; 110 13; 112 102; 113 181; 114 12; 
120 3; 122 11; 124 227; 125 23; 126 14; 
127 2; 140 10; 141 245; 142 27; 
