Name: Trenbolone Acetate
InChIKey: CMRJPMODSSEAPL-UHFFFAOYSA-N
Formula: C20H24O3
MW: 312
ExactMass: 312.172544
CASNO: 10161349
ID: 2046
Comment: DEA SWL
Num Peaks: 179
40 3; 41 27; 43 314; 44 9; 45 2; 
51 8; 52 3; 53 15; 55 28; 56 2; 
57 6; 63 8; 65 19; 66 4; 67 18; 
69 3; 71 3; 73 7; 75 4; 77 46; 
78 13; 79 28; 80 2; 81 22; 82 5; 
83 18; 88 3; 89 19; 90 8; 91 77; 
92 9; 93 11; 94 3; 95 7; 98 4; 
99 2; 101 4; 102 11; 103 24; 104 11; 
105 40; 106 6; 107 14; 108 2; 109 6; 
110 2; 113 5; 115 119; 116 30; 117 34; 
118 8; 119 11; 120 3; 121 5; 122 2; 
123 3; 125 3; 126 2; 127 48; 128 127; 
129 105; 130 22; 131 34; 132 11; 133 12; 
134 5; 135 3; 138 4; 139 31; 141 176; 
142 83; 143 61; 144 16; 145 27; 146 8; 
147 12; 148 6; 149 3; 150 4; 151 16; 
152 84; 153 113; 154 79; 155 147; 156 40; 
157 37; 158 12; 159 13; 160 12; 161 8; 
162 9; 163 8; 165 132; 166 59; 167 120; 
168 57; 169 83; 170 57; 171 22; 172 10; 
173 11; 174 3; 176 13; 177 7; 178 51; 
179 64; 180 27; 181 125; 182 49; 183 52; 
184 33; 185 25; 186 13; 187 7; 188 12; 
189 13; 190 6; 191 17; 192 10; 193 22; 
194 15; 195 90; 196 49; 197 73; 198 113; 
199 78; 200 25; 201 5; 202 6; 203 5; 
204 6; 205 4; 207 26; 208 10; 209 94; 
210 82; 211 69; 212 40; 213 120; 214 121; 
215 23; 216 3; 219 10; 220 2; 221 5; 
222 4; 223 48; 224 95; 225 79; 226 26; 
227 33; 228 7; 230 2; 231 4; 233 7; 
234 3; 235 7; 237 126; 238 29; 239 3; 
241 13; 242 40; 243 7; 249 2; 252 999; 
253 208; 254 22; 255 16; 256 2; 266 2; 
268 5; 269 15; 270 88; 271 16; 272 2; 
281 2; 312 210; 313 39; 314 6; 
