Name: Tramadol
Synon: Ultram
InChIKey: TVYLLZQTGLZFBW-UHFFFAOYSA-N
Formula: C16H25NO2
MW: 263
ExactMass: 263.18853
CASNO: 27203925
ID: 2047
Comment: DEA SWL / SWGDRUG Monograph available
Num Peaks: 110
40 1; 41 16; 42 23; 43 9; 44 24; 
45 26; 46 22; 50 1; 51 3; 52 1; 
53 4; 54 1; 55 29; 56 6; 57 4; 
58 999; 59 36; 63 4; 64 5; 65 9; 
66 2; 67 4; 68 2; 69 7; 70 6; 
71 3; 72 3; 74 8; 75 1; 76 3; 
77 27; 78 8; 79 7; 80 2; 81 2; 
82 3; 83 1; 84 11; 85 1; 89 2; 
90 1; 91 13; 92 14; 93 3; 94 4; 
95 1; 96 1; 97 1; 98 3; 102 2; 
103 4; 104 1; 105 3; 106 1; 107 18; 
108 8; 109 5; 110 3; 114 4; 115 8; 
116 2; 117 3; 118 1; 119 2; 120 1; 
121 13; 122 4; 127 2; 128 5; 129 5; 
130 1; 131 3; 132 1; 133 3; 134 4; 
135 34; 136 4; 137 1; 141 1; 142 1; 
144 2; 145 5; 146 1; 147 2; 148 3; 
150 9; 151 1; 154 1; 155 1; 156 1; 
157 1; 158 1; 159 5; 160 3; 161 1; 
162 1; 163 4; 164 1; 173 2; 175 1; 
176 1; 187 1; 188 5; 189 1; 218 4; 
219 1; 220 2; 262 3; 263 38; 264 7; 
