Name: Toluene
InChIKey: YXFVVABEGXRONW-UHFFFAOYSA-N
Formula: C7H8
MW: 92
ExactMass: 92.0626
CASNO: 108883
ID: 2048
Comment: DEA SWL
Num Peaks: 38
26 4; 27 10; 28 1; 37 8; 38 18; 
39 77; 40 9; 41 7; 43 5; 45 20; 
46 12; 49 5; 50 41; 51 63; 52 14; 
53 6; 60 1; 61 15; 62 32; 63 73; 
64 17; 65 109; 66 12; 73 2; 74 9; 
75 5; 76 4; 77 9; 78 1; 84 1; 
85 5; 86 7; 87 4; 89 42; 91 999; 
92 602; 93 43; 94 1; 
