Name: Tryptamine
Synon: TIHKAL #53
InChIKey: APJYDQYYACXCRM-UHFFFAOYSA-N
Formula: C10H12N2
MW: 160
ExactMass: 160.100048
CASNO: 61541
ID: 2052
Comment: DEA SWL
Num Peaks: 62
40 1; 41 2; 42 2; 50 13; 51 28; 
52 12; 53 3; 54 2; 59 1; 61 2; 
62 8; 63 20; 64 6; 65 8; 66 1; 
71 1; 73 1; 74 13; 75 20; 76 26; 
77 131; 78 16; 79 3; 86 2; 87 4; 
88 3; 89 17; 90 9; 91 3; 98 2; 
99 1; 100 2; 101 15; 102 67; 103 104; 
104 14; 105 1; 113 3; 114 3; 115 18; 
116 6; 117 14; 118 2; 127 2; 128 50; 
129 33; 130 999; 131 492; 132 47; 133 2; 
140 2; 141 1; 142 5; 143 8; 144 1; 
155 1; 156 1; 157 2; 158 5; 159 2; 
160 111; 161 13; 
