Name: Trimethobenzamide
Synon: Tigan
InChIKey: FEZBIKUBAYAZIU-UHFFFAOYSA-N
Formula: C21H28N2O5
MW: 388
ExactMass: 388.199821
CASNO: 138567
ID: 2053
Comment: DEA SWL
Num Peaks: 101
41 3; 42 27; 43 13; 44 12; 45 1; 
50 1; 51 3; 52 2; 53 4; 54 1; 
55 2; 56 17; 58 999; 59 39; 63 3; 
64 1; 65 4; 66 10; 67 3; 69 1; 
70 9; 71 16; 72 32; 73 2; 75 1; 
76 4; 77 13; 78 6; 79 4; 81 11; 
82 2; 89 24; 90 12; 91 14; 92 7; 
93 6; 94 3; 95 3; 96 3; 103 1; 
104 3; 105 3; 106 5; 107 8; 108 2; 
109 11; 110 4; 111 1; 119 5; 120 4; 
121 11; 122 10; 123 3; 124 5; 125 5; 
127 1; 128 1; 132 1; 133 4; 134 3; 
135 2; 136 2; 137 13; 138 3; 139 4; 
140 1; 145 1; 147 1; 148 2; 149 3; 
150 4; 151 4; 152 13; 153 14; 154 8; 
155 1; 162 1; 163 1; 164 1; 165 2; 
166 1; 167 4; 168 8; 169 2; 176 3; 
179 3; 180 1; 181 2; 183 1; 193 2; 
195 84; 196 11; 197 1; 207 1; 211 1; 
315 1; 316 2; 317 1; 388 29; 389 6; 
390 1; 
