Name: Strychnine
InChIKey: QMGVPVSNSZLJIA-UHFFFAOYSA-N
Formula: C21H22N2O2
MW: 334
ExactMass: 334.168127
CASNO: 57249
ID: 2059
Comment: DEA SWL
Num Peaks: 222
40 12; 41 92; 42 98; 43 53; 44 18; 
50 7; 51 35; 52 23; 53 62; 54 49; 
55 163; 56 74; 57 16; 58 8; 63 23; 
64 7; 65 55; 66 24; 67 38; 68 47; 
69 39; 70 22; 71 22; 73 3; 74 5; 
75 18; 76 21; 77 172; 78 56; 79 160; 
80 86; 81 52; 82 50; 83 11; 84 1; 
87 4; 88 9; 89 43; 90 24; 91 147; 
92 42; 93 79; 94 117; 95 39; 96 19; 
97 31; 98 10; 99 7; 101 25; 102 64; 
103 59; 104 28; 105 70; 106 83; 107 234; 
108 138; 109 49; 110 14; 111 3; 112 4; 
113 10; 114 17; 115 163; 116 56; 117 101; 
118 75; 119 126; 120 300; 121 134; 122 70; 
123 14; 124 9; 125 7; 126 15; 127 44; 
128 86; 129 116; 130 329; 131 84; 132 116; 
133 69; 134 181; 135 76; 136 112; 137 29; 
138 52; 139 31; 140 32; 141 21; 142 49; 
143 251; 144 228; 145 40; 146 59; 147 44; 
148 31; 149 14; 150 15; 151 14; 152 32; 
153 19; 154 87; 155 42; 156 71; 157 25; 
158 33; 159 9; 160 13; 161 179; 162 220; 
163 91; 164 17; 165 22; 166 44; 167 167; 
168 113; 169 38; 170 27; 171 21; 172 55; 
173 12; 174 8; 175 26; 176 18; 177 13; 
178 22; 179 19; 180 92; 181 39; 182 42; 
183 39; 184 37; 185 22; 186 14; 189 4; 
190 9; 191 29; 192 33; 193 37; 194 39; 
195 20; 196 40; 197 29; 198 14; 199 2; 
201 3; 202 1; 203 4; 204 42; 205 23; 
206 40; 207 23; 208 24; 209 21; 210 21; 
211 8; 212 6; 213 4; 216 3; 217 21; 
218 26; 219 20; 220 54; 221 29; 222 19; 
223 18; 224 4; 230 6; 231 4; 232 17; 
233 30; 234 28; 235 19; 236 15; 237 8; 
238 5; 240 6; 244 1; 245 3; 246 11; 
247 14; 248 15; 249 23; 250 9; 251 3; 
253 4; 258 3; 259 3; 260 9; 261 17; 
262 15; 263 33; 264 18; 265 14; 267 2; 
274 7; 275 13; 276 11; 277 27; 278 10; 
279 19; 281 3; 282 3; 288 1; 289 9; 
290 5; 291 22; 292 11; 303 12; 304 12; 
305 35; 306 31; 307 7; 317 3; 319 59; 
320 13; 327 1; 331 1; 333 112; 334 999; 
335 232; 336 31; 
