Name: Sulfadiazine
InChIKey: SEEPANYCNGTZFQ-UHFFFAOYSA-N
Formula: C10H10N4O2S
MW: 250
ExactMass: 250.052446
CASNO: 68359
ID: 2061
Comment: AAFS / Probability Based Matching Data Base Entry
Num Peaks: 125
41 39; 42 23; 43 30; 44 2; 45 5; 
46 3; 48 5; 50 10; 51 17; 52 61; 
53 48; 54 19; 55 20; 56 4; 57 18; 
58 3; 59 2; 60 3; 61 5; 62 20; 
63 71; 64 69; 65 534; 66 104; 67 87; 
68 31; 69 27; 70 9; 71 14; 72 2; 
73 3; 74 7; 75 6; 76 5; 77 5; 
78 11; 79 45; 80 60; 81 20; 82 8; 
83 14; 84 10; 85 11; 87 2; 89 5; 
90 17; 91 58; 92 553; 93 93; 94 16; 
95 25; 96 23; 97 14; 98 6; 99 3; 
101 1; 102 1; 103 2; 104 6; 105 10; 
106 8; 107 25; 108 269; 109 24; 110 5; 
111 6; 112 6; 113 1; 114 2; 115 3; 
116 3; 117 6; 118 18; 119 9; 120 2; 
121 2; 122 1; 123 11; 124 5; 125 3; 
126 1; 127 1; 128 1; 129 3; 130 2; 
131 15; 132 12; 133 8; 134 2; 135 2; 
137 4; 138 2; 139 1; 140 31; 141 7; 
142 7; 143 4; 144 5; 145 6; 146 2; 
147 2; 149 1; 152 1; 153 1; 155 34; 
157 10; 158 21; 159 13; 160 2; 166 1; 
168 23; 169 6; 170 36; 171 5; 183 1; 
184 11; 185 999; 186 644; 187 70; 188 4; 
213 1; 236 2; 237 1; 250 2; 251 1; 
