Name: Sulfanilamide
InChIKey: FDDDEECHVMSUSB-UHFFFAOYSA-N
Formula: C6H8N2O2S
MW: 172
ExactMass: 172.030648
CASNO: 63741
ID: 2062
Comment: AAFS / Probability Based Matching Data Base Entry
Num Peaks: 80
41 69; 42 23; 43 5; 44 7; 45 30; 
47 8; 48 41; 49 7; 50 36; 51 35; 
52 102; 53 84; 54 73; 55 9; 56 2; 
57 6; 58 3; 59 1; 60 4; 61 25; 
62 69; 63 165; 64 183; 65 831; 66 114; 
67 10; 68 6; 69 23; 70 9; 71 6; 
72 1; 73 4; 74 21; 75 13; 76 7; 
77 2; 78 12; 79 13; 80 197; 81 27; 
82 7; 83 4; 84 4; 85 4; 86 1; 
87 3; 88 5; 89 8; 90 25; 91 65; 
92 886; 93 66; 94 4; 95 7; 96 7; 
97 3; 98 1; 99 1; 105 3; 106 2; 
107 59; 108 612; 109 66; 110 5; 111 2; 
112 3; 121 1; 122 2; 123 12; 124 6; 
125 1; 138 1; 140 39; 141 4; 142 2; 
155 999; 156 78; 157 52; 159 3; 172 943; 
