Name: Sulfapyridine
InChIKey: GECHUMIMRBOMGK-UHFFFAOYSA-N
Formula: C11H11N3O2S
MW: 249
ExactMass: 249.057198
CASNO: 144832
ID: 2063
Comment: AAFS / Probability Based Matching Data Base Entry
Num Peaks: 128
41 100; 42 31; 43 56; 44 33; 45 40; 
46 5; 47 3; 48 4; 49 3; 50 23; 
51 46; 52 48; 53 36; 54 17; 55 60; 
56 19; 57 28; 58 11; 59 4; 60 12; 
61 10; 62 23; 63 65; 64 66; 65 468; 
66 191; 67 201; 68 19; 69 55; 70 18; 
71 22; 72 5; 73 14; 74 7; 75 7; 
76 7; 77 13; 78 48; 79 26; 80 34; 
81 14; 82 9; 83 24; 84 55; 85 14; 
86 11; 87 6; 88 2; 89 5; 90 12; 
91 46; 92 581; 93 85; 94 56; 95 32; 
96 9; 97 247; 98 21; 99 8; 100 4; 
101 3; 102 2; 103 4; 104 4; 105 12; 
106 5; 107 20; 108 275; 109 23; 110 4; 
111 24; 112 147; 113 13; 114 4; 115 5; 
116 2; 117 4; 118 8; 119 6; 120 4; 
121 2; 122 2; 123 9; 124 7; 125 3; 
126 3; 127 2; 128 3; 129 5; 130 13; 
131 5; 132 4; 134 2; 135 2; 137 2; 
138 2; 139 2; 140 40; 141 8; 142 5; 
143 4; 144 2; 145 3; 149 14; 151 1; 
152 2; 153 2; 155 51; 157 14; 158 8; 
159 2; 165 2; 166 3; 167 22; 168 15; 
169 10; 170 2; 171 2; 179 5; 182 5; 
183 23; 184 999; 185 680; 186 80; 187 5; 
196 2; 213 2; 249 3; 
