Name: Thiothixene
InChIKey: GFBKORZTTCHDGY-UWVJOHFNSA-N
Formula: C23H29N3O2S2
MW: 443
ExactMass: 443.170118
CASNO: 5591457
ID: 2067
Comment: AAFS / Probability Based Matching Data Base Entry
Num Peaks: 177
30 14; 33 4; 35 4; 36 1; 39 3; 
40 3; 41 7; 42 149; 43 75; 44 15; 
45 3; 46 4; 48 1; 51 1; 52 4; 
54 8; 55 9; 56 48; 57 14; 58 22; 
59 2; 64 2; 66 4; 67 3; 68 8; 
70 494; 71 31; 72 6; 74 1; 75 3; 
76 1; 78 2; 79 6; 81 6; 82 10; 
83 6; 85 7; 87 1; 88 1; 91 2; 
95 2; 96 7; 98 43; 99 8; 101 1; 
104 1; 105 3; 107 4; 108 1; 109 1; 
111 16; 113 999; 114 77; 115 5; 116 3; 
117 2; 119 1; 121 2; 124 1; 126 3; 
129 2; 131 5; 133 1; 134 1; 135 2; 
136 1; 142 1; 145 5; 146 7; 150 2; 
151 8; 152 7; 154 2; 157 1; 160 1; 
162 5; 164 5; 165 6; 167 2; 169 4; 
171 1; 172 1; 173 1; 175 1; 176 12; 
177 5; 178 1; 179 1; 181 1; 182 1; 
183 2; 184 3; 186 1; 187 6; 188 2; 
189 25; 190 4; 191 4; 192 1; 195 7; 
196 3; 197 7; 198 2; 199 2; 200 6; 
202 18; 203 6; 206 1; 208 12; 209 4; 
210 3; 211 2; 213 1; 215 1; 216 1; 
218 8; 220 4; 221 148; 222 68; 223 21; 
224 4; 228 1; 232 5; 233 9; 234 24; 
235 20; 236 10; 237 1; 247 1; 249 1; 
251 1; 254 2; 259 1; 260 1; 261 1; 
263 1; 264 1; 267 1; 271 1; 278 1; 
281 1; 290 1; 291 1; 295 1; 304 1; 
307 2; 312 1; 315 1; 316 1; 317 1; 
329 2; 332 1; 333 1; 338 1; 345 1; 
350 1; 352 1; 354 1; 362 1; 368 1; 
373 1; 379 1; 383 1; 384 1; 387 1; 
391 1; 394 1; 398 1; 403 2; 405 1; 
408 1; 418 1; 419 1; 424 1; 438 1; 
442 3; 443 2; 
