Name: Thiabendazole
InChIKey: WJCNZQLZVWNLKY-UHFFFAOYSA-N
Formula: C10H7N3S
MW: 201
ExactMass: 201.036068
CASNO: 148798
ID: 2068
Comment: AAFS / Probability Based Matching Data Base Entry
Num Peaks: 153
41 15; 42 4; 43 18; 44 7; 45 34; 
46 8; 47 1; 49 2; 50 21; 51 38; 
52 48; 53 9; 54 4; 55 22; 56 12; 
57 45; 58 11; 59 10; 60 8; 61 9; 
62 27; 63 112; 64 89; 65 71; 66 9; 
67 13; 68 18; 69 96; 70 47; 71 23; 
72 5; 73 15; 75 26; 76 37; 77 24; 
78 25; 79 10; 80 4; 81 22; 82 16; 
83 44; 84 45; 85 21; 86 13; 87 14; 
88 10; 89 9; 90 91; 91 48; 92 44; 
93 12; 94 21; 95 16; 96 14; 97 14; 
98 7; 99 7; 100 50; 102 56; 103 63; 
104 10; 105 19; 106 5; 107 9; 108 4; 
109 9; 110 8; 111 43; 112 7; 113 5; 
114 9; 115 17; 116 9; 117 8; 118 12; 
119 7; 120 21; 121 11; 122 5; 123 7; 
124 3; 125 4; 126 2; 127 3; 128 3; 
129 80; 130 73; 131 11; 132 8; 133 6; 
134 20; 135 7; 136 5; 137 31; 138 5; 
139 4; 140 3; 141 6; 142 25; 143 29; 
144 4; 145 3; 146 27; 147 15; 148 5; 
149 10; 150 4; 151 3; 152 2; 153 1; 
154 1; 155 2; 156 10; 157 5; 158 1; 
159 3; 160 1; 161 2; 162 1; 163 2; 
165 2; 166 1; 167 3; 168 4; 169 2; 
171 2; 172 1; 173 40; 174 758; 175 88; 
176 39; 177 5; 178 1; 179 1; 180 1; 
181 1; 183 1; 185 3; 186 1; 187 2; 
189 1; 191 1; 192 1; 193 1; 194 1; 
197 1; 199 2; 200 24; 201 999; 202 133; 
203 52; 204 6; 205 2; 
