Name: Theobromine
InChIKey: YAPQBXQYLJRXSA-UHFFFAOYSA-N
Formula: C7H8N4O2
MW: 180
ExactMass: 180.064726
CASNO: 83670
ID: 2070
Comment: DEA SWL
Num Peaks: 29
40 83; 41 72; 42 117; 43 3; 44 39; 
52 37; 53 61; 54 60; 55 410; 56 19; 
66 81; 67 487; 68 55; 70 103; 80 13; 
81 75; 82 346; 83 25; 94 49; 108 35; 
109 330; 110 55; 111 35; 136 61; 137 102; 
151 6; 179 87; 180 999; 181 93; 
