Name: Tetrahydrozoline
InChIKey: BYJAVTDNIXVSPW-UHFFFAOYSA-N
Formula: C13H16N2
MW: 200
ExactMass: 200.131349
CASNO: 84220
ID: 2074
Comment: AAFS
Num Peaks: 100
42 64; 43 25; 44 205; 45 11; 50 21; 
51 55; 52 19; 53 33; 54 14; 55 16; 
56 4; 58 19; 61 2; 62 12; 63 44; 
64 23; 65 41; 66 5; 67 8; 68 8; 
69 25; 71 250; 74 11; 75 19; 76 22; 
77 95; 78 37; 79 34; 80 6; 81 8; 
82 10; 84 296; 85 51; 86 15; 87 15; 
88 7; 89 36; 91 230; 92 41; 95 10; 
97 49; 98 16; 99 44; 101 16; 102 35; 
103 39; 104 16; 105 7; 108 5; 109 4; 
113 6; 115 208; 116 111; 117 28; 118 6; 
123 3; 126 16; 127 87; 128 203; 129 190; 
130 109; 131 243; 132 29; 139 7; 140 12; 
141 23; 142 17; 143 19; 144 18; 145 5; 
152 3; 153 7; 154 19; 155 14; 156 21; 
157 15; 158 18; 159 9; 160 2; 166 2; 
167 6; 168 11; 169 19; 170 23; 171 333; 
172 48; 173 9; 181 3; 182 6; 183 18; 
184 48; 185 902; 186 127; 187 8; 195 4; 
197 40; 199 690; 200 999; 201 146; 202 10; 
