Name: meta-Fluorofentanyl
Synon: 3-Fluorofentanyl
Synon: 1-(2-phenylethyl)-4-(3-fluoro-N-propananilido)piperidine
InChIKey: SLTQVWMQISKVDN-UHFFFAOYSA-N
Formula: C22H27FN2O
MW: 354
ExactMass: 354.210741
CASNO: 90736224
ID: 2083
Comment: DEA WRL
Num Peaks: 120
16 6; 26 6; 27 61; 28 13; 29 298; 
30 10; 32 4; 38 1; 39 15; 40 7; 
41 49; 42 201; 43 52; 44 99; 45 3; 
46 3; 49 1; 51 25; 52 9; 53 36; 
54 21; 55 47; 56 43; 57 351; 59 3; 
63 27; 65 83; 66 16; 67 32; 68 50; 
69 44; 70 75; 71 12; 75 42; 76 11; 
77 88; 78 40; 79 101; 80 20; 81 12; 
82 45; 83 18; 84 24; 89 7; 90 13; 
91 222; 92 30; 94 31; 95 177; 96 151; 
97 26; 102 6; 103 76; 104 37; 105 230; 
106 14; 109 44; 110 7; 111 37; 112 17; 
115 13; 116 7; 117 28; 118 4; 121 10; 
122 79; 123 37; 124 36; 125 2; 128 9; 
130 28; 131 7; 132 13; 134 14; 135 35; 
136 89; 137 25; 139 18; 140 6; 142 1; 
143 2; 144 7; 146 10; 148 112; 149 79; 
150 137; 151 27; 160 22; 161 11; 162 17; 
163 15; 164 768; 165 101; 166 11; 170 2; 
176 75; 177 25; 178 12; 182 1; 186 29; 
187 5; 188 25; 189 6; 191 5; 203 3; 
205 19; 206 17; 207 553; 208 84; 220 103; 
221 11; 226 2; 234 6; 235 1; 248 1; 
263 999; 264 171; 265 15; 269 2; 353 1; 
