Name: Fentanyl para methylphenyl analog
Synon: 1-[2-(4-methylphenyl)ethyl]-4-(N-propanilido)piperidine
InChIKey: AGSRCZOBGTWFFY-UHFFFAOYSA-N
Formula: C23H30N2O
MW: 350
ExactMass: 350.235813
CASNO: 0
ID: 2085
Comment: DEA WRL
Num Peaks: 84
11 4; 17 5; 25 4; 27 44; 29 182; 
30 8; 32 3; 37 2; 39 26; 40 1; 
41 58; 42 178; 43 23; 44 62; 45 9; 
48 2; 50 10; 52 6; 54 17; 55 40; 
56 28; 57 248; 64 15; 65 39; 67 37; 
68 51; 69 26; 70 53; 73 2; 74 4; 
75 4; 77 200; 78 57; 79 68; 80 24; 
82 23; 83 9; 91 132; 92 26; 93 37; 
94 30; 95 38; 96 105; 97 13; 101 2; 
103 74; 104 110; 105 199; 106 59; 115 23; 
116 14; 117 125; 118 132; 119 156; 120 23; 
129 7; 130 117; 131 68; 132 145; 133 29; 
140 3; 141 1; 142 5; 144 23; 145 18; 
146 781; 147 93; 148 7; 156 4; 157 4; 
158 110; 159 32; 160 8; 180 3; 187 19; 
189 519; 190 69; 200 8; 202 187; 203 29; 
210 2; 216 7; 245 999; 246 169; 
