Name: Fentanyl meta methylphenyl analog
Synon: 1-[2-(3-methylphenyl)ethyl]-4-(N-propanilido)piperidine
InChIKey: RBPHYEMEGYTXGK-UHFFFAOYSA-N
Formula: C23H30N2O
MW: 350
ExactMass: 350.235813
CASNO: 0
ID: 2086
Comment: DEA WRL
Num Peaks: 106
14 10; 18 2; 19 5; 22 3; 27 43; 
28 19; 29 190; 30 7; 31 3; 35 1; 
39 16; 40 7; 41 51; 42 187; 43 39; 
44 78; 45 7; 46 2; 50 7; 51 32; 
53 17; 54 25; 55 37; 56 46; 57 235; 
63 8; 65 47; 66 15; 67 31; 68 55; 
69 33; 70 63; 71 5; 76 6; 77 219; 
78 40; 79 80; 80 9; 81 7; 82 29; 
83 9; 86 2; 89 7; 90 10; 91 168; 
92 18; 93 56; 94 35; 95 19; 96 133; 
97 17; 102 13; 103 70; 104 116; 105 202; 
106 52; 107 4; 109 4; 115 35; 116 14; 
117 137; 118 135; 119 175; 120 24; 127 6; 
128 9; 129 13; 130 115; 131 81; 132 147; 
133 17; 138 4; 139 11; 143 7; 144 22; 
145 22; 146 830; 147 104; 148 17; 149 5; 
155 5; 158 151; 159 28; 160 17; 161 4; 
172 5; 173 3; 174 18; 187 16; 188 20; 
189 530; 190 61; 191 15; 198 2; 199 3; 
200 22; 202 217; 203 26; 204 4; 216 10; 
230 3; 245 999; 246 160; 247 13; 339 1; 
349 3; 
