Name: Fentanyl meta tolyl analog
Synon: N-(3-Methylphenyl)-N-[1-(2-phenylethyl)-4-piperidinyl]propanamide
Synon: 1-(2-phenylethyl)-4-(3-methyl-N-propananilido)piperidine
InChIKey: MEXMWWZFTYDPKV-UHFFFAOYSA-N
Formula: C23H30N2O
MW: 350
ExactMass: 350.235813
CASNO: 47480477
ID: 2091
Comment: DEA WRL
Num Peaks: 91
13 22; 16 16; 18 4; 19 8; 23 4; 
29 269; 30 22; 32 43; 39 28; 41 51; 
42 182; 43 23; 51 25; 52 27; 55 35; 
56 19; 57 322; 63 30; 65 146; 66 12; 
67 12; 68 23; 69 47; 70 71; 71 5; 
75 6; 76 13; 77 112; 78 49; 79 106; 
80 24; 83 10; 87 2; 89 15; 90 10; 
91 409; 92 35; 93 9; 94 17; 95 42; 
96 109; 97 18; 103 71; 104 33; 105 268; 
106 57; 107 16; 115 22; 117 40; 118 92; 
119 28; 120 34; 127 5; 128 11; 129 9; 
130 139; 131 40; 132 114; 133 56; 134 21; 
139 17; 142 3; 143 8; 144 111; 145 97; 
146 139; 147 35; 158 22; 159 12; 160 999; 
161 146; 162 19; 164 17; 172 166; 173 52; 
184 15; 185 3; 186 41; 187 11; 188 28; 
191 6; 201 12; 202 23; 203 457; 204 104; 
216 249; 217 45; 259 972; 260 177; 261 22; 
321 5; 
