Name: Fentanyl propyl analog
Synon: N-Phenyl-N-[1-(3-phenylpropyl)-4-piperidinyl]propanamide
Synon: 1-(3-phenylpropyl)-4-(N-propanilido)piperidine
InChIKey: CKBFKWWOUYBCRH-UHFFFAOYSA-N
Formula: C23H30N2O
MW: 350
ExactMass: 350.235813
CASNO: 59708542
ID: 2096
Comment: DEA WRL
Num Peaks: 103
12 11; 14 32; 18 58; 22 23; 23 10; 
28 211; 29 363; 30 17; 34 19; 37 16; 
38 10; 39 46; 40 30; 41 56; 42 267; 
43 57; 45 18; 50 20; 51 48; 52 15; 
53 60; 54 66; 55 114; 56 55; 57 536; 
58 37; 63 34; 64 10; 65 100; 67 52; 
68 71; 70 261; 77 285; 79 64; 80 48; 
81 21; 82 175; 83 58; 87 25; 89 28; 
91 830; 92 72; 93 102; 94 62; 95 41; 
96 602; 97 58; 98 73; 99 10; 103 48; 
104 112; 105 60; 106 48; 107 10; 108 34; 
109 12; 110 17; 115 74; 117 146; 118 174; 
119 104; 120 29; 124 10; 130 89; 131 72; 
132 186; 133 31; 142 5; 144 44; 146 700; 
147 91; 149 20; 150 11; 158 129; 159 31; 
160 37; 162 15; 172 28; 173 13; 174 125; 
177 8; 181 14; 185 7; 187 20; 188 11; 
189 509; 190 73; 200 142; 201 92; 202 267; 
203 47; 245 999; 246 187; 247 15; 259 59; 
260 15; 265 12; 266 10; 293 130; 294 13; 
321 25; 350 171; 351 37; 
