Name: Boldenone Cypionate
InChIKey: QPMSXPMLTYTHGM-UHFFFAOYSA-N
Formula: C27H38O3
MW: 410
ExactMass: 410.282095
CASNO: 846480
ID: 2099
Comment: DEA SWL
Num Peaks: 180
41 101; 42 11; 43 26; 44 2; 45 1; 
50 1; 51 4; 52 2; 53 25; 54 16; 
55 231; 56 13; 57 8; 59 1; 60 7; 
63 1; 65 15; 66 7; 67 76; 68 16; 
69 80; 70 4; 71 7; 73 8; 74 1; 
77 53; 78 15; 79 117; 80 19; 81 100; 
82 13; 83 20; 84 2; 85 3; 89 2; 
91 152; 92 33; 93 76; 94 16; 95 45; 
96 7; 97 33; 98 4; 99 3; 102 2; 
103 14; 104 9; 105 86; 106 21; 107 107; 
108 70; 109 63; 110 21; 111 3; 114 2; 
115 23; 116 9; 117 33; 118 10; 119 47; 
120 24; 121 260; 122 999; 123 109; 124 9; 
125 77; 126 7; 127 6; 128 19; 129 24; 
130 11; 131 43; 132 21; 133 88; 134 95; 
135 54; 136 21; 137 4; 139 1; 141 13; 
142 8; 143 15; 144 18; 145 56; 146 44; 
147 267; 148 37; 149 10; 150 2; 151 6; 
152 4; 153 5; 154 3; 155 7; 156 4; 
157 16; 158 20; 159 54; 160 49; 161 51; 
162 9; 163 3; 165 13; 166 2; 167 3; 
168 1; 169 6; 170 4; 171 17; 172 13; 
173 43; 174 16; 175 7; 176 3; 177 1; 
178 2; 179 1; 180 1; 181 3; 182 1; 
183 6; 184 4; 185 11; 186 7; 187 7; 
188 4; 189 1; 191 1; 193 2; 195 3; 
196 2; 197 8; 198 6; 199 8; 200 4; 
201 2; 202 1; 203 1; 207 4; 208 2; 
209 2; 210 2; 211 9; 212 6; 213 7; 
214 3; 223 2; 224 2; 225 13; 226 5; 
227 11; 228 2; 229 1; 235 3; 236 1; 
239 8; 240 10; 241 3; 242 1; 250 5; 
251 7; 253 24; 254 4; 255 1; 257 1; 
267 4; 268 35; 269 40; 270 7; 271 6; 
272 1; 286 31; 287 7; 288 1; 289 3; 
328 1; 341 1; 382 1; 410 15; 411 4; 
