Name: 3.beta.,17.beta.-dihydroxy-5.alpha.-androstane
InChIKey: CBMYJHIOYJEBSB-WTVXNACZSA-N
Formula: C19H32O2
MW: 292
ExactMass: 292.24023
CASNO: 571200
ID: 2104
Comment: DEA SWL
Num Peaks: 229
36 1; 38 2; 39 112; 40 33; 41 633; 
42 55; 43 402; 44 93; 45 40; 46 1; 
50 4; 51 25; 52 17; 53 292; 54 79; 
55 952; 56 80; 57 454; 58 56; 59 22; 
60 3; 61 2; 62 1; 63 6; 64 4; 
65 143; 66 63; 67 898; 68 262; 69 311; 
70 81; 71 157; 72 12; 73 6; 74 6; 
75 4; 76 3; 77 395; 78 93; 79 914; 
80 186; 81 857; 82 148; 83 191; 84 65; 
85 48; 86 6; 87 5; 88 6; 89 5; 
90 3; 91 805; 92 174; 93 964; 94 403; 
95 703; 96 140; 97 213; 98 29; 99 13; 
100 4; 101 6; 102 5; 103 44; 104 34; 
105 597; 106 308; 107 999; 108 401; 109 393; 
110 98; 111 164; 112 20; 113 6; 114 1; 
115 66; 116 26; 117 135; 118 61; 119 413; 
120 268; 121 545; 122 320; 123 360; 124 166; 
125 66; 126 17; 127 11; 128 33; 129 49; 
130 21; 131 188; 132 57; 133 376; 134 160; 
135 298; 136 124; 137 98; 138 62; 139 18; 
140 2; 141 13; 142 10; 143 40; 144 22; 
145 267; 146 85; 147 463; 148 384; 149 391; 
150 69; 151 92; 152 23; 153 23; 154 6; 
155 6; 156 4; 157 30; 158 14; 159 171; 
160 100; 161 212; 162 109; 163 98; 164 58; 
165 627; 166 417; 167 77; 168 13; 169 7; 
170 2; 171 27; 172 11; 173 129; 174 79; 
175 114; 176 53; 177 43; 178 52; 179 33; 
180 18; 181 3; 182 1; 183 3; 184 1; 
185 37; 186 12; 187 89; 188 51; 189 44; 
190 36; 191 59; 192 100; 193 24; 194 6; 
195 1; 197 2; 198 1; 199 57; 200 22; 
201 136; 202 54; 203 23; 204 18; 205 26; 
206 48; 207 17; 208 1; 211 1; 212 1; 
213 21; 214 10; 215 807; 216 168; 217 432; 
218 82; 219 67; 220 36; 221 6; 222 1; 
227 8; 228 5; 229 7; 230 82; 231 38; 
232 30; 233 613; 234 132; 235 93; 236 14; 
237 2; 239 5; 240 1; 241 114; 242 22; 
243 4; 244 2; 245 8; 246 12; 247 4; 
248 137; 249 24; 250 4; 254 1; 255 6; 
256 17; 257 9; 258 2; 259 172; 260 33; 
261 4; 262 1; 263 10; 264 5; 272 5; 
273 4; 274 174; 275 38; 276 7; 277 281; 
278 54; 279 6; 288 1; 290 18; 291 8; 
292 792; 293 165; 294 20; 295 1; 
