Name: 3.alpha.,17.beta.-dihydroxy-5.alpha.-androstane
InChIKey: CBMYJHIOYJEBSB-UYILJUQYSA-N
Formula: C19H32O2
MW: 292
ExactMass: 292.24023
CASNO: 1852535
ID: 2105
Comment: DEA SWL
Num Peaks: 224
38 2; 39 111; 40 34; 41 602; 42 52; 
43 369; 44 103; 45 37; 46 1; 50 3; 
51 24; 52 17; 53 280; 54 77; 55 898; 
56 74; 57 425; 58 53; 59 18; 60 2; 
61 1; 62 1; 63 6; 64 4; 65 146; 
66 65; 67 884; 68 243; 69 287; 70 70; 
71 133; 72 10; 73 5; 74 6; 75 3; 
76 3; 77 414; 78 95; 79 950; 80 193; 
81 815; 82 137; 83 184; 84 57; 85 43; 
86 6; 87 4; 88 7; 89 5; 90 3; 
91 855; 92 176; 93 999; 94 389; 95 658; 
96 120; 97 178; 98 26; 99 12; 100 5; 
101 8; 102 6; 103 45; 104 37; 105 637; 
106 291; 107 952; 108 428; 109 400; 110 98; 
111 184; 112 20; 113 6; 114 2; 115 69; 
116 26; 117 143; 118 65; 119 418; 120 272; 
121 464; 122 312; 123 254; 124 156; 125 52; 
126 12; 127 10; 128 36; 129 52; 130 23; 
131 202; 132 60; 133 409; 134 176; 135 320; 
136 103; 137 90; 138 50; 139 15; 140 2; 
141 15; 142 12; 143 42; 144 23; 145 297; 
146 96; 147 517; 148 488; 149 404; 150 70; 
151 79; 152 20; 153 16; 154 5; 155 7; 
156 4; 157 28; 158 13; 159 179; 160 113; 
161 211; 162 106; 163 86; 164 61; 165 655; 
166 386; 167 58; 168 8; 169 5; 170 2; 
171 32; 172 11; 173 136; 174 70; 175 97; 
176 56; 177 36; 178 37; 179 20; 180 10; 
181 3; 182 1; 183 3; 184 2; 185 43; 
186 16; 187 92; 188 41; 189 36; 190 24; 
191 41; 192 52; 193 14; 194 5; 195 1; 
197 2; 198 1; 199 48; 200 17; 201 112; 
202 52; 203 26; 204 14; 205 22; 206 31; 
207 5; 211 1; 212 1; 213 23; 214 11; 
215 761; 216 157; 217 427; 218 82; 219 77; 
220 51; 221 8; 222 1; 227 8; 228 5; 
229 7; 230 79; 231 45; 232 26; 233 495; 
234 101; 235 45; 236 6; 237 1; 239 3; 
240 1; 241 131; 242 24; 243 4; 244 1; 
245 8; 246 11; 247 3; 248 114; 249 22; 
250 3; 255 4; 256 27; 257 11; 258 2; 
259 187; 260 36; 261 4; 263 5; 264 3; 
272 3; 273 3; 274 217; 275 46; 276 7; 
277 315; 278 60; 279 7; 290 12; 291 3; 
292 450; 293 94; 294 12; 295 1; 
