Name: .delta.-1-dihydrotestosterone
Synon: 1-testosterone
Synon: 17.beta.-hydroxy-5.alpha.-androst-1-en-3-one
InChIKey: OKJCFMUGMSVJBG-CMSWPDJLSA-N
Formula: C19H28O2
MW: 288
ExactMass: 288.208931
CASNO: 65065
ID: 2112
Comment: DEA SWL
Num Peaks: 212
38 1; 39 113; 40 30; 41 389; 42 29; 
43 177; 44 36; 45 17; 50 5; 51 39; 
52 34; 53 244; 54 54; 55 464; 56 31; 
57 157; 58 22; 59 4; 60 1; 62 1; 
63 12; 64 7; 65 151; 66 52; 67 444; 
68 121; 69 237; 70 17; 71 90; 72 8; 
73 3; 74 3; 75 1; 76 4; 77 442; 
78 96; 79 710; 80 302; 81 375; 82 64; 
83 57; 84 45; 85 35; 86 7; 87 10; 
88 1; 89 8; 90 5; 91 609; 92 109; 
93 439; 94 182; 95 332; 96 50; 97 88; 
98 12; 99 4; 100 3; 101 7; 102 7; 
103 52; 104 36; 105 307; 106 94; 107 511; 
108 252; 109 540; 110 246; 111 121; 112 10; 
113 2; 114 3; 115 78; 116 30; 117 120; 
118 41; 119 184; 120 90; 121 399; 122 999; 
123 368; 124 68; 125 12; 126 2; 127 14; 
128 46; 129 60; 130 26; 131 132; 132 73; 
133 205; 134 273; 135 214; 136 68; 137 31; 
138 10; 139 5; 140 1; 141 22; 142 16; 
143 49; 144 35; 145 132; 146 64; 147 171; 
148 121; 149 183; 150 37; 151 52; 152 15; 
153 16; 154 8; 155 13; 156 8; 157 36; 
158 34; 159 99; 160 114; 161 139; 162 43; 
163 29; 164 13; 165 18; 166 20; 167 40; 
168 6; 169 12; 170 5; 171 43; 172 17; 
173 69; 174 41; 175 33; 176 21; 177 28; 
178 9; 179 21; 180 7; 181 4; 182 1; 
183 10; 184 10; 185 44; 186 78; 187 78; 
188 24; 189 28; 190 9; 191 5; 192 2; 
193 1; 195 2; 196 1; 197 7; 198 8; 
199 32; 200 18; 201 27; 202 49; 203 25; 
204 174; 205 33; 206 4; 209 1; 210 1; 
211 10; 212 3; 213 25; 214 7; 215 17; 
216 19; 217 14; 218 29; 219 5; 220 1; 
223 1; 226 2; 227 12; 228 13; 229 45; 
230 14; 231 18; 232 5; 233 3; 237 3; 
241 4; 242 4; 243 2; 244 23; 245 19; 
246 362; 247 69; 248 7; 252 2; 253 1; 
255 21; 256 4; 257 1; 259 6; 260 6; 
261 1; 269 1; 270 24; 271 6; 272 1; 
273 22; 274 4; 286 1; 287 2; 288 156; 
289 33; 290 4; 
