Name: 5.alpha.-Androstan-3,17-dione
Synon: 5.alpha.-androstanedione
InChIKey: RAJWOBJTTGJROA-UHFFFAOYSA-N
Formula: C19H28O2
MW: 288
ExactMass: 288.208931
CASNO: 846468
ID: 2117
Comment: DEA SWL
Num Peaks: 224
38 2; 39 144; 40 41; 41 558; 42 77; 
43 133; 44 6; 45 3; 50 5; 51 36; 
52 27; 53 313; 54 91; 55 934; 56 74; 
57 69; 58 8; 59 5; 60 4; 61 2; 
62 1; 63 10; 64 8; 65 168; 66 69; 
67 813; 68 231; 69 190; 70 15; 71 22; 
72 5; 73 4; 74 15; 75 3; 76 3; 
77 393; 78 90; 79 764; 80 140; 81 585; 
82 132; 83 104; 84 13; 85 16; 86 2; 
87 2; 88 13; 89 8; 90 3; 91 676; 
92 124; 93 629; 94 149; 95 410; 96 81; 
97 396; 98 41; 99 9; 100 1; 101 2; 
102 11; 103 52; 104 36; 105 478; 106 167; 
107 443; 108 285; 109 498; 110 284; 111 134; 
112 12; 113 3; 114 2; 115 72; 116 30; 
117 132; 118 82; 119 323; 120 177; 121 389; 
122 250; 123 288; 124 605; 125 87; 126 7; 
127 13; 128 44; 129 59; 130 28; 131 169; 
132 71; 133 219; 134 153; 135 240; 136 121; 
137 118; 138 31; 139 6; 140 2; 141 19; 
142 16; 143 68; 144 40; 145 182; 146 90; 
147 295; 148 96; 149 121; 150 36; 151 60; 
152 13; 153 6; 154 2; 155 16; 156 12; 
157 73; 158 45; 159 189; 160 113; 161 218; 
162 104; 163 192; 164 63; 165 47; 166 10; 
167 4; 168 1; 169 16; 170 17; 171 83; 
172 40; 173 105; 174 102; 175 166; 176 79; 
177 40; 178 14; 179 20; 180 3; 181 5; 
182 2; 183 19; 184 9; 185 38; 186 30; 
187 76; 188 59; 189 82; 190 43; 191 16; 
192 15; 193 3; 194 1; 195 13; 196 4; 
197 48; 198 18; 199 130; 200 30; 201 43; 
202 20; 203 40; 204 33; 205 8; 206 4; 
207 2; 208 1; 209 4; 210 2; 211 61; 
212 26; 213 88; 214 29; 215 57; 216 94; 
217 763; 218 139; 219 16; 220 2; 223 1; 
224 1; 225 1; 226 8; 227 16; 228 13; 
229 333; 230 72; 231 182; 232 119; 233 26; 
234 3; 237 21; 238 4; 241 9; 242 6; 
243 4; 244 470; 245 112; 246 31; 247 4; 
251 1; 252 3; 253 1; 254 1; 255 290; 
256 56; 257 7; 258 1; 259 5; 260 11; 
261 2; 269 3; 270 146; 271 32; 272 5; 
273 127; 274 23; 275 2; 286 1; 287 4; 
288 999; 289 206; 290 24; 291 2; 
