Name: 1-Androstenedione
Synon: [5.alpha.]-androst-1-en-3,17-dione
InChIKey: WJIQCDPCDVWDDE-UHFFFAOYSA-N
Formula: C19H26O2
MW: 286
ExactMass: 286.19328
CASNO: 571404
ID: 2118
Comment: DEA SWL
Num Peaks: 202
38 1; 39 111; 40 28; 41 314; 42 34; 
43 61; 44 5; 45 1; 50 5; 51 41; 
52 35; 53 205; 54 54; 55 340; 56 23; 
57 17; 58 4; 59 2; 60 1; 62 1; 
63 14; 64 9; 65 137; 66 46; 67 350; 
68 67; 69 199; 70 11; 71 11; 72 4; 
73 4; 74 2; 75 2; 76 4; 77 359; 
78 82; 79 539; 80 209; 81 235; 82 47; 
83 23; 84 6; 85 7; 86 5; 87 9; 
89 8; 90 4; 91 457; 92 81; 93 307; 
94 104; 95 164; 96 27; 97 99; 98 13; 
99 3; 100 2; 101 6; 102 6; 103 43; 
104 26; 105 237; 106 71; 107 268; 108 181; 
109 415; 110 149; 111 58; 112 4; 113 1; 
114 1; 115 69; 116 26; 117 98; 118 37; 
119 133; 120 71; 121 288; 122 999; 123 243; 
124 34; 125 5; 126 1; 127 12; 128 41; 
129 49; 130 22; 131 103; 132 43; 133 115; 
134 135; 135 97; 136 63; 137 23; 138 5; 
139 2; 141 21; 142 15; 143 38; 144 32; 
145 98; 146 51; 147 177; 148 64; 149 77; 
150 39; 151 39; 152 21; 153 7; 154 3; 
155 11; 156 9; 157 32; 158 25; 159 74; 
160 45; 161 44; 162 19; 163 20; 164 19; 
165 21; 166 3; 167 2; 168 2; 169 11; 
170 6; 171 18; 172 14; 173 46; 174 44; 
175 20; 176 11; 177 18; 178 5; 179 1; 
181 2; 182 2; 183 15; 184 11; 185 21; 
186 12; 187 36; 188 25; 189 18; 190 7; 
191 2; 192 1; 193 1; 195 3; 196 1; 
197 10; 198 6; 199 12; 200 15; 201 26; 
202 152; 203 33; 204 3; 207 5; 208 1; 
209 2; 210 1; 211 10; 212 5; 213 6; 
214 5; 215 23; 216 45; 217 9; 218 1; 
224 1; 225 5; 226 3; 227 16; 228 4; 
229 24; 230 9; 231 5; 232 1; 235 1; 
239 2; 240 2; 242 10; 243 12; 244 345; 
245 64; 246 6; 250 1; 253 9; 254 1; 
257 6; 258 14; 259 2; 268 6; 269 2; 
271 14; 272 3; 281 1; 285 1; 286 150; 
287 32; 288 4; 
