Name: N-ethyl-4-methoxyamphetamine
InChIKey: USBWBBAUWVUJLA-UHFFFAOYSA-N
Formula: C12H19NO
MW: 193
ExactMass: 193.146665
CASNO: 0
ID: 2123
Comment: DEA SCL / Lot # N13-P58A
Num Peaks: 72
40 1; 41 9; 42 24; 43 5; 44 157; 
45 4; 50 4; 51 15; 52 13; 53 6; 
54 2; 55 3; 56 25; 57 6; 58 1; 
62 2; 63 10; 64 4; 65 16; 66 2; 
67 1; 68 1; 70 11; 72 999; 73 49; 
74 2; 75 2; 76 3; 77 46; 78 53; 
79 12; 80 2; 89 15; 90 7; 91 37; 
92 6; 93 2; 94 2; 102 2; 103 7; 
104 3; 105 6; 106 7; 107 7; 108 3; 
109 1; 115 8; 116 2; 117 7; 118 4; 
119 5; 121 116; 122 20; 123 2; 130 1; 
131 2; 132 3; 133 3; 134 7; 135 4; 
146 1; 147 4; 148 5; 149 14; 150 1; 
162 2; 163 1; 176 1; 177 1; 178 7; 
192 3; 194 1; 
