Name: Methyl Palmitate
Synon: Hexadecanoic acid, methyl ester
Synon: Palmitic acid, methyl ester
InChIKey: FLIACVVOZYBSBS-UHFFFAOYSA-N
Formula: C17H34O2
MW: 270
ExactMass: 270.25588
CASNO: 112390
ID: 2126
Comment: DEA SCL / Lot # 067K1874
Num Peaks: 51
41 236; 42 42; 43 342; 44 37; 45 15; 
53 16; 54 16; 55 313; 56 54; 57 182; 
58 12; 59 91; 67 24; 68 14; 69 109; 
70 24; 71 42; 73 21; 74 999; 75 173; 
76 13; 81 21; 82 9; 83 79; 84 42; 
85 32; 87 719; 88 56; 95 15; 96 11; 
97 49; 98 26; 101 71; 111 18; 115 27; 
116 12; 125 10; 129 68; 130 12; 143 179; 
144 17; 157 23; 171 40; 185 39; 199 37; 
213 8; 227 61; 228 11; 239 28; 241 10; 
270 33; 
