Name: 1-benzyl-3-methylnaphthalene
InChIKey: UGOQULJNJVAQIJ-UHFFFAOYSA-N
Formula: C18H16
MW: 232
ExactMass: 232.1252
CASNO: 0
ID: 2132
Comment: DEA SFL1
Num Peaks: 83
44 11; 50 6; 51 15; 62 5; 63 19; 
65 5; 74 6; 75 12; 76 14; 77 16; 
78 4; 81 5; 82 4; 83 8; 87 11; 
88 23; 89 28; 91 7; 95 44; 98 4; 
99 4; 100 18; 101 90; 102 33; 103 8; 
106 4; 108 122; 112 7; 113 27; 114 42; 
115 74; 116 38; 126 8; 127 13; 128 21; 
129 10; 139 14; 141 6; 150 11; 151 16; 
152 38; 153 24; 154 9; 155 26; 163 13; 
164 7; 165 25; 166 4; 175 5; 176 18; 
177 8; 178 20; 179 6; 187 13; 188 11; 
189 53; 190 16; 191 14; 192 4; 200 20; 
201 21; 202 224; 203 65; 204 11; 205 5; 
213 51; 214 20; 215 434; 216 231; 217 447; 
218 88; 219 7; 224 5; 225 6; 226 37; 
227 20; 228 34; 229 22; 230 13; 231 139; 
232 999; 233 199; 234 18; 
