Name: Acepromazine
Synon: 10-[3-(Dimethylamino)propyl]-10H-phenothiazin-2-yl methyl ketone
Synon: Acetylpromazine
InChIKey: NOSIYYJFMPDDSA-UHFFFAOYSA-N
Formula: C19H22N2OS
MW: 326
ExactMass: 326.145285
CASNO: 61007
ID: 2135
Comment: DEA SFL1 / Lot# M-3665
Num Peaks: 180
39 5; 40 1; 41 8; 42 51; 43 52; 
44 34; 45 6; 50 2; 51 4; 52 1; 
54 1; 55 1; 56 15; 57 20; 58 999; 
59 42; 60 1; 62 1; 63 10; 64 1; 
65 4; 68 2; 69 9; 70 31; 71 14; 
72 23; 73 2; 74 2; 75 4; 76 3; 
77 7; 78 2; 79 1; 82 4; 83 2; 
84 37; 85 99; 86 207; 87 13; 88 1; 
89 4; 90 1; 91 3; 93 2; 94 1; 
95 10; 96 2; 97 1; 99 3; 101 2; 
102 3; 103 2; 104 1; 105 2; 106 1; 
107 1; 108 6; 109 6; 111 1; 113 2; 
114 1; 115 3; 116 1; 117 2; 119 1; 
120 3; 121 3; 122 1; 125 2; 126 7; 
127 7; 128 4; 130 2; 133 1; 134 3; 
135 2; 136 2; 137 1; 138 2; 139 15; 
140 6; 141 2; 145 3; 146 4; 147 1; 
148 1; 150 2; 151 7; 152 12; 153 19; 
154 8; 155 1; 158 1; 159 1; 160 1; 
163 2; 164 6; 165 5; 166 7; 167 10; 
168 2; 169 6; 170 10; 171 12; 172 5; 
173 1; 176 1; 177 3; 178 12; 179 22; 
180 16; 181 3; 182 2; 183 5; 184 5; 
185 2; 186 1; 190 2; 191 6; 192 4; 
193 4; 194 4; 195 2; 196 78; 197 122; 
198 34; 199 11; 200 2; 204 5; 205 2; 
206 5; 207 8; 208 4; 209 7; 210 18; 
211 10; 212 15; 213 5; 214 1; 220 1; 
221 1; 222 44; 223 26; 224 19; 225 21; 
226 10; 227 2; 234 1; 235 1; 236 8; 
237 5; 238 11; 239 7; 240 67; 241 75; 
242 14; 243 4; 248 2; 249 1; 250 1; 
252 4; 253 2; 254 31; 255 58; 256 11; 
257 3; 263 1; 265 3; 266 19; 267 19; 
268 12; 269 3; 280 125; 281 45; 282 12; 
283 3; 326 212; 327 45; 328 14; 329 2; 
