Name: Phenolphthalein
InChIKey: KJFMBFZCATUALV-UHFFFAOYSA-N
Formula: C20H14O4
MW: 318
ExactMass: 318.089209
CASNO: 77098
ID: 2136
Comment: DEA SFL1
Num Peaks: 200
38 4; 39 51; 40 2; 42 1; 43 3; 
44 9; 45 1; 50 16; 51 18; 52 4; 
53 12; 54 1; 55 15; 61 1; 62 8; 
63 30; 64 10; 65 87; 66 8; 67 1; 
69 2; 73 2; 74 12; 75 26; 76 76; 
77 36; 78 4; 79 3; 81 6; 82 1; 
84 2; 86 5; 87 12; 88 15; 89 12; 
91 11; 92 5; 93 61; 94 30; 96 2; 
98 5; 99 7; 100 17; 101 23; 102 6; 
103 7; 104 82; 105 37; 107 23; 109 14; 
110 3; 111 4; 112 13; 113 64; 114 7; 
115 74; 116 9; 117 1; 119 17; 121 178; 
122 24; 123 3; 124 1; 125 3; 126 11; 
127 26; 128 24; 129 5; 131 6; 132 5; 
133 2; 136 13; 137 4; 138 4; 139 58; 
140 17; 141 78; 142 12; 143 2; 145 1; 
147 1; 149 3; 150 34; 151 50; 152 110; 
153 23; 154 2; 155 2; 157 9; 158 2; 
159 24; 161 2; 162 4; 163 17; 164 6; 
165 9; 166 2; 167 3; 168 37; 169 19; 
170 2; 174 4; 175 4; 176 16; 177 4; 
178 4; 179 7; 180 43; 181 274; 182 38; 
183 5; 184 1; 185 3; 186 26; 187 21; 
188 14; 189 62; 190 13; 191 4; 192 1; 
194 2; 195 1; 196 9; 197 189; 198 29; 
199 5; 200 17; 201 15; 202 58; 203 15; 
204 2; 205 7; 206 1; 207 6; 208 1; 
209 1; 211 4; 212 3; 213 46; 214 17; 
215 78; 216 19; 217 6; 218 17; 219 7; 
220 1; 221 1; 223 2; 224 16; 225 616; 
226 191; 227 53; 228 26; 229 12; 230 3; 
231 22; 232 5; 233 1; 234 1; 235 1; 
237 2; 238 2; 239 16; 240 3; 241 1; 
242 20; 243 19; 244 36; 245 26; 246 8; 
247 5; 248 1; 254 1; 255 64; 256 34; 
257 383; 258 79; 259 11; 260 2; 261 1; 
271 19; 272 8; 273 851; 274 999; 275 194; 
276 21; 277 1; 281 2; 283 1; 289 11; 
290 3; 299 5; 300 3; 301 4; 302 1; 
317 3; 318 387; 319 85; 320 12; 321 1; 
