Name: Diuron
InChIKey: XMTQQYYKAHVGBJ-UHFFFAOYSA-N
Formula: C9H10Cl2N2O
MW: 232
ExactMass: 232.017018
CASNO: 330541
ID: 2137
Comment: DEA SFL1 / Griffin LLC Lot 177-40
Num Peaks: 75
35 9; 36 12; 37 43; 38 38; 39 16; 
40 2; 43 2; 44 13; 47 26; 48 14; 
49 44; 50 50; 51 28; 52 17; 54 8; 
60 23; 61 85; 62 97; 63 48; 64 39; 
71 10; 72 37; 73 82; 74 62; 75 38; 
76 18; 80 15; 81 10; 82 2; 83 7; 
84 28; 85 16; 86 27; 87 46; 88 100; 
89 20; 94 38; 95 25; 96 17; 97 104; 
98 50; 99 40; 100 19; 107 13; 108 7; 
109 19; 110 9; 111 6; 112 2; 121 2; 
122 2; 124 635; 125 51; 126 200; 127 12; 
131 12; 132 16; 133 13; 134 10; 135 5; 
136 2; 157 2; 159 265; 160 26; 161 173; 
162 13; 163 26; 184 2; 185 3; 187 999; 
188 95; 189 630; 190 58; 191 95; 192 12; 
