Name: 3-Phenyl-1-propylamine
Synon: Benzenepropanamine
Synon: .gamma.-Phenylpropylamine
Synon: 3-Phenyl-1-aminopropane
Synon: 3-Phenyl-1-propanamine
InChIKey: LYUQWQRTDLVQGA-UHFFFAOYSA-N
Formula: C9H13N
MW: 135
ExactMass: 135.104799
CASNO: 2038575
ID: 2138
Comment: DEA SFL1
Num Peaks: 55
30 999; 31 33; 32 1; 36 1; 37 3; 
38 8; 39 65; 40 7; 41 17; 42 28; 
43 24; 44 39; 45 1; 49 1; 50 30; 
51 72; 52 20; 53 8; 54 4; 56 18; 
57 15; 61 2; 62 10; 63 32; 64 7; 
65 71; 66 5; 74 9; 75 7; 76 8; 
77 74; 78 47; 79 31; 80 3; 86 1; 
87 2; 89 18; 91 159; 92 56; 93 4; 
102 8; 103 39; 104 30; 105 18; 106 9; 
115 23; 117 215; 118 326; 119 32; 120 2; 
130 2; 132 4; 133 2; 135 14; 136 1; 
