Name: Ethyl methyl sulfone
Synon: Methyl ethyl sulfone
Synon: Ethyl methyl sulphone
Synon: (Methylsulphonyl)ethane
InChIKey: YBJCDTIWNDBNTM-UHFFFAOYSA-N
Formula: C3H8O2S
MW: 108
ExactMass: 108.0245004
CASNO: 594434
ID: 2139
Comment: DEA SFL1
Num Peaks: 42
29 964; 30 24; 31 35; 32 5; 33 7; 
34 6; 35 2; 39 7; 40 1; 41 7; 
42 2; 43 10; 45 50; 46 21; 47 25; 
48 52; 49 16; 50 21; 51 1; 52 1; 
57 4; 58 6; 59 5; 60 1; 61 6; 
63 66; 65 404; 66 8; 67 20; 75 1; 
76 4; 77 4; 80 999; 81 33; 82 51; 
83 1; 93 101; 94 3; 95 4; 108 90; 
109 9; 110 4; 
