Name: Sulfolane
Synon: Thiophan sulfone
Synon: Tetramethylene sulfone
Synon: Thiophene, tetrahydro-, 1,1-dioxide
InChIKey: HXJUTPCZVOIRIF-UHFFFAOYSA-N
Formula: C4H8O2S
MW: 120
ExactMass: 120.0245004
CASNO: 126330
ID: 2141
Comment: DEA SFL1
Num Peaks: 44
29 138; 30 3; 31 2; 32 4; 33 3; 
34 2; 37 8; 39 238; 41 999; 42 42; 
43 21; 45 28; 46 11; 48 54; 49 11; 
50 33; 51 29; 52 11; 53 47; 55 557; 
56 601; 57 32; 58 11; 59 10; 60 5; 
61 1; 63 13; 64 37; 65 14; 66 6; 
69 1; 71 6; 72 1; 73 2; 76 1; 
78 10; 85 2; 87 1; 88 4; 90 6; 
92 9; 120 217; 121 13; 122 10; 
