Name: Diphenylmethane
Synon: Benzylbenzene
InChIKey: CZZYITDELCSZES-UHFFFAOYSA-N
Formula: C13H12
MW: 168
ExactMass: 168.093901
CASNO: 101815
ID: 2142
Comment: DEA SFL1
Num Peaks: 80
29 1; 37 4; 38 21; 39 152; 40 14; 
41 21; 42 1; 50 75; 51 166; 52 27; 
53 6; 55 1; 58 11; 61 7; 62 38; 
63 119; 64 28; 65 173; 66 12; 70 22; 
71 14; 74 32; 75 30; 76 42; 77 60; 
78 17; 79 1; 82 94; 83 111; 84 23; 
85 4; 86 15; 87 21; 88 10; 89 114; 
90 48; 91 263; 92 20; 98 6; 99 4; 
100 2; 101 6; 102 22; 103 5; 109 1; 
110 3; 111 3; 112 1; 113 14; 114 8; 
115 99; 116 10; 122 1; 125 1; 126 15; 
127 17; 128 48; 129 7; 137 4; 138 5; 
139 55; 140 10; 141 41; 142 6; 150 6; 
151 33; 152 247; 153 231; 154 27; 155 1; 
161 1; 162 3; 163 31; 164 49; 165 407; 
166 136; 167 999; 168 988; 169 131; 170 9; 
