Name: Ergotamine (gc-breakdown product)
Synon: 12'-Hydroxy-2'-methyl-5'.alpha.-(phenylmethyl)ergotaman-3',6',18-trione
InChIKey: XCGSFFUVFURLIX-UHFFFAOYSA-N
Formula: C33H35N5O5
MW: 581
ExactMass: 581.26382
CASNO: 113155
ID: 2143
Comment: DEA SFL1 / ergotamine base in chcl3
Num Peaks: 155
26 5; 27 32; 28 89; 29 7; 30 8; 
32 2; 38 5; 39 59; 40 22; 41 181; 
42 102; 43 684; 44 25; 45 2; 50 11; 
51 44; 52 15; 53 15; 54 17; 55 57; 
56 20; 57 3; 59 1; 62 4; 63 25; 
64 7; 65 111; 66 13; 67 13; 68 115; 
69 120; 70 999; 71 52; 72 1; 73 1; 
74 1; 75 5; 76 11; 77 132; 78 35; 
79 5; 80 5; 81 3; 82 6; 83 26; 
84 3; 89 47; 90 36; 91 522; 92 83; 
93 6; 94 3; 95 6; 96 22; 97 26; 
98 26; 99 2; 101 7; 102 25; 103 106; 
104 100; 105 20; 106 1; 110 1; 112 1; 
113 2; 114 1; 115 5; 116 13; 117 31; 
118 22; 119 20; 120 38; 121 13; 122 2; 
123 7; 124 2; 125 517; 126 37; 128 317; 
129 37; 130 1; 131 378; 132 57; 133 6; 
134 10; 137 3; 138 12; 139 15; 140 11; 
141 9; 142 1; 143 1; 144 3; 145 14; 
146 108; 147 14; 149 1; 151 15; 152 70; 
153 952; 154 81; 155 9; 158 1; 160 7; 
161 1; 163 1; 166 4; 167 6; 170 5; 
171 1; 172 14; 173 22; 174 11; 175 2; 
186 1; 187 5; 188 3; 189 3; 195 103; 
196 11; 197 1; 198 1; 199 3; 200 149; 
201 105; 202 106; 203 15; 207 1; 208 1; 
209 2; 215 32; 216 6; 223 39; 224 4; 
225 3; 226 7; 227 25; 228 4; 229 2; 
242 2; 243 213; 244 282; 245 47; 246 3; 
270 1; 271 48; 272 24; 273 3; 284 1; 
286 23; 287 3; 314 723; 315 140; 316 18; 
