Name: 3-Phenyl-1-propanol
Synon: Benzenepropanol
Synon: .gamma.-Phenylpropanol
Synon: .gamma.-Phenylpropyl alcohol
Synon: (3-Hydroxypropyl)benzene
Synon: Hydrocinnamic alcohol
Synon: Hydrocinnamyl alcohol
Synon: 3-Phenyl-n-propanol
Synon: 3-Phenylpropanol
Synon: 3-Phenylpropyl alcohol
Synon: 3-Benzenepropanol
InChIKey: VAJVDSVGBWFCLW-UHFFFAOYSA-N
Formula: C9H12O
MW: 136
ExactMass: 136.088815
CASNO: 122974
ID: 2153
Comment: DEA SFL1
Num Peaks: 63
37 1; 38 7; 39 52; 40 4; 41 11; 
42 1; 43 7; 44 3; 45 5; 49 1; 
50 33; 51 86; 52 21; 53 11; 55 3; 
57 8; 58 5; 61 3; 62 14; 63 48; 
64 11; 65 138; 66 11; 67 1; 73 2; 
74 15; 75 12; 76 14; 77 179; 78 113; 
79 113; 80 8; 85 1; 86 3; 87 3; 
88 1; 89 42; 90 18; 91 797; 92 414; 
93 31; 94 2; 98 1; 101 2; 102 18; 
103 126; 104 50; 105 130; 106 12; 107 10; 
108 2; 115 80; 116 13; 117 999; 118 571; 
119 53; 120 2; 131 1; 133 2; 134 4; 
136 298; 137 30; 138 2; 
