Name: 2,4-Dimethoxybenzaldehyde
InChIKey: LWRSYTXEQUUTKW-UHFFFAOYSA-N
Formula: C9H10O3
MW: 166
ExactMass: 166.062994
CASNO: 613456
ID: 2155
Comment: DEA SFL1
Num Peaks: 81
37 7; 38 21; 39 34; 40 2; 41 21; 
42 3; 43 4; 45 1; 49 4; 50 37; 
51 65; 52 42; 53 36; 54 5; 55 8; 
56 1; 59 6; 60 1; 61 14; 62 40; 
63 146; 64 62; 65 52; 66 18; 67 8; 
68 2; 69 33; 70 1; 73 4; 74 23; 
75 22; 76 19; 77 113; 78 33; 79 82; 
80 28; 81 3; 82 1; 84 1; 85 1; 
89 3; 90 6; 91 31; 92 76; 93 18; 
94 30; 95 60; 96 5; 103 2; 104 2; 
105 19; 106 148; 107 124; 108 40; 109 57; 
110 4; 111 1; 118 1; 119 13; 120 174; 
121 163; 122 149; 123 20; 124 22; 125 2; 
133 9; 134 53; 135 222; 136 24; 137 55; 
138 9; 148 170; 149 437; 150 106; 151 59; 
152 5; 163 2; 165 716; 166 999; 167 100; 
168 11; 
