Name: 3-Methoxyphenyl-2-propanone
InChIKey: RMMRRRLPDBJBQL-UHFFFAOYSA-N
Formula: C10H12O2
MW: 164
ExactMass: 164.08373
CASNO: 0
ID: 2160
Comment: DEA SFL1
Num Peaks: 63
29 8; 30 1; 31 1; 37 4; 38 21; 
39 85; 40 8; 41 18; 43 999; 44 23; 
45 3; 50 49; 51 108; 52 77; 53 21; 
54 2; 55 9; 61 7; 62 27; 63 76; 
64 27; 65 107; 66 11; 67 3; 74 13; 
75 10; 77 184; 78 211; 79 44; 80 3; 
81 1; 85 2; 86 5; 87 4; 89 76; 
90 70; 91 319; 92 46; 93 8; 94 1; 
95 2; 102 4; 103 11; 105 20; 106 27; 
107 55; 108 5; 115 2; 117 1; 118 3; 
119 3; 121 586; 122 299; 123 26; 124 1; 
131 1; 133 1; 135 2; 148 2; 149 4; 
164 441; 165 52; 166 4; 
