Name: 5-Methoxy-N-isopropyltryptamine
InChIKey: QQZJNZJNPDORBO-UHFFFAOYSA-N
Formula: C14H20N2O
MW: 232
ExactMass: 232.157563
CASNO: 0
ID: 2162
Comment: DEA SFL1
Num Peaks: 93
30 439; 31 6; 38 2; 39 15; 41 38; 
42 19; 43 56; 44 4; 50 4; 51 12; 
52 8; 53 4; 54 3; 56 27; 57 18; 
58 4; 62 5; 63 17; 64 7; 65 8; 
66 1; 67 1; 68 1; 70 16; 72 999; 
73 48; 74 4; 75 7; 76 11; 77 28; 
78 8; 79 3; 80 2; 85 2; 86 2; 
87 9; 88 1; 89 42; 90 36; 91 12; 
92 3; 93 1; 94 1; 101 13; 102 17; 
103 21; 104 12; 105 3; 109 18; 113 1; 
114 3; 115 14; 116 27; 117 119; 118 25; 
119 3; 128 13; 129 12; 130 57; 131 20; 
132 9; 133 2; 140 1; 141 2; 142 5; 
143 14; 144 19; 145 116; 146 82; 147 13; 
148 1; 155 2; 156 2; 157 3; 158 13; 
160 319; 161 767; 162 89; 163 6; 171 1; 
172 4; 173 12; 174 42; 175 5; 187 2; 
188 4; 189 4; 201 1; 215 1; 217 1; 
230 5; 232 44; 233 7; 
