Name: N-Methyl-2-phenyl-1-propylamine
InChIKey: AUFSOOYCQYDGES-UHFFFAOYSA-N
Formula: C10H15N
MW: 149
ExactMass: 149.120449
CASNO: 0
ID: 2167
Comment: DEA SFL1
Num Peaks: 56
29 2; 30 5; 38 2; 39 18; 40 2; 
41 10; 42 30; 44 999; 45 31; 50 10; 
51 31; 52 8; 53 4; 54 1; 56 4; 
57 1; 59 1; 62 3; 63 12; 64 3; 
65 16; 68 1; 70 2; 74 4; 75 4; 
76 6; 77 67; 78 31; 79 28; 80 2; 
87 1; 89 8; 90 3; 91 53; 92 4; 
101 1; 102 8; 103 36; 104 27; 105 35; 
106 5; 115 11; 116 3; 117 13; 118 7; 
119 2; 130 3; 131 1; 132 7; 133 5; 
134 1; 146 2; 147 2; 148 3; 149 10; 
150 1; 
