Name: 2-Chloro-4,5-methylenedioxyphenyl-2-nitropropene
InChIKey: DRRGCGQUVPCSRA-QHHAFSJGSA-N
Formula: C10H8ClNO4
MW: 241
ExactMass: 241.014185
CASNO: 0
ID: 2169
Comment: DEA SFL1
Num Peaks: 178
29 23; 30 38; 31 5; 35 1; 36 4; 
37 9; 38 20; 39 46; 40 7; 41 7; 
42 8; 43 20; 44 3; 45 1; 46 5; 
47 1; 48 1; 49 14; 50 102; 51 199; 
52 36; 53 62; 54 5; 55 60; 56 3; 
57 1; 59 1; 60 7; 61 38; 62 89; 
63 103; 64 16; 65 24; 66 12; 67 6; 
68 49; 69 34; 71 2; 72 8; 73 35; 
74 134; 75 302; 76 105; 77 112; 78 23; 
79 44; 80 30; 81 1; 82 99; 83 7; 
84 54; 85 44; 86 37; 87 83; 88 16; 
89 67; 90 25; 91 16; 92 21; 93 5; 
94 1; 95 2; 96 31; 97 68; 98 43; 
99 90; 100 49; 101 320; 102 661; 103 190; 
104 28; 105 7; 106 13; 107 10; 108 9; 
109 12; 110 19; 111 31; 112 9; 113 22; 
114 10; 115 13; 116 5; 117 23; 118 14; 
119 7; 120 22; 121 11; 122 8; 123 9; 
124 26; 125 44; 126 70; 127 51; 128 26; 
129 46; 130 158; 131 38; 132 11; 133 46; 
134 8; 135 15; 136 123; 137 358; 138 74; 
139 117; 140 15; 141 7; 142 7; 143 5; 
144 3; 145 6; 146 8; 147 11; 148 76; 
149 52; 150 10; 151 15; 152 5; 153 16; 
154 15; 155 41; 156 29; 157 15; 158 14; 
159 252; 160 136; 161 15; 162 7; 163 9; 
164 14; 165 60; 166 12; 167 18; 168 11; 
169 9; 170 7; 171 13; 172 6; 173 4; 
175 202; 176 999; 177 115; 178 33; 179 45; 
180 14; 181 43; 182 9; 183 86; 184 55; 
185 29; 186 18; 187 1; 189 2; 190 29; 
191 3; 193 78; 194 308; 195 88; 196 111; 
197 21; 198 3; 206 494; 207 58; 208 8; 
209 4; 210 4; 211 4; 212 2; 213 1; 
224 1; 225 1; 226 1; 241 340; 242 40; 
243 114; 244 13; 245 1; 
