Name: 2-Methoxyphenyl-2-propanone
InChIKey: GMBFNZCPZFVKAT-UHFFFAOYSA-N
Formula: C10H12O2
MW: 164
ExactMass: 164.08373
CASNO: 0
ID: 2170
Comment: DEA SFL1
Num Peaks: 58
29 7; 30 1; 31 1; 37 4; 38 17; 
39 81; 40 7; 41 18; 43 314; 44 7; 
45 2; 50 48; 51 113; 52 74; 53 21; 
54 2; 55 4; 61 6; 62 22; 63 63; 
65 188; 66 13; 67 1; 74 13; 75 11; 
77 143; 78 146; 79 29; 80 2; 85 1; 
86 4; 87 4; 89 59; 91 999; 92 88; 
93 104; 94 8; 101 1; 102 4; 103 13; 
105 22; 106 9; 107 35; 108 3; 115 3; 
118 2; 119 6; 121 753; 122 142; 123 10; 
131 5; 132 1; 133 4; 135 2; 148 1; 
164 330; 165 36; 166 3; 
