Name: Nortropacocaine
InChIKey: AZHSHGVBEAPALY-UHFFFAOYSA-N
Formula: C14H17NO2
MW: 231
ExactMass: 231.125929
CASNO: 0
ID: 2172
Comment: DEA SFL1
Num Peaks: 49
38 5; 39 26; 40 4; 41 55; 42 6; 
43 15; 44 12; 50 13; 51 53; 52 4; 
53 21; 54 22; 55 25; 56 19; 65 8; 
66 8; 67 127; 68 189; 69 88; 70 12; 
74 8; 75 6; 76 11; 77 173; 78 14; 
79 9; 80 236; 81 93; 82 3; 84 3; 
85 5; 91 14; 93 17; 98 4; 105 108; 
106 15; 107 5; 108 45; 109 50; 110 999; 
111 81; 112 5; 122 1; 126 7; 138 5; 
146 11; 187 5; 231 50; 232 7; 
