Name: 2-Methylnaphthalene
Synon: .beta.-Methylnaphthalene
InChIKey: QIMMUPPBPVKWKM-UHFFFAOYSA-N
Formula: C11H10
MW: 142
ExactMass: 142.07825
CASNO: 91576
ID: 2174
Comment: DEA SFL1
Num Peaks: 62
37 1; 38 4; 39 16; 40 1; 49 1; 
50 16; 51 20; 52 4; 53 1; 55 1; 
58 30; 61 5; 62 19; 63 46; 64 6; 
65 14; 66 1; 70 31; 71 51; 73 2; 
74 22; 75 21; 76 12; 77 11; 78 2; 
85 4; 86 14; 87 20; 88 10; 89 41; 
90 3; 91 11; 92 1; 97 1; 98 8; 
99 4; 100 2; 101 5; 102 9; 103 1; 
109 1; 110 3; 111 3; 112 1; 113 22; 
114 14; 115 333; 116 36; 117 1; 122 1; 
125 1; 126 18; 127 7; 128 1; 137 4; 
138 7; 139 119; 140 26; 141 828; 142 999; 
143 128; 144 7; 
