Name: 1-benzyl-4-benzyliminopiperidine
InChIKey: XPQITDHWKMRSTP-UHFFFAOYSA-N
Formula: C19H22N2
MW: 278
ExactMass: 278.178299
CASNO: 0
ID: 2175
Comment: DEA SFL1 / ALB-47-1
Num Peaks: 111
38 1; 39 22; 40 2; 41 16; 42 94; 
43 5; 44 1; 50 5; 51 17; 52 6; 
53 10; 54 14; 55 7; 56 14; 57 3; 
62 2; 63 16; 64 5; 65 113; 66 7; 
67 2; 68 10; 69 2; 70 3; 74 1; 
75 1; 76 2; 77 19; 78 8; 79 7; 
80 7; 81 3; 82 14; 83 4; 84 1; 
89 27; 90 21; 91 999; 92 85; 93 4; 
94 1; 95 7; 96 6; 97 1; 98 1; 
102 1; 103 12; 104 31; 105 16; 106 10; 
107 4; 109 7; 115 6; 116 5; 117 17; 
118 44; 119 9; 120 128; 121 11; 122 1; 
127 1; 128 3; 129 6; 130 19; 131 15; 
132 54; 133 30; 134 14; 135 1; 141 1; 
142 1; 143 6; 144 14; 145 6; 146 51; 
147 25; 148 3; 156 4; 157 6; 158 100; 
159 37; 160 10; 161 1; 167 1; 170 12; 
171 17; 172 29; 173 49; 174 11; 175 4; 
181 2; 185 7; 186 19; 187 99; 188 13; 
189 1; 199 1; 200 4; 201 2; 234 4; 
235 1; 248 3; 249 27; 250 9; 251 7; 
252 1; 263 1; 275 1; 277 133; 278 48; 
279 7; 
