Name: Ephedrine bis-TBDMS Derivative
InChIKey: AMHDNOYWURUBQJ-UHFFFAOYSA-N
Formula: C22H43NOSi2
MW: 393
ExactMass: 393.288319
CASNO: 0
ID: 2185
Comment: DEA SFL1 / ch3cn/rt/overnight/MTBSTFA/concentrated and diluted to ca. 1 mg/ml chcl3
Num Peaks: 93
39 2; 41 5; 42 2; 43 3; 45 5; 
47 1; 51 1; 55 1; 56 7; 57 8; 
58 44; 59 22; 60 2; 61 1; 72 2; 
73 195; 74 17; 75 17; 76 1; 77 4; 
78 1; 79 1; 85 2; 86 4; 87 1; 
88 3; 89 1; 91 5; 99 2; 100 10; 
101 2; 102 1; 103 2; 104 1; 105 7; 
106 3; 107 1; 114 7; 115 12; 116 6; 
117 8; 118 2; 119 3; 120 1; 121 1; 
124 1; 130 1; 131 11; 133 13; 134 2; 
135 6; 140 3; 144 1; 145 1; 146 4; 
147 44; 148 14; 149 14; 150 2; 156 3; 
158 1; 160 2; 161 1; 163 7; 164 2; 
165 1; 172 999; 173 158; 174 47; 175 5; 
176 1; 179 1; 188 3; 189 2; 190 3; 
191 3; 193 1; 204 2; 205 1; 206 3; 
207 2; 220 4; 221 7; 222 3; 223 1; 
262 5; 263 1; 264 1; 336 9; 337 2; 
338 1; 378 5; 379 1; 
