Name: Norephedrine O-TBDMS Derivative
InChIKey: BABBMLYDRQYLOS-UHFFFAOYSA-N
Formula: C15H27NOSi
MW: 265
ExactMass: 265.186192
CASNO: 0
ID: 2187
Comment: DEA SFL1
Num Peaks: 96
39 5; 40 1; 41 11; 42 6; 43 15; 
44 51; 45 19; 46 2; 47 6; 50 2; 
51 8; 52 2; 53 2; 55 3; 56 4; 
57 10; 58 13; 59 61; 60 8; 61 5; 
63 1; 65 1; 70 4; 71 1; 72 4; 
73 386; 74 46; 75 92; 76 8; 77 39; 
78 7; 79 33; 80 2; 83 1; 84 2; 
85 5; 86 33; 87 5; 88 2; 89 2; 
90 1; 91 8; 92 1; 98 1; 99 4; 
100 50; 101 32; 102 26; 103 7; 104 2; 
105 16; 106 7; 107 17; 108 1; 115 14; 
116 4; 117 14; 118 8; 119 3; 121 4; 
130 1; 131 1; 132 6; 133 1; 134 46; 
135 8; 136 1; 137 1; 142 4; 145 1; 
148 1; 149 24; 150 4; 151 1; 158 999; 
159 150; 160 47; 161 4; 162 1; 163 1; 
174 2; 176 1; 190 11; 191 5; 192 2; 
193 1; 206 1; 208 30; 209 5; 210 1; 
232 4; 233 1; 246 1; 247 1; 250 8; 
251 2; 
