Name: Norpseudoephedrine bis-TBDMS Derivative
InChIKey: OGBYDHAMEGBKFS-UHFFFAOYSA-N
Formula: C21H41NOSi2
MW: 379
ExactMass: 379.272669
CASNO: 0
ID: 2190
Comment: DEA SFL1
Num Peaks: 112
39 1; 41 8; 42 2; 43 4; 44 6; 
45 7; 46 1; 47 1; 55 1; 56 4; 
57 16; 58 7; 59 29; 60 3; 61 2; 
66 4; 70 1; 73 245; 74 26; 75 19; 
76 1; 77 2; 78 1; 79 1; 83 1; 
84 1; 85 4; 86 17; 89 1; 90 1; 
91 10; 92 1; 99 4; 100 25; 101 19; 
102 16; 103 5; 104 3; 105 6; 106 1; 
107 2; 112 2; 113 1; 114 1; 115 16; 
116 4; 117 25; 118 11; 119 4; 120 1; 
121 3; 125 8; 130 5; 131 9; 132 14; 
133 27; 134 7; 135 8; 136 1; 137 1; 
142 3; 143 1; 144 1; 145 2; 146 17; 
147 74; 148 17; 149 22; 150 3; 151 1; 
158 999; 159 187; 160 61; 161 6; 162 1; 
163 11; 164 3; 165 3; 173 1; 174 9; 
175 3; 176 3; 177 1; 179 2; 188 5; 
189 2; 190 4; 191 4; 192 2; 193 2; 
206 1; 207 5; 208 1; 209 1; 221 15; 
222 3; 223 2; 230 2; 232 1; 233 1; 
246 1; 248 7; 249 2; 264 1; 266 1; 
322 34; 323 10; 324 3; 364 27; 365 9; 
366 3; 378 1; 
