Name: Lysergic acid methyl ester
InChIKey: RNHDWLRHUJZABX-UHFFFAOYSA-N
Formula: C17H18N2O2
MW: 282
ExactMass: 282.136827
CASNO: 0
ID: 2197
Comment: DEA SFL1 / LYSERGIC ACID + METHYL 8 REAGENT IN CHCL3 /60C/15 MIN
Num Peaks: 187
29 5; 30 3; 31 1; 32 1; 38 1; 
39 11; 40 2; 41 11; 42 76; 43 12; 
44 41; 45 5; 50 4; 51 11; 52 4; 
53 5; 54 3; 55 10; 56 3; 57 7; 
58 2; 59 21; 61 1; 62 6; 63 17; 
64 5; 65 4; 66 2; 67 3; 68 7; 
69 22; 70 6; 71 3; 72 2; 73 1; 
74 7; 75 25; 76 30; 77 37; 78 5; 
79 2; 80 3; 81 13; 82 10; 84 33; 
85 2; 86 6; 87 20; 88 4; 89 42; 
90 41; 91 5; 92 3; 93 3; 94 6; 
96 25; 97 32; 98 6; 99 7; 100 5; 
101 13; 102 27; 103 55; 106 1; 107 2; 
108 1; 110 186; 111 211; 113 10; 114 8; 
115 20; 116 5; 117 7; 118 2; 119 2; 
120 1; 121 4; 122 1; 123 4; 124 6; 
125 18; 126 39; 127 100; 128 21; 129 7; 
130 9; 131 2; 132 2; 133 3; 134 3; 
135 2; 136 2; 137 5; 138 8; 139 34; 
140 27; 141 26; 142 8; 143 4; 144 6; 
145 1; 149 11; 150 48; 151 117; 152 142; 
153 100; 154 287; 155 55; 156 7; 161 1; 
162 4; 163 17; 164 29; 165 38; 166 42; 
167 110; 168 41; 169 8; 170 1; 175 4; 
176 10; 177 27; 178 195; 179 184; 180 253; 
181 172; 182 54; 183 11; 184 1; 188 1; 
189 2; 190 15; 191 57; 192 127; 193 60; 
194 56; 195 84; 196 59; 197 12; 198 1; 
203 6; 204 12; 205 130; 206 106; 207 443; 
208 156; 209 35; 210 7; 211 1; 217 2; 
218 4; 219 26; 220 104; 221 362; 222 88; 
223 286; 224 443; 225 69; 226 8; 233 1; 
234 1; 235 7; 236 3; 237 3; 238 53; 
239 48; 240 10; 249 7; 250 7; 251 5; 
252 8; 253 3; 263 2; 264 1; 265 5; 
266 15; 267 54; 268 9; 269 1; 278 1; 
279 4; 280 6; 281 128; 282 999; 283 195; 
284 22; 285 2; 
