Name: N-(1-phenyl-4-piperidyl)-N-phenethylpropanamide
InChIKey: GHYMKFIJHIWTAG-UHFFFAOYSA-N
Formula: C22H28N2O
MW: 336
ExactMass: 336.220163
CASNO: 0
ID: 2199
Comment: DEA SFL1 / ALB-71-7
Num Peaks: 161
38 1; 39 22; 40 2; 41 20; 42 16; 
43 5; 44 6; 50 5; 51 30; 52 6; 
53 18; 54 14; 55 168; 56 48; 57 156; 
58 6; 59 1; 62 1; 63 7; 64 4; 
65 35; 66 4; 67 8; 68 19; 69 4; 
70 41; 71 5; 74 4; 75 2; 76 5; 
77 199; 78 41; 79 45; 80 8; 81 1; 
82 19; 83 14; 84 20; 85 1; 86 5; 
89 6; 90 5; 91 155; 92 22; 93 59; 
94 6; 95 2; 96 9; 97 2; 98 3; 
99 1; 101 1; 102 4; 103 37; 104 350; 
105 365; 106 205; 107 20; 108 1; 110 1; 
111 1; 112 3; 113 8; 114 2; 115 10; 
116 6; 117 36; 118 50; 119 30; 120 96; 
121 6; 122 3; 124 1; 125 1; 126 10; 
127 20; 128 6; 129 6; 130 107; 131 47; 
132 450; 133 60; 134 11; 135 1; 138 1; 
139 2; 140 20; 141 4; 142 3; 143 28; 
144 120; 145 22; 146 14; 147 4; 148 21; 
149 2; 150 1; 152 1; 154 2; 155 2; 
156 67; 157 29; 158 999; 159 779; 160 294; 
161 55; 162 7; 163 1; 168 1; 170 1; 
171 1; 172 11; 173 8; 174 45; 175 16; 
176 3; 177 1; 178 6; 179 1; 180 1; 
185 1; 186 2; 187 10; 188 24; 189 34; 
190 5; 196 1; 201 3; 202 4; 203 18; 
204 4; 208 1; 214 5; 215 3; 216 8; 
217 4; 218 1; 222 1; 226 1; 227 2; 
228 1; 229 1; 230 5; 231 4; 232 51; 
233 7; 244 6; 245 20; 246 3; 248 1; 
249 1; 251 4; 277 1; 279 37; 280 7; 
283 1; 318 1; 319 1; 336 282; 337 71; 
338 11; 
