Name: N-Benzylidenemethylamine
Synon: N-Methylbenzaldimine
Synon: N-Benzalmethylamine
Synon: Benzylidenemethanamine
Synon: Benzylidenemethylamine
Synon: Methylamine, N-benzylidene-
Synon: N-(Phenylmethylene)methanamine
Synon: N-Methylbenzylideneamine
Synon: Benzalmethylamine
Synon: N-Methylbenzalimine
Synon: N-Methylbenzylidenimine
Synon: N-Methylbenzenemethanimine
Synon: Benzaldehyde N-methylimine
Synon: N-Benzylidenemethanamine
InChIKey: HXTGGPKOEKKUQO-VQHVLOKHSA-N
Formula: C8H9N
MW: 119
ExactMass: 119.073499
CASNO: 622297
ID: 2205
Comment: DEA SFL1
Num Peaks: 46
37 4; 38 10; 39 26; 40 4; 41 21; 
42 98; 43 4; 49 3; 50 43; 51 86; 
52 20; 53 1; 59 9; 61 9; 62 23; 
63 50; 64 14; 65 33; 66 3; 73 3; 
74 17; 75 18; 76 39; 77 195; 78 117; 
79 8; 84 1; 85 4; 86 7; 87 6; 
88 3; 89 67; 90 29; 91 179; 92 15; 
99 1; 102 7; 103 31; 104 19; 105 1; 
116 14; 117 37; 118 999; 119 580; 120 53; 
121 2; 
