Name: Ephedrine-TPC Derivative
InChIKey: NZQHUQQFHHSWTK-UHFFFAOYSA-N
Formula: C17H21F3N2O3
MW: 358
ExactMass: 358.150427
CASNO: 0
ID: 2209
Comment: DEA SFL1
Num Peaks: 128
37 1; 38 2; 39 15; 40 4; 41 47; 
42 76; 43 43; 44 4; 45 1; 47 2; 
49 1; 50 9; 51 23; 52 7; 53 26; 
54 8; 55 19; 56 38; 57 56; 58 747; 
59 29; 60 4; 62 1; 63 3; 64 2; 
65 5; 66 3; 67 7; 68 25; 69 104; 
70 34; 71 31; 72 2; 73 4; 74 2; 
75 2; 76 3; 77 97; 78 26; 79 70; 
80 5; 81 2; 82 3; 83 2; 84 5; 
85 2; 86 18; 87 2; 88 1; 89 5; 
90 2; 91 34; 92 4; 93 4; 94 6; 
95 1; 96 66; 97 12; 98 26; 99 2; 
102 1; 103 3; 104 3; 105 37; 106 19; 
107 34; 108 3; 109 6; 110 3; 111 2; 
112 8; 114 5; 115 14; 116 8; 117 20; 
118 10; 119 2; 122 1; 123 1; 124 2; 
125 1; 126 13; 127 2; 128 10; 129 1; 
130 1; 131 3; 132 2; 133 12; 134 6; 
135 3; 136 1; 137 5; 138 3; 139 28; 
140 1; 144 1; 146 5; 147 10; 148 40; 
149 9; 150 1; 151 1; 153 1; 154 9; 
155 6; 164 7; 165 6; 166 999; 167 89; 
168 6; 174 1; 183 2; 186 1; 192 4; 
193 30; 194 76; 195 6; 205 1; 223 1; 
224 5; 225 4; 251 231; 252 360; 253 42; 
254 4; 273 12; 274 2; 
