Name: 3,4-Methylenedioxycinnamic acid
Synon: 3,4-Methylenedioxybenzene-3-acrylic acid
InChIKey: QFQYZMGOKIROEC-DUXPYHPUSA-N
Formula: C10H8O4
MW: 192
ExactMass: 192.042258
CASNO: 2373800
ID: 2212
Comment: DEA SFL1 / Adrich product dissolved in chlc3/meoh
Num Peaks: 110
35 2; 36 10; 37 9; 38 24; 39 58; 
40 5; 41 5; 42 5; 43 10; 44 13; 
45 34; 46 1; 49 2; 50 34; 51 50; 
52 21; 53 33; 54 4; 55 11; 56 1; 
57 2; 58 1; 59 2; 60 5; 61 21; 
62 86; 63 160; 64 22; 65 39; 66 13; 
67 6; 68 5; 69 13; 70 2; 71 1; 
73 43; 74 14; 75 8; 76 8; 77 53; 
78 47; 79 23; 80 4; 81 4; 82 4; 
83 1; 84 3; 85 6; 86 18; 87 54; 
88 30; 89 206; 90 28; 91 41; 92 11; 
93 8; 94 6; 95 4; 96 4; 98 2; 
99 1; 101 3; 102 1; 103 1; 104 1; 
105 23; 106 10; 107 7; 108 8; 109 1; 
115 1; 116 10; 117 81; 118 17; 119 10; 
120 6; 121 11; 122 11; 123 3; 129 2; 
133 15; 134 19; 135 32; 136 5; 137 4; 
138 10; 139 1; 145 155; 146 114; 147 42; 
148 6; 149 2; 150 11; 151 8; 161 11; 
162 6; 163 20; 164 18; 165 1; 166 3; 
173 9; 174 7; 175 156; 176 18; 177 2; 
186 1; 191 492; 192 999; 193 112; 194 14; 
