Name: Methoxy-THC
Synon: .delta.-9-tetrahydrocannabinol methyl ether
InChIKey: FJRQDVCLUUZSIG-UHFFFAOYSA-N
Formula: C22H32O2
MW: 328
ExactMass: 328.24023
CASNO: 0
ID: 2213
Comment: DEA SFL1 / synthesized by tdm
Num Peaks: 231
39 10; 40 1; 41 58; 42 3; 43 59; 
44 1; 45 1; 51 3; 52 1; 53 11; 
55 25; 56 3; 57 4; 59 2; 63 2; 
64 1; 65 10; 66 2; 67 28; 68 3; 
69 23; 70 1; 71 5; 76 2; 77 31; 
78 9; 79 23; 80 3; 81 46; 82 5; 
83 5; 85 1; 89 6; 90 3; 91 55; 
92 9; 93 24; 94 5; 95 29; 96 3; 
97 2; 98 2; 99 2; 100 3; 101 3; 
102 4; 103 11; 104 5; 105 31; 106 9; 
107 30; 109 10; 110 1; 111 1; 112 2; 
113 4; 115 46; 116 11; 117 15; 118 5; 
119 29; 120 11; 121 32; 123 5; 125 1; 
126 1; 127 16; 128 49; 129 37; 130 6; 
131 16; 132 5; 133 13; 134 9; 135 15; 
136 5; 137 18; 138 12; 139 6; 140 1; 
141 28; 142 14; 143 15; 144 10; 145 20; 
146 7; 147 14; 148 5; 149 6; 150 8; 
151 10; 152 25; 153 26; 154 13; 155 17; 
156 6; 157 15; 158 14; 159 19; 160 11; 
161 28; 162 8; 163 10; 164 19; 165 41; 
166 14; 167 14; 168 9; 169 15; 170 7; 
171 21; 172 12; 173 20; 174 35; 175 25; 
176 8; 177 15; 178 15; 179 11; 180 4; 
181 19; 182 12; 183 19; 184 10; 185 20; 
186 11; 187 30; 188 40; 189 26; 190 7; 
191 9; 192 4; 193 9; 194 6; 195 19; 
196 10; 197 21; 198 12; 199 19; 200 14; 
201 45; 202 14; 203 10; 204 4; 205 8; 
206 1; 207 62; 208 11; 209 10; 210 7; 
211 17; 212 9; 213 29; 214 22; 215 39; 
216 9; 217 9; 218 5; 219 3; 220 1; 
221 11; 222 2; 223 5; 224 5; 225 13; 
226 9; 227 23; 228 22; 229 26; 230 5; 
231 41; 232 12; 233 8; 234 1; 235 41; 
236 7; 237 2; 238 2; 239 7; 240 6; 
241 22; 242 11; 243 21; 244 7; 245 322; 
246 66; 247 24; 248 4; 253 7; 254 3; 
255 15; 256 16; 257 233; 258 51; 259 29; 
260 19; 261 3; 267 3; 268 1; 269 12; 
270 9; 271 60; 272 89; 273 22; 274 3; 
281 5; 282 2; 283 11; 284 5; 285 273; 
286 62; 287 11; 288 1; 295 4; 297 175; 
298 41; 299 26; 300 16; 301 3; 309 2; 
311 20; 313 979; 314 227; 315 28; 316 2; 
326 1; 327 27; 328 999; 329 240; 330 31; 
331 2; 
