Name: Olivetol
Synon: 1,3-Benzenediol, 5-pentyl-
Synon: Resorcinol, 5-pentyl-
Synon: 5-n-Amylresorcinol
Synon: 3,5-Dihydroxyamylbenzene
Synon: 5-Pentylresorcinol
Synon: 5-n-Pentylresorcinol
Synon: 5-Pentyl-1,3-benzenediol
InChIKey: IRMPFYJSHJGOPE-UHFFFAOYSA-N
Formula: C11H16O2
MW: 180
ExactMass: 180.115029
CASNO: 500663
ID: 2216
Comment: DEA SFL1 / Aldrich
Num Peaks: 82
38 2; 39 23; 40 3; 41 38; 42 4; 
43 14; 44 8; 50 4; 51 15; 52 6; 
53 18; 54 3; 55 34; 56 2; 57 4; 
62 2; 63 7; 64 2; 65 27; 66 14; 
67 32; 68 3; 69 63; 70 2; 71 3; 
74 2; 75 1; 76 2; 77 39; 78 11; 
79 17; 80 3; 81 18; 82 6; 83 2; 
84 2; 85 3; 89 3; 90 1; 91 19; 
92 2; 93 5; 94 11; 95 37; 96 11; 
97 3; 98 1; 102 1; 103 4; 104 1; 
105 6; 106 14; 107 23; 108 3; 109 9; 
110 14; 111 14; 112 1; 115 2; 119 4; 
121 4; 123 270; 124 999; 125 85; 126 7; 
131 1; 133 2; 134 1; 135 2; 136 12; 
137 101; 138 104; 139 9; 147 1; 149 4; 
150 1; 151 12; 152 5; 165 4; 180 251; 
181 31; 182 2; 
