Name: 4-Methylthiomethylnitrostyrene
Synon: 4-Methylthiophenyl-beta-nitropropene
InChIKey: UQRYSONRAHKADZ-VOTSOKGWSA-N
Formula: C10H11NO2S
MW: 209
ExactMass: 209.051049
CASNO: 0
ID: 2221
Comment: ENFSI / Microgram, Vol. XXXI, No.6, June 1998, pp 174-180 4-methylthioamphetamine intermediate from 4-methylthiobenzaldehyde
Num Peaks: 116
37 16; 38 47; 39 149; 40 40; 41 40; 
42 5; 43 15; 44 14; 45 242; 46 45; 
47 55; 48 11; 49 9; 50 118; 51 136; 
52 23; 53 15; 57 17; 58 24; 59 12; 
60 7; 61 26; 62 64; 63 183; 64 31; 
65 97; 66 8; 67 14; 69 169; 70 21; 
71 22; 72 13; 73 17; 74 68; 75 61; 
76 47; 77 182; 78 73; 79 61; 80 6; 
81 23; 82 54; 83 10; 84 7; 85 16; 
86 15; 87 23; 88 18; 89 143; 90 31; 
91 57; 92 14; 93 27; 94 13; 95 14; 
96 6; 97 29; 98 6; 101 10; 102 62; 
103 118; 104 43; 105 21; 106 23; 107 14; 
108 70; 109 68; 110 28; 111 11; 112 27; 
113 22; 115 999; 116 630; 117 93; 118 27; 
119 10; 120 13; 121 79; 122 24; 123 51; 
124 110; 125 54; 126 10; 127 9; 128 32; 
129 15; 130 16; 131 54; 132 131; 133 40; 
134 20; 135 48; 136 29; 137 13; 138 16; 
139 15; 140 6; 145 33; 146 54; 147 323; 
148 123; 149 37; 151 267; 152 235; 153 43; 
154 13; 162 674; 163 108; 164 53; 165 7; 
177 45; 178 9; 179 8; 209 441; 210 51; 
211 24; 
