Name: 1-Benzyl-4-anilinopiperidine
Synon: 4-Anilino-1-benzylpiperidine
InChIKey: FSXGJIFBTBJMHV-UHFFFAOYSA-N
Formula: C18H22N2
MW: 266
ExactMass: 266.178299
CASNO: 1155562
ID: 2225
Comment: DEA SFL1 / from 1-benzyl-4-anilinopiperidine synthesis
Num Peaks: 92
38 1; 39 17; 40 2; 41 13; 42 45; 
43 4; 44 11; 50 4; 51 19; 52 6; 
53 6; 54 9; 55 35; 56 52; 57 4; 
58 1; 62 1; 63 10; 64 5; 65 82; 
66 14; 67 5; 68 9; 69 5; 70 4; 
74 1; 75 1; 76 3; 77 60; 78 12; 
79 7; 80 7; 81 3; 82 109; 83 10; 
84 2; 89 16; 91 999; 92 112; 93 41; 
94 12; 96 67; 97 5; 102 1; 103 6; 
104 44; 105 14; 106 30; 107 7; 115 6; 
116 4; 117 37; 118 158; 119 74; 120 131; 
121 12; 128 2; 129 2; 130 30; 131 23; 
132 77; 133 22; 134 37; 135 4; 143 3; 
144 24; 145 15; 146 223; 147 35; 148 10; 
149 1; 156 1; 158 62; 159 10; 160 2; 
161 1; 170 3; 172 307; 173 792; 174 117; 
175 78; 176 9; 182 1; 189 1; 237 2; 
249 1; 251 2; 263 1; 264 1; 266 257; 
267 52; 268 5; 
