Name: trans-4-Phenyl-3-buten-2-one
InChIKey: BWHOZHOGCMHOBV-BQYQJAHWSA-N
Formula: C10H10O
MW: 146
ExactMass: 146.073165
CASNO: 1896624
ID: 2227
Comment: DEA SFL1
Num Peaks: 62
37 5; 38 13; 39 43; 40 3; 41 3; 
42 9; 43 160; 44 4; 49 6; 50 89; 
51 264; 52 31; 53 14; 55 1; 58 21; 
59 3; 61 9; 62 29; 63 68; 64 9; 
65 29; 72 5; 73 15; 74 57; 75 55; 
76 74; 77 453; 78 46; 79 2; 85 3; 
86 7; 87 11; 88 3; 89 16; 90 3; 
91 27; 92 2; 97 1; 98 9; 99 2; 
100 1; 101 18; 102 139; 103 907; 104 87; 
105 5; 113 2; 115 52; 116 11; 117 33; 
118 6; 126 2; 127 10; 128 6; 129 5; 
131 999; 132 104; 133 6; 145 601; 146 741; 
147 82; 148 5; 
