Name: 1-phenethyl-4-acetoxypiperidine
InChIKey: OPUQOEHXQRAKRK-UHFFFAOYSA-N
Formula: C15H21NO2
MW: 247
ExactMass: 247.157228
CASNO: 0
ID: 2233
Comment: DEA SFL1 / reaction of 1-phenethyl-4-hydroxypiperidine and acetyl chloride
Num Peaks: 78
39 9; 40 1; 41 20; 42 90; 43 89; 
44 43; 45 2; 50 2; 51 9; 52 3; 
53 6; 54 7; 55 15; 56 16; 57 21; 
58 1; 63 4; 64 1; 65 19; 66 2; 
67 13; 68 7; 69 12; 70 10; 71 2; 
73 1; 75 1; 76 1; 77 40; 78 13; 
79 32; 80 6; 81 2; 82 6; 83 1; 
84 32; 85 4; 86 3; 89 4; 90 2; 
91 46; 92 5; 94 5; 95 7; 96 119; 
97 10; 98 1; 102 3; 103 30; 104 22; 
105 99; 106 8; 112 13; 114 383; 115 28; 
116 2; 117 5; 118 1; 128 1; 129 1; 
130 6; 131 2; 132 6; 134 1; 144 1; 
146 2; 156 999; 157 116; 158 10; 160 1; 
184 1; 186 7; 187 1; 188 14; 189 2; 
204 6; 205 1; 247 1; 
