Name: N,N-dipropionylphenethylamine
InChIKey: HZKQWMWJVQKPBB-UHFFFAOYSA-N
Formula: C14H19NO2
MW: 233
ExactMass: 233.141579
CASNO: 0
ID: 2235
Comment: DEA SFL1 / reaction of phenethylamine and propionyl chloride
Num Peaks: 70
38 1; 39 10; 40 1; 41 5; 42 3; 
43 2; 44 3; 50 3; 51 14; 52 4; 
53 2; 54 3; 55 13; 56 18; 57 592; 
58 20; 59 1; 62 1; 63 8; 64 2; 
65 41; 66 2; 68 1; 69 1; 70 1; 
73 1; 74 2; 75 1; 76 2; 77 37; 
78 17; 79 20; 80 1; 84 2; 85 2; 
86 210; 87 12; 88 1; 89 10; 90 4; 
91 119; 92 16; 93 1; 100 3; 101 1; 
102 4; 103 32; 104 999; 105 119; 106 6; 
112 134; 113 10; 114 1; 115 1; 117 2; 
118 4; 119 5; 120 18; 121 6; 122 3; 
128 1; 130 1; 131 1; 142 1; 148 3; 
176 3; 177 4; 178 1; 233 6; 234 1; 
