Name: N-phenylpropanamide
Synon: Propionamide, N-phenyl-
Synon: Propionanilide
InChIKey: ZTHRQJQJODGZHV-UHFFFAOYSA-N
Formula: C9H11NO
MW: 149
ExactMass: 149.084064
CASNO: 620713
ID: 2244
Comment: DEA SFL1 / ALB 26-1
Num Peaks: 50
37 3; 38 12; 39 50; 40 9; 41 6; 
42 3; 43 1; 44 1; 50 12; 51 37; 
52 13; 53 4; 54 5; 55 7; 56 2; 
57 93; 58 3; 61 2; 62 6; 63 22; 
64 22; 65 85; 66 64; 67 7; 74 4; 
75 2; 76 5; 77 61; 78 8; 79 2; 
90 2; 91 17; 92 46; 93 999; 94 70; 
95 2; 103 1; 104 3; 105 2; 106 4; 
118 1; 119 7; 120 15; 121 1; 130 1; 
131 1; 133 1; 149 190; 150 19; 151 1; 
