Name: N-Benzyl-2-phenethylamine
InChIKey: UPABQMWFWCMOFV-UHFFFAOYSA-N
Formula: C15H17N
MW: 211
ExactMass: 211.1361
CASNO: 3647710
ID: 2247
Comment: DEA SFL1
Num Peaks: 50
38 2; 39 29; 40 2; 41 12; 42 6; 
43 2; 50 9; 51 31; 52 8; 53 3; 
62 4; 63 24; 64 8; 65 152; 66 9; 
74 2; 75 3; 76 4; 77 53; 78 17; 
79 25; 80 2; 87 1; 89 35; 91 999; 
92 132; 93 5; 102 3; 103 22; 104 16; 
105 47; 106 7; 115 1; 116 1; 117 11; 
118 48; 120 999; 121 99; 122 4; 130 1; 
132 4; 134 2; 165 2; 166 1; 178 1; 
181 1; 208 2; 209 4; 210 3; 211 2; 
