Name: Phenethylpropanamide
InChIKey: IABUULYQQIHCIL-UHFFFAOYSA-N
Formula: C11H15NO
MW: 177
ExactMass: 177.115364
CASNO: 0
ID: 2249
Comment: DEA SFL1 / ALB 16-1
Num Peaks: 59
37 1; 38 5; 39 50; 40 4; 41 15; 
42 9; 43 7; 44 8; 50 15; 51 51; 
52 14; 53 8; 54 3; 55 14; 56 10; 
57 395; 58 15; 59 1; 61 1; 62 8; 
63 32; 64 9; 65 115; 66 9; 74 8; 
75 5; 76 6; 77 87; 78 54; 79 40; 
80 2; 84 1; 86 178; 87 9; 88 1; 
89 30; 90 14; 91 225; 92 36; 93 4; 
101 1; 102 9; 103 71; 104 999; 105 167; 
106 12; 116 1; 117 6; 118 18; 119 20; 
120 18; 121 2; 130 1; 148 8; 162 3; 
175 1; 177 221; 178 29; 179 2; 
