Name: 1-phenethyl-4-hydroxypiperidine
InChIKey: KYGMSTKBHJVPJK-UHFFFAOYSA-N
Formula: C13H19NO
MW: 205
ExactMass: 205.146665
CASNO: 0
ID: 2252
Comment: DEA SFL1 / ALB-6
Num Peaks: 74
38 1; 39 17; 40 2; 41 30; 42 111; 
43 27; 44 343; 45 10; 50 5; 51 19; 
52 6; 53 17; 54 9; 55 20; 56 24; 
57 25; 58 4; 62 1; 63 8; 64 2; 
65 28; 66 2; 67 4; 68 5; 69 6; 
70 25; 71 15; 72 1; 74 1; 75 1; 
76 2; 77 47; 78 18; 79 30; 80 3; 
81 1; 82 3; 83 1; 84 13; 85 1; 
86 1; 89 6; 90 3; 91 51; 92 5; 
93 1; 94 2; 95 1; 96 24; 97 1; 
98 1; 102 4; 103 29; 104 24; 105 69; 
106 5; 112 11; 114 999; 115 71; 116 5; 
117 4; 118 1; 128 1; 130 6; 131 1; 
132 3; 134 1; 144 1; 146 1; 160 3; 
184 1; 186 1; 188 1; 204 2; 
