Name: Dipropionylaniline
InChIKey: FDQIKAPLXWTHCN-UHFFFAOYSA-N
Formula: C12H15NO2
MW: 205
ExactMass: 205.110279
CASNO: 0
ID: 2264
Comment: DEA SFL1 / ALB 26-2
Num Peaks: 62
37 2; 38 7; 39 26; 40 5; 41 6; 
42 4; 43 2; 44 1; 50 10; 51 50; 
52 11; 53 3; 54 2; 55 21; 56 8; 
57 298; 58 10; 61 1; 62 4; 63 22; 
64 37; 65 50; 66 30; 67 3; 72 7; 
74 3; 75 3; 76 8; 77 155; 78 28; 
79 4; 80 1; 89 1; 90 5; 91 83; 
92 24; 93 999; 94 85; 95 3; 102 1; 
103 7; 104 157; 105 87; 106 51; 107 4; 
117 3; 118 3; 119 29; 120 43; 121 4; 
130 10; 131 10; 132 71; 133 21; 134 3; 
146 1; 148 84; 149 585; 150 62; 151 4; 
205 16; 206 2; 
