Name: 2-Phenyl-1-propanol
Synon: Phenethyl alcohol, .beta.-methyl-
Synon: .beta.-Methylphenethyl alcohol
Synon: .beta.-Phenylpropyl alcohol
Synon: Hydratropic alcohol
Synon: Hydratropyl alcohol
Synon: 1-Propanol, 2-phenyl-
Synon: 2-Phenylpropyl alcohol
Synon: 1-Hydroxy-2-phenylpropane
Synon: .alpha.-Methyl phenylethyl alcohol
Synon: 2-Phenylpropan-1-ol
InChIKey: RNDNSYIPLPAXAZ-UHFFFAOYSA-N
Formula: C9H12O
MW: 136
ExactMass: 136.088815
CASNO: 1123859
ID: 2265
Comment: DEA SFL1 / by-product from reductive amination of 2-phenylpropionaldehyde with methylamine
Num Peaks: 37
38 3; 39 24; 40 3; 41 5; 43 11; 
50 17; 51 47; 52 12; 53 8; 55 1; 
57 5; 62 3; 63 16; 65 22; 74 5; 
75 7; 76 7; 77 148; 78 55; 79 138; 
80 11; 89 10; 90 3; 91 111; 92 10; 
102 14; 103 131; 104 56; 105 999; 106 253; 
107 21; 115 11; 117 7; 118 5; 134 1; 
136 177; 137 17; 
