Name: Phenethyl chloride
Synon: .beta.-Phenethyl chloride
Synon: .beta.-Phenylethyl chloride
Synon: (.beta.-Chloroethyl)benzene
Synon: (2-Chloroethyl)benzene
Synon: 1-Chloro-2-phenylethane
Synon: 2-Phenyl-1-chloroethane
Synon: 2-Phenylethyl chloride
Synon: Benzene,-(2-chloroethyl)
InChIKey: MNNZINNZIQVULG-UHFFFAOYSA-N
Formula: C8H9Cl
MW: 140
ExactMass: 140.039278
CASNO: 622242
ID: 2266
Comment: DEA SFL1 / Aldrich std
Num Peaks: 43
37 2; 38 6; 39 28; 40 2; 41 4; 
49 11; 50 33; 51 79; 52 16; 53 4; 
61 4; 62 11; 63 31; 64 6; 65 74; 
66 4; 73 4; 74 16; 75 13; 76 12; 
77 89; 78 46; 79 24; 80 1; 85 1; 
86 2; 87 2; 89 21; 91 999; 92 92; 
93 3; 98 1; 99 1; 101 2; 102 13; 
103 55; 104 29; 105 32; 106 2; 140 248; 
141 21; 142 75; 143 6; 
