Name: N-Benzylaniline
Synon: Benzylamine, N-phenyl-
Synon: Aniline, N-benzyl-
Synon: Benzenamine, N-(phenylmethyl)-
Synon: Benzylaniline
Synon: Benzylphenylamine
Synon: N-Monobenzylaniline
Synon: N-Phenylbenzylamine
Synon: Phenylbenzylamine
Synon: N-Phenylbenzenemethanamine
Synon: N-Benzyl-N-phenylamine
Synon: Benzenemethanamine, N-phenyl-
InChIKey: GTWJETSWSUWSEJ-UHFFFAOYSA-N
Formula: C13H13N
MW: 183
ExactMass: 183.104799
CASNO: 103322
ID: 2267
Comment: DEA SFL1 / ALB 24-3
Num Peaks: 69
37 1; 38 7; 39 49; 40 4; 41 8; 
50 21; 51 77; 52 18; 53 3; 54 1; 
61 1; 62 8; 63 35; 64 15; 65 162; 
66 12; 67 1; 74 7; 75 7; 76 12; 
77 182; 78 36; 79 19; 80 2; 84 7; 
86 1; 87 1; 88 1; 89 28; 91 999; 
92 89; 93 6; 101 1; 102 2; 103 2; 
104 75; 105 20; 106 180; 107 14; 115 6; 
116 2; 117 1; 126 2; 127 4; 128 4; 
129 2; 130 1; 139 1; 140 1; 141 1; 
150 1; 151 3; 152 11; 153 6; 154 10; 
155 2; 156 1; 165 5; 166 3; 167 6; 
168 2; 178 1; 179 1; 180 23; 181 8; 
182 180; 183 486; 184 69; 185 5; 
