Name: N-(1-phenethyl-4-piperidyl)-N-phenethylpropanamide
InChIKey: QANKPCFFLUNJJN-UHFFFAOYSA-N
Formula: C24H32N2O
MW: 364
ExactMass: 364.251463
CASNO: 0
ID: 2269
Comment: DEA SFL1 / ALB 20-2
Num Peaks: 157
39 23; 40 3; 41 61; 42 243; 43 25; 
44 125; 45 4; 50 6; 51 19; 52 7; 
53 16; 54 29; 55 83; 56 65; 57 199; 
58 143; 59 6; 62 2; 63 8; 64 2; 
65 49; 66 4; 67 34; 68 47; 69 38; 
70 150; 71 10; 72 2; 74 2; 75 2; 
76 3; 77 92; 78 35; 79 108; 80 19; 
81 8; 82 99; 83 12; 84 36; 85 8; 
86 8; 88 1; 89 11; 90 6; 91 185; 
92 20; 93 4; 94 27; 95 57; 96 233; 
97 42; 98 139; 99 10; 100 3; 101 1; 
102 6; 103 91; 104 116; 105 738; 106 64; 
107 3; 108 4; 109 2; 110 3; 111 7; 
112 4; 113 5; 114 3; 115 9; 116 3; 
117 19; 118 6; 119 4; 120 8; 121 2; 
122 5; 123 2; 125 144; 126 27; 127 3; 
128 4; 129 9; 130 18; 131 10; 132 17; 
133 2; 134 19; 135 2; 139 22; 140 6; 
141 2; 142 2; 143 3; 144 9; 145 3; 
146 9; 147 1; 148 9; 149 1; 153 1; 
154 2; 155 1; 156 2; 157 2; 158 9; 
159 2; 160 97; 161 12; 162 2; 167 2; 
168 1; 169 23; 170 4; 171 1; 172 4; 
174 560; 175 74; 176 5; 177 5; 178 2; 
181 3; 182 2; 184 9; 185 7; 186 202; 
187 30; 188 44; 189 7; 190 1; 200 1; 
201 1; 202 1; 203 1; 205 1; 214 1; 
215 4; 217 155; 218 25; 219 2; 230 116; 
231 22; 232 3; 244 3; 245 1; 266 1; 
268 1; 269 1; 270 1; 271 4; 273 999; 
274 201; 275 21; 276 1; 279 1; 307 1; 
335 1; 362 1; 
