Name: N-(phenylmethyl)-1-phenyl-4-piperidinamine
InChIKey: FRSUDSSMLUVOSS-UHFFFAOYSA-N
Formula: C18H22N2
MW: 266
ExactMass: 266.178299
CASNO: 0
ID: 2272
Comment: DEA SFL1 / ALB 70-4
Num Peaks: 100
38 2; 39 40; 40 5; 41 26; 42 24; 
43 13; 44 23; 50 12; 51 66; 52 16; 
53 17; 54 15; 55 80; 56 38; 57 11; 
62 2; 63 18; 64 9; 65 113; 66 11; 
67 7; 68 11; 69 6; 70 58; 71 3; 
72 2; 73 1; 74 2; 75 4; 76 11; 
77 334; 78 57; 79 48; 80 8; 81 1; 
82 10; 83 25; 84 3; 89 20; 90 15; 
91 633; 92 65; 93 32; 94 8; 96 1; 
102 3; 103 20; 104 478; 105 525; 106 457; 
107 40; 108 3; 115 12; 116 12; 117 48; 
118 73; 119 54; 120 54; 121 8; 127 2; 
128 4; 129 6; 130 164; 131 72; 132 384; 
133 82; 134 11; 141 1; 142 2; 143 21; 
144 201; 145 37; 146 55; 147 17; 148 2; 
154 1; 156 19; 158 533; 159 999; 160 215; 
161 258; 162 30; 163 2; 171 1; 172 3; 
173 5; 174 6; 175 87; 176 12; 185 1; 
187 1; 194 1; 208 1; 237 6; 238 2; 
263 1; 264 1; 266 123; 267 26; 268 2; 
