Name: N-(1-phenethyl-4-piperidyl)-N-benzylamine
InChIKey: RNXLUTZCYKTSGB-UHFFFAOYSA-N
Formula: C20H26N2
MW: 294
ExactMass: 294.209599
CASNO: 0
ID: 2274
Comment: DEA SFL1 / ALB-92-4a
Num Peaks: 104
39 11; 40 1; 41 20; 42 68; 43 8; 
44 37; 45 1; 50 3; 51 11; 52 3; 
53 4; 54 9; 55 26; 56 34; 57 10; 
58 91; 59 3; 62 1; 63 7; 64 2; 
65 50; 66 3; 67 5; 68 13; 70 396; 
71 21; 72 2; 74 1; 75 1; 76 2; 
77 41; 78 15; 79 40; 80 6; 81 3; 
82 12; 83 9; 84 10; 85 6; 89 11; 
91 503; 92 41; 93 2; 94 5; 96 247; 
97 23; 98 152; 99 10; 101 30; 103 31; 
104 36; 105 149; 106 26; 107 4; 108 1; 
109 1; 111 19; 112 2; 115 4; 116 3; 
117 12; 118 7; 119 2; 120 3; 123 1; 
125 1; 128 2; 129 2; 130 12; 131 6; 
132 28; 133 5; 134 15; 135 1; 143 11; 
144 7; 145 2; 146 62; 147 8; 148 4; 
156 1; 158 7; 160 395; 161 49; 162 5; 
172 2; 173 2; 174 2; 175 2; 184 4; 
185 4; 186 8; 187 5; 188 5; 189 17; 
190 2; 201 32; 203 999; 204 147; 205 10; 
265 3; 292 1; 294 3; 295 1; 
