Name: 1-phenyl-4-anilinopiperidine
InChIKey: XXXGFKMNEKUBKD-UHFFFAOYSA-N
Formula: C17H20N2
MW: 252
ExactMass: 252.162648
CASNO: 0
ID: 2277
Comment: DEA SFL1 / ALB-74-4
Num Peaks: 85
37 1; 38 3; 39 40; 40 5; 41 16; 
42 18; 43 2; 44 2; 50 12; 51 82; 
52 17; 53 18; 54 11; 55 93; 56 14; 
57 1; 62 2; 63 13; 64 10; 65 59; 
66 20; 67 7; 68 5; 69 1; 70 2; 
74 3; 75 5; 76 12; 77 358; 78 57; 
79 34; 80 7; 81 1; 82 6; 89 6; 
90 10; 91 138; 92 41; 93 60; 94 7; 
102 2; 103 15; 104 361; 105 439; 106 247; 
107 18; 115 13; 116 9; 117 65; 118 202; 
119 135; 120 51; 121 6; 125 1; 126 40; 
128 4; 130 165; 131 68; 132 212; 133 30; 
134 8; 141 1; 142 3; 143 19; 144 190; 
145 30; 146 41; 147 11; 148 1; 154 1; 
155 1; 156 16; 158 533; 159 999; 160 155; 
161 11; 181 1; 182 2; 223 1; 224 2; 
249 1; 250 1; 252 227; 253 46; 254 4; 
