Name: Androstadiendione
Synon: Androsta-1,4-diene-3,17-dione
Synon: Boldione
InChIKey: LUJVUUWNAPIQQI-UHFFFAOYSA-N
Formula: C19H24O2
MW: 284
ExactMass: 284.17763
CASNO: 897063
ID: 2294
Comment: DEA SWL
Num Peaks: 157
40 9; 41 86; 42 9; 43 15; 50 3; 
51 20; 52 15; 53 49; 54 9; 55 76; 
56 5; 57 4; 58 2; 63 8; 64 5; 
65 45; 66 13; 67 59; 68 11; 69 9; 
70 2; 71 5; 72 1; 75 1; 76 3; 
77 97; 78 28; 79 105; 80 16; 81 32; 
82 6; 83 4; 84 2; 85 3; 86 2; 
87 1; 89 8; 90 4; 91 247; 92 53; 
93 99; 94 24; 95 17; 96 4; 97 13; 
98 1; 99 2; 100 1; 101 1; 102 5; 
103 23; 104 11; 105 80; 106 20; 107 107; 
108 84; 109 32; 110 7; 111 1; 113 1; 
115 51; 116 17; 117 41; 118 10; 119 44; 
120 28; 121 186; 122 999; 123 92; 124 7; 
126 1; 127 11; 128 34; 129 32; 130 12; 
131 40; 132 14; 133 37; 134 58; 135 57; 
136 9; 137 1; 139 2; 141 16; 142 10; 
143 17; 144 11; 145 49; 146 14; 147 36; 
148 10; 149 38; 150 51; 151 6; 152 5; 
153 7; 154 4; 155 8; 156 4; 157 13; 
158 16; 159 128; 160 26; 161 10; 162 3; 
163 23; 164 4; 165 5; 166 2; 167 2; 
168 1; 169 4; 170 2; 171 16; 172 7; 
173 9; 174 3; 175 2; 176 1; 178 1; 
179 1; 181 3; 182 1; 183 4; 184 2; 
185 7; 186 4; 187 2; 188 1; 189 1; 
195 1; 196 1; 197 3; 199 8; 200 3; 
201 1; 207 1; 209 2; 210 1; 211 1; 
213 3; 223 2; 225 1; 226 1; 227 5; 
228 1; 237 1; 238 1; 241 2; 242 1; 
249 1; 251 3; 256 1; 266 2; 269 1; 
284 25; 285 4; 
