Name: 4-Methylmethamphetamine
Synon: p-Methylmethamphetamine
Synon: 4-MMA
InChIKey: GAIWFPOJOHUEBL-UHFFFAOYSA-N
Formula: C11H17N
MW: 163
ExactMass: 163.1361
CASNO: 0
ID: 2330
Comment: QHFSS Lab
Num Peaks: 66
41 15; 42 35; 43 15; 44 4; 50 8; 
51 23; 52 8; 53 9; 54 3; 55 2; 
56 47; 57 26; 58 999; 59 37; 60 1; 
61 1; 62 4; 63 16; 64 4; 65 20; 
66 3; 70 2; 71 1; 73 2; 74 5; 
75 3; 76 4; 77 59; 78 23; 79 28; 
80 2; 86 1; 87 1; 89 10; 90 4; 
91 38; 92 4; 93 1; 101 1; 102 6; 
103 29; 104 18; 105 67; 106 8; 107 1; 
115 21; 116 8; 117 18; 118 5; 119 2; 
127 2; 128 4; 129 3; 130 5; 131 5; 
132 7; 133 10; 134 1; 144 2; 146 6; 
147 5; 148 18; 149 2; 161 1; 162 6; 
163 1; 
