Name: alpha-Methytryptamine
Synon: AMT
Synon: TIHKAL #48
Synon: .alpha.-methytryptamine
InChIKey: QSQQQURBVYWZKJ-UHFFFAOYSA-N
Formula: C11H14N2
MW: 174
ExactMass: 174.115699
CASNO: 299263
ID: 2350
Comment: DEA SWL
Num Peaks: 72
40 3; 41 7; 42 34; 43 8; 44 930; 
45 24; 50 18; 51 42; 52 19; 53 5; 
54 3; 56 1; 59 1; 61 1; 62 9; 
63 24; 64 8; 65 13; 66 3; 71 1; 
73 1; 74 12; 75 21; 76 29; 77 139; 
78 19; 79 11; 85 1; 86 2; 87 4; 
88 3; 89 16; 90 9; 91 5; 98 2; 
99 1; 100 2; 101 16; 102 68; 103 98; 
104 14; 105 1; 113 2; 114 3; 115 13; 
116 5; 117 19; 118 3; 126 2; 127 7; 
128 56; 129 43; 130 781; 131 999; 132 105; 
133 5; 140 2; 141 2; 142 4; 143 5; 
144 2; 154 6; 155 3; 156 7; 157 6; 
158 9; 159 7; 171 1; 172 2; 173 1; 
174 25; 175 3; 
