Name: Estra-4,9-diene-3,17-dione
Synon: 19-Norandrosta-4,9-diene-3,17-dione
Synon: Trenbolin
Synon: 19-Nor-4,9(10)-androstadienedione
Synon: Estra-4,9(10)-diene-3,17-dione
InChIKey: BHTWZQKERRCPRZ-RYRKJORJSA-N
Formula: C18H22O2
MW: 270
ExactMass: 270.16198
CASNO: 5173466
ID: 2369
Comment: DEA SWL
Num Peaks: 193
36 1; 38 2; 39 106; 40 19; 41 178; 
42 25; 43 32; 44 15; 50 13; 51 63; 
52 30; 53 111; 54 15; 55 148; 56 11; 
57 11; 58 5; 62 4; 63 41; 64 21; 
65 106; 66 25; 67 92; 68 14; 69 23; 
71 20; 72 8; 73 1; 74 3; 75 7; 
76 23; 77 208; 78 88; 79 157; 80 21; 
81 52; 82 16; 83 26; 84 12; 85 12; 
86 14; 87 4; 88 4; 89 38; 90 14; 
91 415; 92 58; 93 50; 94 16; 95 31; 
96 11; 97 678; 98 45; 99 7; 100 9; 
101 7; 102 29; 103 106; 104 65; 105 161; 
106 34; 107 48; 108 18; 109 23; 110 67; 
111 10; 112 2; 113 3; 114 7; 115 346; 
116 125; 117 364; 118 89; 119 120; 120 28; 
121 21; 122 64; 123 26; 124 10; 125 2; 
126 7; 127 77; 128 264; 129 265; 130 91; 
131 189; 132 89; 133 107; 134 34; 135 26; 
136 9; 137 4; 139 19; 140 5; 141 168; 
142 105; 143 148; 144 58; 145 110; 146 64; 
147 62; 148 59; 149 19; 150 7; 151 10; 
152 40; 153 62; 154 39; 155 102; 156 45; 
157 140; 158 80; 159 124; 160 171; 161 121; 
162 55; 163 10; 164 4; 165 37; 166 16; 
167 40; 168 18; 169 62; 170 37; 171 102; 
172 78; 173 125; 174 999; 175 131; 176 11; 
177 2; 178 7; 179 10; 180 9; 181 25; 
182 15; 183 37; 184 29; 185 122; 186 77; 
187 25; 188 5; 189 1; 191 2; 192 1; 
193 6; 194 5; 195 56; 196 17; 197 23; 
198 46; 199 124; 200 55; 201 27; 202 5; 
207 4; 208 2; 209 21; 210 15; 211 28; 
212 26; 213 208; 214 83; 215 20; 216 2; 
219 3; 223 6; 224 10; 225 8; 226 16; 
227 48; 228 30; 229 5; 230 1; 234 1; 
235 1; 237 16; 238 2; 241 15; 242 16; 
243 2; 251 2; 252 8; 253 6; 254 1; 
255 36; 256 6; 268 2; 269 3; 270 590; 
271 109; 272 13; 273 1; 
