Name: Xylazine
Synon: 4H-1,3-Thiazin-2-amine, N-(2,6-dimethylphenyl)-5,6-dihydro-
Synon: 4H-1,3-Thiazine, 5,6-dihydro-2-(2,6-xylidino)-
Synon: 5,6-Dihydro-2-(2,6-xylidino)-4H-1,3-thiazine
Synon: BAY 1470
InChIKey: BPICBUSOMSTKRF-UHFFFAOYSA-N
Formula: C12H16N2S
MW: 220
ExactMass: 220.103419
CASNO: 7361617
ID: 2371
Comment: DEA SWL
Num Peaks: 160
36 1; 37 2; 38 9; 39 139; 40 21; 
41 167; 42 39; 43 17; 44 10; 45 94; 
46 50; 47 51; 48 3; 49 2; 50 24; 
51 106; 52 49; 53 66; 54 22; 55 22; 
56 43; 57 8; 58 26; 59 27; 60 21; 
61 26; 62 16; 63 66; 64 25; 65 111; 
66 21; 67 10; 68 4; 69 6; 70 8; 
71 10; 72 52; 73 29; 74 16; 75 21; 
76 27; 77 363; 78 128; 79 135; 80 16; 
81 8; 82 4; 83 10; 84 9; 85 3; 
86 6; 87 6; 88 42; 89 90; 90 49; 
91 247; 92 61; 93 23; 94 6; 95 18; 
96 19; 97 4; 98 2; 99 5; 100 10; 
101 14; 102 53; 103 206; 104 86; 105 121; 
106 43; 107 25; 108 4; 109 13; 110 4; 
111 1; 113 4; 114 3; 115 10; 116 70; 
117 113; 118 173; 119 110; 120 180; 121 35; 
122 6; 123 2; 127 3; 128 34; 129 20; 
130 332; 131 317; 132 218; 133 47; 134 23; 
135 36; 136 10; 137 5; 138 4; 140 1; 
141 1; 142 14; 143 39; 144 78; 145 339; 
146 240; 147 41; 148 34; 149 9; 150 27; 
151 141; 152 16; 153 7; 154 2; 155 2; 
156 13; 157 11; 158 29; 159 133; 160 125; 
161 16; 162 90; 163 88; 164 53; 165 9; 
166 2; 168 1; 169 2; 170 5; 171 18; 
172 19; 173 172; 174 27; 175 9; 176 7; 
177 281; 178 61; 179 23; 180 3; 185 8; 
186 8; 187 116; 188 16; 189 3; 190 3; 
191 29; 192 16; 193 2; 203 8; 204 11; 
205 999; 206 132; 207 50; 208 5; 218 2; 
219 7; 220 500; 221 73; 222 28; 223 3; 
