Name: 4-Hydoxyindol-3-yl-N,N-diisopropylglyoxylamide
InChIKey: SJXFQKFAOARYBT-UHFFFAOYSA-N
Formula: C16H20N2O3
MW: 288
ExactMass: 288.147392
CASNO: 0
ID: 2375
Comment: DEA NCL (contributed by TAD)
Num Peaks: 67
38 1; 39 10; 40 2; 41 43; 42 16; 
43 133; 44 13; 50 9; 51 27; 52 6; 
53 3; 54 1; 55 1; 56 2; 58 11; 
62 2; 63 4; 64 2; 65 3; 66 3; 
68 1; 70 7; 74 3; 75 8; 76 36; 
77 84; 78 38; 79 3; 80 1; 84 5; 
85 1; 86 127; 87 9; 88 3; 89 2; 
100 19; 101 2; 102 11; 103 25; 104 202; 
105 20; 106 1; 114 2; 115 3; 116 1; 
117 1; 119 1; 128 32; 129 3; 130 2; 
131 24; 132 27; 133 4; 143 1; 146 1; 
158 3; 159 41; 160 999; 161 107; 162 9; 
174 1; 175 1; 202 1; 230 1; 288 97; 
289 17; 290 2; 
