Name: 2-Bromo-4-Methyl-propiophenone
InChIKey: ZCQPLHJQGPEELZ-UHFFFAOYSA-N
Formula: C10H11BrO
MW: 226
ExactMass: 225.999327
CASNO: 0
ID: 2378
Comment: DEA NCL (contributed by TAD)
Num Peaks: 62
37 1; 38 3; 39 26; 40 2; 41 9; 
45 1; 50 15; 51 21; 52 7; 53 5; 
55 15; 56 4; 59 1; 61 3; 62 15; 
63 45; 64 13; 65 126; 66 7; 74 7; 
75 6; 76 5; 77 13; 78 4; 79 4; 
80 1; 81 2; 82 1; 85 1; 86 4; 
87 4; 88 1; 89 61; 90 32; 91 381; 
92 30; 93 4; 102 3; 103 11; 104 7; 
105 2; 107 6; 109 5; 115 15; 116 3; 
117 21; 118 11; 119 999; 120 104; 121 6; 
127 1; 128 2; 129 1; 131 3; 132 1; 
145 1; 146 2; 148 1; 226 14; 227 1; 
228 15; 229 1; 
