Name: N-Acetyl-2-Fluoromethcathinone
Synon: Ac-2-FMC
InChIKey: OUDPFZWXJWJCPG-UHFFFAOYSA-N
Formula: C12H14FNO2
MW: 223
ExactMass: 223.100857
CASNO: 0
ID: 2381
Comment: DEA NCL (contributed by TAD) / Acetyl derivative of 2-FMC
Num Peaks: 78
38 1; 39 3; 40 1; 41 6; 42 66; 
43 127; 44 5; 45 1; 50 13; 51 11; 
52 1; 53 1; 54 7; 55 9; 56 76; 
57 27; 58 999; 59 35; 62 2; 63 4; 
68 9; 69 14; 70 4; 71 2; 73 1; 
74 12; 75 85; 76 8; 77 9; 78 1; 
81 2; 83 2; 89 1; 91 1; 92 1; 
93 3; 94 12; 95 125; 96 14; 97 2; 
99 2; 100 424; 101 27; 102 3; 103 6; 
104 1; 105 1; 107 2; 109 8; 110 1; 
115 1; 120 1; 121 2; 122 2; 123 115; 
124 8; 133 3; 134 1; 135 1; 136 1; 
138 2; 146 1; 148 1; 149 3; 150 1; 
151 3; 152 4; 160 1; 162 1; 164 4; 
165 3; 166 9; 167 1; 180 7; 181 4; 
206 1; 223 6; 224 1; 
