Name: 2-Chloro-4,5-Methylenedioxyamphetamine
Synon: 2-Cl-4,5-MDA
InChIKey: RLXSVYSNRAKQGZ-UHFFFAOYSA-N
Formula: C10H12ClNO2
MW: 213
ExactMass: 213.055656
CASNO: 0
ID: 2386
Comment: DEA NCL (contributed by TAD)
Num Peaks: 130
37 2; 38 5; 39 14; 40 3; 41 9; 
42 56; 43 17; 44 999; 45 89; 46 2; 
49 3; 50 45; 51 56; 52 12; 53 21; 
54 4; 55 2; 56 4; 57 3; 58 2; 
60 2; 61 11; 62 21; 63 29; 64 7; 
65 10; 66 3; 67 2; 68 1; 69 1; 
72 2; 73 11; 74 30; 75 149; 76 43; 
77 126; 78 29; 79 11; 80 4; 81 1; 
84 7; 85 17; 86 5; 87 11; 88 3; 
89 11; 90 4; 91 9; 92 4; 93 2; 
94 1; 96 1; 97 7; 98 30; 101 6; 
102 11; 103 17; 104 25; 105 19; 106 7; 
107 3; 108 1; 109 1; 110 2; 111 65; 
112 16; 113 36; 114 7; 115 5; 116 2; 
117 5; 118 11; 119 3; 120 2; 121 1; 
123 2; 125 2; 126 1; 127 1; 130 1; 
131 5; 132 24; 133 8; 134 3; 135 44; 
136 6; 137 3; 138 1; 139 17; 140 8; 
141 9; 142 2; 143 1; 146 10; 147 2; 
148 1; 150 1; 154 1; 155 4; 156 2; 
157 1; 160 2; 161 5; 162 11; 163 7; 
164 1; 165 1; 167 1; 168 1; 169 129; 
170 201; 171 59; 172 64; 173 6; 174 2; 
175 1; 176 2; 177 71; 178 11; 179 1; 
181 1; 182 1; 196 2; 197 2; 198 7; 
199 1; 200 2; 212 3; 213 1; 214 2; 
