Name: 2,5-Dimethoxy-4-ethyl-nitrostyrene
InChIKey: QHCLACIRZLUQEU-AATRIKPKSA-N
Formula: C12H15NO4
MW: 237
ExactMass: 237.100108
CASNO: 0
ID: 2388
Comment: DEA NCL (contributed by TAD)
Num Peaks: 170
36 1; 37 2; 38 14; 39 109; 40 15; 
41 45; 42 8; 43 36; 44 3; 45 19; 
46 10; 47 2; 48 1; 49 3; 50 68; 
51 188; 52 57; 53 147; 54 28; 55 63; 
56 8; 57 18; 58 7; 59 45; 60 2; 
61 9; 62 51; 63 161; 64 53; 65 155; 
66 51; 67 58; 68 23; 69 45; 70 4; 
71 7; 72 7; 73 19; 74 44; 75 76; 
76 79; 77 503; 78 159; 79 243; 80 46; 
81 38; 82 25; 83 24; 84 13; 85 18; 
86 24; 87 38; 88 35; 89 215; 90 101; 
91 479; 92 83; 93 64; 94 26; 95 73; 
96 18; 97 24; 98 13; 99 12; 100 4; 
101 34; 102 139; 103 306; 104 109; 105 305; 
106 74; 107 90; 108 56; 109 55; 110 32; 
111 27; 112 8; 113 41; 114 26; 115 503; 
116 155; 117 206; 118 142; 119 134; 120 76; 
121 118; 122 46; 123 70; 124 23; 125 36; 
126 30; 127 60; 128 90; 129 69; 130 42; 
131 479; 132 141; 133 202; 134 115; 135 117; 
136 58; 137 35; 138 45; 139 59; 140 6; 
141 8; 142 11; 143 24; 144 43; 145 175; 
146 86; 147 193; 148 113; 149 86; 150 49; 
151 131; 152 25; 153 26; 154 5; 155 3; 
156 3; 157 30; 158 20; 159 56; 160 86; 
161 835; 162 191; 163 133; 164 46; 165 57; 
166 31; 167 20; 168 3; 169 1; 171 1; 
172 4; 173 16; 174 43; 175 720; 176 254; 
177 68; 178 126; 179 74; 180 12; 181 2; 
187 1; 188 11; 189 73; 190 799; 191 130; 
192 30; 193 18; 194 29; 195 7; 196 1; 
204 6; 205 17; 206 80; 207 20; 208 20; 
209 2; 220 3; 221 3; 222 35; 223 4; 
236 7; 237 999; 238 135; 239 14; 240 1; 
