Name: 5(10)-Estren-3,17-dione
InChIKey: RORYLAUXKSWMQL-UHFFFAOYSA-N
Formula: C18H24O2
MW: 272
ExactMass: 272.17763
CASNO: 3962661
ID: 2393
Comment: DEA SWL / Steraloids lot H430
Num Peaks: 204
38 3; 39 169; 40 39; 41 414; 42 116; 
43 71; 44 13; 45 2; 50 10; 51 70; 
52 47; 53 243; 54 43; 55 395; 56 31; 
57 35; 58 6; 59 4; 62 3; 63 33; 
64 24; 65 196; 66 66; 67 285; 68 44; 
69 47; 70 9; 71 29; 72 14; 73 8; 
74 2; 75 5; 76 12; 77 438; 78 157; 
79 508; 80 83; 81 164; 82 30; 83 37; 
84 6; 85 10; 86 4; 87 13; 88 2; 
89 22; 90 10; 91 999; 92 170; 93 246; 
94 76; 95 93; 96 34; 97 457; 98 47; 
99 6; 100 2; 101 6; 102 21; 103 112; 
104 132; 105 574; 106 201; 107 178; 108 80; 
109 74; 110 212; 111 38; 112 3; 113 3; 
114 3; 115 218; 116 85; 117 368; 118 187; 
119 270; 120 197; 121 79; 122 115; 123 88; 
124 67; 125 7; 126 3; 127 40; 128 149; 
129 210; 130 100; 131 322; 132 181; 133 179; 
134 126; 135 89; 136 23; 137 12; 138 2; 
139 7; 140 2; 141 85; 142 65; 143 170; 
144 143; 145 313; 146 139; 147 123; 148 145; 
149 67; 150 77; 151 23; 152 15; 153 18; 
154 16; 155 83; 156 64; 157 193; 158 130; 
159 334; 160 156; 161 78; 162 82; 163 33; 
164 6; 165 10; 166 4; 167 9; 168 11; 
169 42; 170 45; 171 108; 172 67; 173 221; 
174 177; 175 48; 176 20; 177 3; 178 2; 
179 3; 180 1; 181 24; 182 11; 183 59; 
184 26; 185 46; 186 124; 187 114; 188 46; 
189 11; 190 3; 193 2; 194 3; 195 15; 
196 28; 197 106; 198 38; 199 37; 200 17; 
201 77; 202 71; 203 45; 204 6; 207 2; 
208 1; 209 2; 210 6; 211 29; 212 27; 
213 38; 214 58; 215 541; 216 179; 217 24; 
218 2; 221 7; 222 1; 225 8; 226 16; 
227 5; 228 49; 229 88; 230 37; 231 6; 
235 1; 236 5; 237 2; 239 18; 240 3; 
241 3; 242 1; 243 38; 244 133; 245 24; 
246 2; 253 2; 254 41; 255 12; 256 2; 
257 59; 258 12; 259 1; 270 2; 271 4; 
272 666; 273 131; 274 14; 275 1; 
