Name: .alpha.-Benzyl-N-methyl-.beta.-phenethylamine
Synon: 1,3-Diphenyl-2-Methylaminopropane
InChIKey: HHBBJSPPGKHKHX-UHFFFAOYSA-N
Formula: C16H19N
MW: 225
ExactMass: 225.15175
CASNO: 0
ID: 2395
Comment: DEA SWL / Meth by-product using Hg amalgam
Num Peaks: 55
38 1; 39 17; 40 2; 41 10; 42 92; 
43 3; 44 3; 50 4; 51 16; 52 4; 
53 2; 54 2; 55 1; 56 14; 57 5; 
62 2; 63 11; 64 3; 65 55; 66 3; 
67 1; 74 1; 75 1; 76 2; 77 27; 
78 10; 79 7; 80 1; 89 13; 90 7; 
91 153; 92 20; 93 12; 94 1; 102 3; 
103 15; 104 11; 105 24; 106 3; 115 11; 
116 5; 117 15; 118 33; 119 108; 120 10; 
130 6; 131 2; 132 19; 133 16; 134 999; 
135 99; 136 4; 152 1; 165 1; 178 1; 
