Name: MDAI TMS Derivative
Synon: 5,6-Methylenedioxy-2-aminoindane TMS derivative
InChIKey: ZNCKTLBXEIZJPE-UHFFFAOYSA-N
Formula: C13H19NO2Si
MW: 249
ExactMass: 249.1185055
CASNO: 0
ID: 2410
Comment: ENFSI / Reference obtained in Thailand by Michael Bovens Forensisches Institut Zu%rich
Num Peaks: 139
42 1; 43 56; 44 8; 45 93; 46 7; 
47 6; 50 5; 51 10; 53 6; 55 3; 
57 1; 58 3; 59 34; 60 2; 61 2; 
62 4; 63 10; 64 1; 65 20; 66 2; 
67 2; 69 1; 72 2; 73 458; 74 48; 
75 30; 76 7; 77 39; 78 4; 79 4; 
80 6; 83 1; 84 1; 87 2; 89 21; 
90 3; 91 51; 92 34; 93 8; 94 1; 
95 4; 96 1; 98 1; 100 18; 101 2; 
102 48; 103 35; 104 4; 105 9; 106 1; 
107 3; 108 2; 109 1; 110 1; 115 11; 
116 9; 117 18; 118 24; 119 9; 120 20; 
121 6; 122 1; 128 3; 129 3; 130 43; 
131 17; 132 9; 133 5; 134 4; 135 148; 
136 12; 137 2; 143 1; 144 5; 145 9; 
146 12; 147 28; 148 28; 149 75; 150 999; 
151 105; 152 9; 153 1; 157 1; 158 2; 
159 8; 160 62; 161 25; 162 8; 163 5; 
170 1; 171 1; 172 4; 173 1; 174 47; 
175 20; 176 148; 177 45; 178 12; 179 6; 
186 2; 187 1; 188 8; 189 15; 190 12; 
191 16; 192 7; 193 4; 194 1; 200 2; 
202 18; 203 5; 204 55; 205 12; 206 12; 
207 11; 208 1; 214 1; 216 2; 217 4; 
218 17; 219 20; 220 5; 221 3; 222 3; 
230 1; 231 1; 232 11; 233 5; 234 104; 
235 17; 236 5; 246 5; 247 4; 248 7; 
249 150; 250 36; 251 11; 252 2; 
