Name: Diphenylprolinol
Synon: Diphenyl(pyrrolidin-2-yl)methanol
Synon: D2PM
InChIKey: OGCGXUGBDJGFFY-UHFFFAOYSA-N
Formula: C17H19NO
MW: 253
ExactMass: 253.146665
CASNO: 22348329
ID: 2416
Comment: ENFSI / NFI case sample
Num Peaks: 94
38 1; 39 10; 40 4; 41 33; 42 11; 
43 45; 44 11; 50 7; 51 34; 52 5; 
53 4; 54 1; 55 6; 56 2; 62 1; 
63 4; 64 1; 65 3; 67 1; 68 33; 
69 2; 70 999; 71 50; 74 3; 75 3; 
76 9; 77 133; 78 16; 79 2; 81 1; 
82 2; 83 21; 84 1; 87 1; 88 1; 
89 5; 90 2; 91 9; 101 1; 102 3; 
103 4; 104 6; 105 129; 106 10; 113 1; 
115 8; 116 3; 117 2; 126 2; 127 4; 
128 5; 129 2; 130 7; 131 3; 139 4; 
143 1; 146 1; 150 2; 151 5; 152 16; 
153 8; 154 3; 155 2; 156 2; 158 5; 
163 3; 164 4; 165 27; 166 5; 167 5; 
168 2; 176 6; 177 2; 178 5; 179 3; 
180 1; 181 21; 182 30; 183 15; 184 2; 
189 1; 190 1; 191 1; 192 1; 193 2; 
203 1; 204 2; 206 8; 207 2; 232 1; 
233 1; 234 11; 235 6; 236 1; 
