Name: 3-Methylamphetamine
InChIKey: KCTJOEASAHXBBW-UHFFFAOYSA-N
Formula: C10H15N
MW: 149
ExactMass: 149.120449
CASNO: 77083251
ID: 2419
Comment: ENFSI / NFI inhouse synthesis, JH032010
Num Peaks: 64
38 2; 39 25; 40 4; 41 9; 42 29; 
43 19; 44 999; 45 49; 50 8; 51 24; 
52 10; 53 11; 54 2; 55 1; 56 3; 
57 3; 59 1; 60 1; 62 5; 63 20; 
64 5; 65 30; 66 6; 74 3; 75 2; 
76 4; 77 69; 78 30; 79 37; 80 3; 
86 1; 87 1; 89 12; 90 5; 91 153; 
92 13; 93 2; 101 1; 102 7; 103 37; 
104 20; 105 77; 106 106; 107 11; 115 19; 
116 8; 117 17; 118 8; 119 4; 120 1; 
127 1; 128 4; 129 3; 130 4; 131 4; 
132 8; 133 3; 134 14; 135 4; 146 1; 
147 2; 148 5; 149 1; 150 3; 
