Name: 3,4-Dimethylmethcathinone acetyl derivative
Synon: 3,4-DMMC AC
InChIKey: ASKZKAJBNLYBTE-UHFFFAOYSA-N
Formula: C14H19NO2
MW: 233
ExactMass: 233.141579
CASNO: 0
ID: 2422
Comment: ENFSI / NFI case sample, N-acetyl derivative
Num Peaks: 69
39 12; 40 2; 41 6; 42 32; 43 77; 
44 4; 50 4; 51 15; 52 6; 53 9; 
54 3; 55 8; 56 53; 57 20; 58 999; 
59 34; 62 2; 63 11; 64 3; 65 10; 
66 1; 71 1; 74 1; 75 2; 76 2; 
77 64; 78 21; 79 45; 80 3; 86 1; 
89 6; 90 2; 91 10; 92 1; 99 5; 
100 478; 101 28; 102 7; 103 35; 104 8; 
105 50; 106 5; 115 6; 116 2; 117 3; 
118 1; 119 4; 128 2; 129 1; 131 2; 
132 1; 133 75; 134 7; 144 1; 145 1; 
147 1; 148 2; 158 1; 159 1; 160 1; 
161 1; 162 10; 163 1; 174 2; 175 2; 
176 1; 190 3; 233 7; 234 1; 
