Name: 3,4-Dimethylmethcathinone, N-trifluoracetyl derivative
InChIKey: LVUWQCFAMVUOPY-UHFFFAOYSA-N
Formula: C14H16F3NO2
MW: 287
ExactMass: 287.113314
CASNO: 0
ID: 2423
Comment: ENFSI / Institute for Forensic Sciences, Hungary; derivatized from sample
Num Peaks: 84
40 1; 41 3; 42 49; 43 2; 47 6; 
50 4; 51 13; 52 4; 53 8; 54 3; 
55 7; 56 26; 57 10; 58 5; 62 2; 
63 13; 64 4; 65 13; 66 2; 69 51; 
70 1; 74 2; 75 3; 76 5; 77 113; 
78 41; 79 102; 80 13; 84 4; 86 1; 
87 1; 89 11; 90 4; 91 15; 92 5; 
96 1; 97 4; 98 1; 102 13; 103 104; 
104 36; 105 327; 106 30; 107 2; 110 126; 
111 5; 115 11; 116 4; 117 8; 118 3; 
119 7; 120 1; 127 1; 128 3; 129 2; 
130 2; 131 7; 133 999; 134 247; 135 18; 
136 1; 144 2; 145 3; 146 2; 147 4; 
152 2; 154 264; 155 17; 156 1; 158 3; 
159 12; 160 3; 161 2; 162 3; 172 1; 
173 2; 174 26; 175 5; 202 3; 218 4; 
257 1; 286 1; 287 23; 288 4; 
