Name: Iso-ethcathinone
Synon: 1-ethylamino-1-phenyl-propan-2-one
InChIKey: GHVCNLDRNVGRJP-UHFFFAOYSA-N
Formula: C11H15NO
MW: 177
ExactMass: 177.115364
CASNO: 0
ID: 2428
Comment: ENFSI / Dr Pierce Kavanagh of Trinity College, Dublin synthesised the standards for FSL, Dublin
Num Peaks: 54
41 4; 42 6; 43 38; 44 5; 50 11; 
51 35; 52 11; 53 4; 54 3; 55 1; 
56 38; 57 1; 58 2; 62 5; 63 16; 
64 5; 65 15; 66 1; 67 1; 74 4; 
75 4; 76 9; 77 126; 78 23; 79 239; 
80 17; 87 1; 89 26; 90 15; 91 54; 
92 6; 100 1; 102 2; 103 14; 104 89; 
105 47; 106 85; 107 8; 115 6; 116 2; 
117 18; 118 53; 119 9; 120 1; 130 3; 
131 2; 132 46; 133 21; 134 999; 135 112; 
136 6; 160 1; 162 1; 176 1; 
