Name: N-acetyl-2-methylamphetamine
InChIKey: VHOLTVNEQZQDOC-UHFFFAOYSA-N
Formula: C12H17NO
MW: 191
ExactMass: 191.131014
CASNO: 0
ID: 2432
Comment: ENFSI / NFI inhouse synthesis JH032010
Num Peaks: 67
38 1; 39 22; 40 3; 41 11; 42 33; 
43 144; 44 999; 45 29; 50 7; 51 24; 
52 9; 53 12; 54 2; 56 4; 57 8; 
58 3; 60 12; 62 4; 63 15; 64 4; 
65 29; 66 3; 70 1; 74 2; 75 3; 
76 4; 77 87; 78 36; 79 55; 80 3; 
86 391; 87 20; 88 1; 89 12; 90 4; 
91 68; 92 7; 93 1; 95 1; 101 1; 
102 9; 103 52; 104 34; 105 131; 106 21; 
107 2; 115 41; 116 19; 117 125; 118 20; 
119 3; 127 3; 128 6; 129 6; 130 8; 
131 23; 132 438; 133 55; 134 15; 135 1; 
144 1; 146 1; 147 1; 148 7; 149 1; 
191 14; 192 2; 
