Name: N-acetyl-3-methylamphetamine
InChIKey: VYOSFGHGBFIHLH-UHFFFAOYSA-N
Formula: C12H17NO
MW: 191
ExactMass: 191.131014
CASNO: 0
ID: 2433
Comment: ENFSI / NFI inhouse synthesis JH032010
Num Peaks: 72
38 1; 39 23; 40 4; 41 13; 42 34; 
43 150; 44 999; 45 28; 50 6; 51 23; 
52 9; 53 12; 54 2; 55 1; 56 5; 
57 7; 58 3; 60 15; 62 3; 63 16; 
64 5; 65 26; 66 3; 67 1; 70 2; 
74 2; 75 3; 76 4; 77 84; 78 32; 
79 52; 80 3; 85 2; 86 305; 87 15; 
88 1; 89 12; 90 5; 91 74; 92 8; 
93 2; 95 1; 101 1; 102 8; 103 48; 
104 24; 105 123; 106 22; 107 2; 115 35; 
116 16; 117 139; 118 22; 119 4; 121 1; 
127 2; 128 6; 129 7; 130 7; 131 25; 
132 559; 133 71; 134 19; 135 2; 144 1; 
146 1; 147 3; 148 10; 149 1; 174 1; 
191 10; 192 2; 
