Name: 2-(Diphenylmethyl)pyrrolidine
InChIKey: OXOBKZZXZVFOBB-UHFFFAOYSA-N
Formula: C17H19N
MW: 237
ExactMass: 237.15175
CASNO: 119237648
ID: 2439
Comment: ENFSI / FSS Huntingdon, UK
Num Peaks: 94
39 7; 40 1; 41 17; 42 4; 43 31; 
44 2; 50 2; 51 8; 52 2; 53 2; 
62 1; 63 7; 64 1; 65 6; 67 1; 
68 33; 70 999; 71 51; 72 1; 74 1; 
75 3; 76 5; 77 13; 78 4; 79 1; 
83 2; 86 1; 87 2; 88 2; 89 12; 
90 3; 91 19; 92 1; 101 1; 102 7; 
103 5; 104 3; 105 1; 113 2; 114 1; 
115 28; 116 5; 117 5; 118 1; 126 3; 
127 5; 128 12; 129 4; 130 9; 131 1; 
132 1; 138 1; 139 12; 140 2; 141 4; 
143 1; 144 1; 150 2; 151 8; 152 53; 
153 8; 154 1; 156 1; 158 2; 159 1; 
162 1; 163 10; 164 15; 165 143; 166 52; 
167 77; 168 12; 169 1; 176 3; 177 2; 
178 18; 179 9; 180 2; 189 2; 190 1; 
191 2; 192 1; 193 2; 194 1; 202 1; 
203 1; 204 1; 206 4; 207 1; 208 2; 
209 1; 234 2; 235 5; 236 3; 
