Name: CP 80633
Synon: 5-(3-[(1S,2S,4R)-Bicyclo[2.2.1]hept-2-yloxy]-4-methoxylphenyl]tetrahydro-2(1H)-pyrimidinone
InChIKey: LITNEAPWQHVPOK-FFSVYQOJSA-N
Formula: C18H24N2O3
MW: 316
ExactMass: 316.178692
CASNO: 135637466
ID: 2440
Comment: ENFSI / IES Krakow, Poland
Num Peaks: 127
30 41; 31 1; 38 1; 39 28; 40 5; 
41 67; 42 5; 43 3; 50 2; 51 12; 
52 11; 53 25; 54 5; 55 37; 56 10; 
58 1; 61 2; 62 1; 63 7; 64 2; 
65 40; 66 23; 67 156; 68 10; 74 4; 
75 1; 76 4; 77 69; 78 35; 79 29; 
80 9; 81 2; 85 15; 86 2; 87 1; 
89 14; 90 9; 91 57; 92 10; 93 34; 
94 9; 95 198; 96 14; 97 1; 98 1; 
99 2; 100 5; 101 1; 102 4; 103 26; 
104 11; 105 8; 106 9; 107 21; 108 3; 
109 2; 110 1; 115 4; 116 6; 117 7; 
118 17; 119 7; 120 29; 121 15; 122 7; 
123 4; 124 5; 128 2; 129 1; 130 2; 
131 5; 132 50; 133 20; 134 8; 135 77; 
136 14; 137 55; 138 7; 144 7; 145 3; 
146 8; 147 12; 148 33; 149 20; 150 600; 
151 61; 152 6; 159 2; 160 8; 161 11; 
162 11; 163 9; 164 9; 165 10; 166 2; 
173 1; 174 5; 175 24; 176 17; 177 8; 
178 9; 179 5; 187 1; 189 2; 190 2; 
191 3; 192 30; 193 38; 194 4; 203 1; 
204 45; 205 11; 206 2; 207 1; 219 1; 
220 1; 221 124; 222 999; 223 135; 224 15; 
225 1; 229 1; 248 1; 249 1; 316 36; 
317 7; 318 1; 
