Name: Benzedrone
Synon: 4-MBC
Synon: 4-methyl-N-benzylcathinone
Synon: 1-(4-methylphenyl)-2-benzylaminopropan-1-one
InChIKey: KWHZRPBDEAQYDE-UHFFFAOYSA-N
Formula: C17H19NO
MW: 253
ExactMass: 253.146665
CASNO: 0
ID: 2444
Comment: ENFSI / FSS Huntingdon
Num Peaks: 61
38 1; 39 13; 40 1; 41 5; 42 4; 
43 1; 44 1; 50 3; 51 9; 52 3; 
53 1; 54 1; 55 2; 56 2; 57 1; 
62 3; 63 14; 64 5; 65 93; 66 5; 
74 1; 75 1; 76 1; 77 11; 78 3; 
79 4; 89 28; 91 999; 92 87; 93 3; 
102 1; 103 4; 104 6; 105 12; 106 7; 
107 1; 115 4; 116 1; 117 6; 118 7; 
119 85; 120 8; 128 1; 130 3; 131 2; 
132 37; 134 990; 135 101; 136 4; 140 1; 
146 1; 147 1; 148 1; 165 4; 166 1; 
181 2; 236 1; 238 1; 249 2; 251 1; 
252 1; 
