Name: Pentylone acetyl derivative
Synon: bk-MBDP acetyl derivative
Synon: Pentylone AC
InChIKey: YEFDSHSTMSDFFO-UHFFFAOYSA-N
Formula: C15H19NO4
MW: 277
ExactMass: 277.131409
CASNO: 0
ID: 2446
Comment: ENFSI
Num Peaks: 94
38 1; 39 14; 40 2; 41 11; 42 57; 
43 98; 44 109; 45 3; 50 2; 51 6; 
52 1; 53 8; 54 3; 55 19; 56 26; 
57 34; 58 19; 61 1; 62 11; 63 45; 
64 6; 65 74; 66 4; 67 1; 68 4; 
69 1; 70 16; 71 2; 72 1; 74 2; 
75 1; 76 1; 77 4; 78 1; 79 2; 
82 1; 83 1; 84 13; 85 3; 86 999; 
87 60; 88 2; 89 3; 90 1; 91 24; 
92 4; 93 1; 98 4; 99 1; 102 1; 
103 1; 105 1; 112 3; 115 2; 117 2; 
118 1; 119 6; 120 4; 121 66; 122 6; 
123 1; 127 11; 128 525; 129 41; 130 3; 
131 1; 134 1; 135 8; 136 1; 145 1; 
146 1; 147 3; 148 2; 149 95; 150 9; 
151 1; 162 3; 164 2; 174 1; 175 2; 
176 2; 177 2; 189 1; 190 1; 191 1; 
192 4; 193 1; 204 1; 206 3; 234 2; 
235 1; 248 2; 277 12; 278 1; 
