Name: 1-(3-methylbenzyl)piperazine
InChIKey: VTEOTZPEMDQENX-UHFFFAOYSA-N
Formula: C12H18N2
MW: 190
ExactMass: 190.146998
CASNO: 5321482
ID: 2448
Comment: ENFSI / IES Krakow, Poland
Num Peaks: 89
40 3; 41 13; 42 49; 43 14; 44 14; 
45 2; 49 5; 51 17; 53 9; 54 10; 
55 14; 56 160; 57 28; 58 30; 59 1; 
62 2; 63 10; 64 3; 65 16; 66 4; 
67 1; 68 3; 69 4; 70 7; 71 12; 
73 1; 74 2; 76 4; 77 94; 78 27; 
79 67; 80 5; 81 2; 82 2; 83 16; 
84 4; 85 113; 86 8; 89 8; 90 2; 
91 23; 92 2; 93 1; 95 1; 97 3; 
99 15; 100 1; 102 7; 103 60; 104 13; 
105 999; 106 98; 107 5; 115 4; 116 13; 
118 55; 119 15; 120 9; 128 1; 130 9; 
131 9; 132 50; 133 21; 134 80; 135 12; 
144 5; 145 16; 146 39; 147 28; 148 634; 
149 86; 150 5; 157 2; 159 5; 160 47; 
161 29; 162 4; 172 2; 173 6; 174 1; 
175 10; 176 2; 177 3; 187 2; 188 5; 
189 29; 190 262; 191 38; 192 2; 
