Name: Diphenylprolinol, diacetyl
Synon: D2PM 2AC
InChIKey: UMJSBSHHGUPUKD-UHFFFAOYSA-N
Formula: C21H23NO3
MW: 337
ExactMass: 337.167793
CASNO: 0
ID: 2452
Comment: ENFSI
Num Peaks: 132
38 1; 39 13; 40 5; 41 31; 42 18; 
43 192; 44 19; 45 1; 50 8; 51 53; 
52 8; 53 6; 54 2; 55 8; 56 4; 
57 1; 58 1; 59 2; 60 1; 62 2; 
63 4; 64 2; 65 3; 67 4; 68 46; 
69 26; 70 952; 71 75; 72 10; 73 2; 
74 1; 75 4; 76 13; 77 206; 78 24; 
79 2; 82 2; 83 3; 85 96; 86 6; 
87 1; 88 1; 89 5; 90 2; 91 12; 
92 1; 95 1; 96 2; 97 1; 98 6; 
99 2; 100 1; 101 2; 102 3; 103 3; 
104 7; 105 238; 106 21; 107 1; 109 1; 
111 8; 112 326; 113 999; 114 69; 115 15; 
116 4; 117 3; 118 1; 125 1; 126 4; 
127 6; 128 8; 129 3; 130 12; 131 6; 
132 1; 133 2; 138 1; 139 4; 140 1; 
141 1; 143 1; 146 1; 150 3; 151 7; 
152 31; 153 14; 154 6; 155 2; 156 2; 
158 6; 159 2; 163 4; 164 6; 165 33; 
166 9; 167 4; 168 3; 175 1; 176 4; 
177 2; 178 7; 179 4; 180 2; 181 32; 
182 34; 183 45; 184 6; 188 1; 189 1; 
190 2; 191 3; 192 1; 193 2; 200 1; 
202 3; 203 1; 204 4; 205 2; 206 5; 
207 4; 208 3; 217 1; 218 2; 219 1; 
220 1; 230 1; 234 5; 235 20; 236 4; 
277 3; 278 1; 
