Name: cis-Cinnamoylcocaine
Synon: Methyl 8-methyl-3-([(2Z)-3-phenyl-2-propenoyl]oxy)-8-azabicyclo[3.2.1]octane-2-carboxylate
InChIKey: MQIXMJWNEKUAOZ-FLIBITNWSA-N
Formula: C19H23NO4
MW: 329
ExactMass: 329.162708
CASNO: 521675
ID: 2454
Comment: DEA SWL
Num Peaks: 146
37 1; 38 3; 39 28; 40 5; 41 52; 
42 208; 43 13; 44 36; 45 7; 50 14; 
51 58; 52 13; 53 35; 54 22; 55 71; 
56 33; 57 47; 58 11; 59 53; 60 2; 
61 1; 62 2; 63 11; 64 2; 65 26; 
66 12; 67 47; 68 50; 69 17; 70 25; 
71 6; 72 2; 73 1; 74 6; 75 9; 
76 18; 77 216; 78 25; 79 30; 80 31; 
81 99; 82 999; 83 464; 84 54; 85 5; 
86 1; 87 2; 89 3; 90 2; 91 59; 
92 11; 93 39; 94 391; 95 51; 96 542; 
97 125; 98 13; 99 3; 100 5; 101 7; 
102 60; 103 279; 104 29; 105 5; 106 6; 
107 14; 108 52; 109 11; 110 22; 111 4; 
112 2; 113 3; 114 4; 115 5; 116 1; 
117 6; 118 7; 119 37; 120 23; 121 7; 
122 79; 123 14; 124 10; 125 4; 126 27; 
127 3; 128 3; 129 3; 130 2; 131 220; 
132 25; 133 4; 134 3; 135 7; 136 3; 
137 1; 138 7; 139 1; 140 13; 141 2; 
142 3; 143 1; 147 20; 148 16; 149 2; 
150 17; 151 3; 152 33; 153 7; 154 33; 
155 17; 156 3; 157 1; 164 3; 166 25; 
167 3; 168 66; 169 7; 170 4; 171 1; 
179 1; 180 15; 181 21; 182 524; 183 57; 
184 9; 185 1; 194 24; 195 3; 198 53; 
199 5; 212 1; 226 9; 227 1; 238 66; 
239 8; 240 1; 252 1; 270 8; 271 1; 
298 22; 299 5; 300 1; 329 70; 330 15; 
331 2; 
