Name: 3,5-Difluoromethcathinone
InChIKey: RRHMVNNNKJWOAZ-UHFFFAOYSA-N
Formula: C10H11F2NO
MW: 199
ExactMass: 199.080871
CASNO: 0
ID: 2457
Comment: QHFSS Lab
Num Peaks: 78
40 2; 41 15; 42 59; 43 35; 44 4; 
50 8; 51 2; 52 1; 53 2; 54 6; 
55 8; 56 89; 57 29; 58 999; 59 35; 
61 4; 62 14; 63 92; 64 5; 68 10; 
69 6; 70 1; 71 1; 73 1; 74 11; 
75 9; 76 1; 77 1; 80 1; 81 8; 
82 1; 86 1; 87 4; 88 3; 92 4; 
93 16; 94 9; 95 4; 99 2; 101 6; 
105 1; 107 2; 111 1; 112 10; 113 194; 
114 20; 115 3; 119 3; 120 1; 121 1; 
123 1; 125 4; 126 2; 127 11; 128 1; 
133 1; 138 2; 139 4; 140 4; 141 75; 
142 8; 151 5; 152 1; 153 3; 154 2; 
155 1; 156 5; 166 2; 167 1; 168 5; 
169 7; 170 4; 182 2; 183 4; 184 15; 
185 1; 196 1; 198 3; 
