Name: Atorvastatin
Synon: Lipitor
InChIKey: XUKUURHRXDUEBC-KAYWLYCHSA-N
Formula: C33H35FN2O5
MW: 558
ExactMass: 558.253002
CASNO: 134523005
ID: 2460
Comment: DEA SFL1
Num Peaks: 224
38 2; 39 21; 40 2; 41 12; 42 1; 
43 19; 44 1; 50 2; 51 11; 52 5; 
53 1; 54 5; 55 2; 62 1; 63 9; 
64 6; 65 107; 66 24; 67 2; 68 1; 
70 1; 73 1; 74 2; 75 7; 76 3; 
77 36; 78 5; 79 1; 83 1; 87 2; 
88 2; 89 7; 90 2; 91 15; 92 51; 
93 53; 94 14; 95 24; 96 4; 97 1; 
99 1; 100 1; 101 3; 102 15; 103 6; 
104 5; 105 3; 106 2; 107 4; 108 3; 
109 8; 110 2; 113 4; 114 7; 115 48; 
116 8; 117 4; 118 4; 119 5; 120 8; 
121 9; 122 53; 123 9; 124 3; 125 1; 
126 5; 127 9; 128 9; 129 7; 130 4; 
131 4; 132 3; 133 11; 134 4; 135 3; 
136 3; 137 2; 138 2; 139 17; 140 7; 
141 39; 142 8; 143 2; 144 3; 146 4; 
147 2; 150 1; 151 3; 152 8; 153 5; 
154 4; 155 4; 156 1; 157 4; 158 3; 
159 3; 160 2; 161 3; 162 1; 163 2; 
164 2; 165 4; 166 7; 167 8; 168 5; 
169 4; 170 5; 171 1; 174 2; 175 2; 
176 2; 177 3; 178 2; 180 3; 181 7; 
182 4; 183 21; 184 6; 185 5; 186 2; 
187 4; 188 1; 189 9; 190 2; 191 2; 
192 2; 193 5; 194 4; 195 2; 196 12; 
197 3; 198 3; 199 13; 200 3; 201 2; 
202 4; 203 1; 205 4; 206 3; 207 40; 
208 16; 209 33; 210 6; 211 3; 213 3; 
214 2; 215 10; 216 6; 217 5; 218 3; 
219 5; 220 27; 221 10; 222 6; 223 2; 
226 1; 227 2; 228 3; 230 1; 231 4; 
232 4; 233 30; 234 17; 235 57; 236 22; 
237 12; 238 8; 239 2; 240 3; 241 9; 
242 5; 243 5; 244 11; 245 6; 246 16; 
247 9; 248 52; 249 11; 250 4; 251 2; 
257 2; 258 5; 259 18; 260 25; 261 44; 
262 118; 263 79; 264 104; 265 17; 266 2; 
267 1; 270 1; 271 1; 272 4; 273 2; 
274 4; 275 4; 276 18; 277 26; 278 16; 
279 4; 281 2; 282 1; 286 1; 287 2; 
288 11; 289 8; 290 44; 291 15; 292 2; 
303 2; 304 22; 305 134; 306 999; 307 218; 
308 25; 309 3; 355 23; 356 4; 383 2; 
397 5; 398 201; 399 58; 400 8; 
