Name: o-Hydroxytropacocaine
InChIKey: LOUPXMATWIQUJK-UHFFFAOYSA-N
Formula: C15H19NO3
MW: 261
ExactMass: 261.136494
CASNO: 0
ID: 2461
Comment: DEA SFL1
Num Peaks: 66
38 9; 39 51; 40 5; 41 35; 42 109; 
44 19; 45 1; 50 4; 51 7; 52 5; 
53 21; 54 11; 55 31; 56 17; 57 15; 
58 8; 62 3; 63 20; 64 18; 65 81; 
66 9; 67 137; 68 29; 69 4; 70 12; 
75 4; 76 3; 77 8; 79 1; 80 10; 
81 51; 82 239; 83 137; 84 11; 91 7; 
92 33; 93 39; 94 168; 95 91; 96 56; 
97 5; 98 2; 105 3; 107 1; 108 9; 
109 5; 110 1; 112 8; 113 4; 120 16; 
121 68; 122 18; 123 30; 124 999; 125 84; 
126 9; 130 3; 133 3; 138 1; 139 4; 
140 61; 141 11; 147 2; 223 3; 261 157; 
262 29; 
