Name: 3', 4', 5'-Trimethoxycinnamoylcocaine
InChIKey: GZFLUYGBHUUOIN-TWGQIWQCSA-N
Formula: C22H29NO7
MW: 419
ExactMass: 419.194403
CASNO: 0
ID: 2463
Comment: DEA SFL1
Num Peaks: 146
38 4; 39 22; 40 3; 41 27; 42 124; 
43 13; 44 21; 45 7; 50 7; 51 15; 
52 7; 53 28; 54 12; 55 51; 56 21; 
57 39; 58 10; 59 36; 62 4; 63 10; 
64 11; 65 25; 66 15; 67 39; 68 42; 
69 14; 70 22; 71 8; 75 6; 76 14; 
77 43; 78 15; 79 34; 80 29; 81 81; 
82 999; 83 400; 84 68; 89 11; 90 6; 
91 57; 92 25; 93 33; 94 312; 95 44; 
96 558; 97 111; 98 11; 99 5; 101 4; 
102 17; 103 19; 104 11; 105 19; 106 11; 
107 20; 108 44; 109 13; 110 15; 111 4; 
115 7; 117 13; 118 24; 119 38; 120 44; 
121 18; 122 73; 123 14; 124 9; 125 5; 
126 15; 130 6; 131 11; 132 15; 133 21; 
134 18; 135 36; 136 8; 137 10; 138 10; 
139 5; 140 11; 145 6; 146 5; 147 27; 
148 22; 149 17; 150 19; 151 7; 152 54; 
153 12; 154 33; 155 20; 156 4; 159 5; 
160 7; 161 20; 162 31; 163 52; 164 8; 
165 5; 166 18; 167 6; 168 54; 169 7; 
173 5; 175 10; 176 7; 177 11; 178 22; 
179 13; 180 23; 181 44; 182 541; 183 68; 
184 7; 190 26; 191 7; 192 8; 193 19; 
194 35; 195 9; 198 53; 199 8; 205 5; 
206 7; 208 1; 209 3; 221 104; 222 20; 
223 22; 238 169; 239 24; 249 4; 265 1; 
267 1; 281 3; 360 6; 388 15; 390 4; 
404 28; 405 5; 418 9; 419 81; 420 19; 
421 5; 
