Name: BTCP
Synon: Benocyclidine
Synon: BCP
Synon: 2-[1-[1-piperidyl]cyclohexyl]-thionaphthene
Synon: Benzothiophenylcyclohexylpiperidine
InChIKey: RGSVXQJPSWZXOP-UHFFFAOYSA-N
Formula: C19H25NS
MW: 299
ExactMass: 299.17077
CASNO: 112726666
ID: 2472
Comment: DEA SWL
Num Peaks: 178
38 3; 39 37; 40 7; 41 85; 42 45; 
43 18; 44 25; 45 42; 47 2; 50 7; 
51 18; 52 7; 53 38; 54 25; 55 96; 
56 52; 57 25; 58 3; 59 3; 62 4; 
63 17; 64 2; 65 12; 66 5; 67 58; 
68 14; 69 33; 70 13; 71 6; 73 3; 
74 6; 75 9; 76 6; 77 41; 78 8; 
79 65; 80 28; 81 185; 82 35; 83 23; 
84 169; 85 43; 86 26; 87 7; 88 5; 
89 43; 90 10; 91 26; 92 13; 93 12; 
94 7; 95 5; 96 7; 97 4; 98 11; 
99 8; 100 5; 101 7; 102 20; 103 20; 
104 4; 105 4; 106 7; 107 10; 108 12; 
109 8; 110 8; 111 4; 113 9; 114 26; 
115 185; 116 35; 117 7; 119 2; 120 3; 
121 18; 122 8; 123 8; 124 22; 125 5; 
126 12; 127 30; 128 72; 129 61; 130 7; 
132 5; 133 12; 134 134; 135 73; 136 17; 
137 7; 138 4; 139 23; 140 7; 141 23; 
142 5; 143 2; 145 17; 146 20; 147 999; 
148 127; 149 71; 150 19; 151 10; 152 34; 
153 16; 154 9; 155 3; 157 2; 158 55; 
159 90; 160 147; 161 49; 162 12; 163 5; 
164 10; 165 58; 166 63; 167 15; 168 2; 
169 4; 170 6; 171 106; 172 45; 173 239; 
174 50; 175 27; 176 8; 178 11; 179 5; 
180 5; 181 6; 182 4; 183 5; 184 80; 
185 191; 186 151; 187 52; 188 19; 189 3; 
190 2; 195 2; 197 13; 198 9; 199 58; 
200 25; 201 11; 202 6; 207 5; 208 5; 
209 3; 210 9; 211 6; 212 5; 213 37; 
214 378; 215 532; 216 158; 217 41; 218 15; 
227 2; 228 11; 229 3; 230 6; 242 68; 
243 64; 244 12; 245 3; 256 326; 257 62; 
258 19; 259 2; 270 11; 298 34; 299 278; 
300 61; 301 18; 302 3; 
