Name: Eutylone
Synon: bk-EBDB
Synon: 1-(1,3-benzodioxol-5-yl)-2-(ethylamino)-1-butanone
Synon: .beta.-keto-ethylbenzodioxolylbutanamine
InChIKey: YERSNXHEOIYEGX-UHFFFAOYSA-N
Formula: C13H17NO3
MW: 235
ExactMass: 235.120843
CASNO: 17764180
ID: 2495
Comment: DEA SWL
Num Peaks: 74
37 1; 38 2; 39 16; 40 3; 41 71; 
42 14; 43 12; 44 19; 50 4; 51 8; 
52 2; 53 8; 54 5; 55 6; 56 57; 
57 4; 58 101; 59 3; 61 2; 62 13; 
63 42; 64 6; 65 59; 66 4; 67 1; 
68 2; 69 2; 70 15; 71 4; 74 3; 
75 1; 76 1; 77 6; 78 1; 79 2; 
84 36; 85 7; 86 999; 87 56; 88 1; 
89 2; 90 1; 91 19; 92 4; 93 2; 
103 2; 104 1; 105 2; 115 1; 118 1; 
119 5; 120 4; 121 46; 122 5; 131 1; 
132 1; 133 1; 135 8; 147 2; 148 3; 
149 80; 150 7; 160 1; 161 1; 162 1; 
164 2; 175 1; 176 5; 177 3; 178 2; 
190 1; 192 4; 202 1; 206 5; 
