Name: 1-(4-Methoxyphenyl)piperazine
Synon: 4-MeOPP
Synon: p-Methoxyphenylpiperazine
Synon: 4-MPP
Synon: pMPP
Synon: Paraperazine
InChIKey: MRDGZSKYFPGAKP-UHFFFAOYSA-N
Formula: C11H16N2O
MW: 192
ExactMass: 192.126264
CASNO: 38212305
ID: 2502
Comment: DEA SWL
Num Peaks: 82
40 5; 41 11; 42 30; 43 6; 44 7; 
50 10; 51 16; 52 11; 53 7; 54 8; 
56 98; 57 32; 58 2; 61 1; 62 5; 
63 27; 64 28; 65 47; 66 14; 67 6; 
68 3; 69 1; 74 4; 75 4; 76 10; 
77 54; 78 20; 79 8; 80 6; 81 2; 
82 1; 83 3; 84 1; 85 1; 89 3; 
90 7; 91 16; 92 61; 93 15; 94 5; 
95 1; 96 6; 102 1; 103 5; 104 8; 
105 5; 106 8; 107 18; 108 11; 109 4; 
117 4; 118 8; 120 236; 121 52; 122 13; 
123 1; 130 4; 131 3; 132 5; 133 7; 
134 39; 135 184; 136 64; 137 10; 138 1; 
145 2; 146 3; 147 4; 148 7; 150 999; 
151 93; 152 4; 160 2; 162 6; 163 1; 
175 2; 177 7; 189 1; 190 3; 192 314; 
193 41; 194 3; 
