Name: RCS-4-C4 homolog
Synon: BTM-4
Synon: E-4
Synon: OBT-199
Synon: (1-butyl-1H-indol-3-yl)(4-methoxyphenyl)methanone
InChIKey: INTUAOVLJFCJIP-UHFFFAOYSA-N
Formula: C20H21NO2
MW: 307
ExactMass: 307.157228
CASNO: 0
ID: 2519
Comment: ENFSI / IES Krakow, Poland
Num Peaks: 181
39 28; 40 10; 41 57; 43 8; 44 8; 
47 3; 49 6; 50 12; 51 24; 52 1; 
53 3; 54 4; 55 16; 56 7; 57 14; 
58 36; 62 4; 63 35; 64 7; 65 1; 
66 6; 68 14; 69 2; 71 6; 74 13; 
75 51; 76 8; 77 63; 78 36; 79 11; 
81 19; 83 12; 85 9; 87 26; 88 26; 
89 3; 92 72; 93 11; 96 28; 99 2; 
101 50; 103 11; 104 3; 105 4; 107 36; 
108 12; 109 1; 111 3; 114 5; 115 39; 
116 35; 117 47; 118 52; 119 18; 121 14; 
122 12; 123 29; 125 5; 126 9; 127 2; 
128 49; 129 49; 131 20; 132 2; 133 25; 
135 381; 136 19; 137 8; 138 13; 139 11; 
140 2; 142 9; 143 6; 144 158; 145 20; 
146 4; 149 9; 150 6; 152 53; 153 2; 
155 14; 157 24; 158 13; 160 12; 162 25; 
164 6; 165 19; 166 6; 167 7; 168 5; 
169 1; 171 7; 172 30; 173 1; 174 13; 
176 17; 178 24; 179 42; 180 9; 182 3; 
183 11; 188 4; 189 1; 190 28; 191 43; 
192 7; 194 7; 196 20; 197 18; 198 4; 
200 443; 201 48; 202 13; 203 4; 204 14; 
205 6; 207 135; 208 24; 211 15; 214 14; 
216 8; 217 11; 219 8; 220 7; 221 40; 
222 7; 223 7; 225 14; 228 3; 231 7; 
232 9; 233 22; 234 11; 236 14; 237 11; 
238 7; 241 2; 243 6; 245 5; 247 9; 
248 14; 249 19; 250 27; 251 21; 254 10; 
255 26; 257 3; 259 8; 261 4; 262 14; 
264 615; 265 171; 266 56; 267 84; 268 7; 
271 3; 272 2; 273 6; 275 4; 276 21; 
278 4; 281 57; 282 33; 283 27; 285 12; 
286 6; 288 5; 289 16; 290 26; 291 24; 
292 10; 293 2; 295 13; 296 2; 299 6; 
302 7; 305 7; 306 84; 307 999; 308 235; 
309 43; 
