Name: CP 47,497-para-quinone analog
Synon: 3'R-hydroxy-4-(2-methyloctan-2-yl)-[1,1'S-bi(cyclohexane)]-3,6-diene-2,5-dione
InChIKey: HJSQDMFICBAVFK-JKSUJKDBSA-N
Formula: C21H32O3
MW: 332
ExactMass: 332.235146
CASNO: 0
ID: 2582
Comment: Provided by www.caymanchem.com/app/template/landing%2CForensic.vm / Item #10889  Lot #0430308
Num Peaks: 214
40 58; 41 864; 43 999; 44 84; 45 12; 
51 59; 52 69; 53 215; 54 40; 55 595; 
56 76; 57 238; 58 14; 59 12; 63 24; 
65 136; 66 74; 67 388; 68 45; 69 450; 
70 46; 71 57; 75 15; 77 325; 78 88; 
79 482; 80 74; 81 564; 82 108; 83 129; 
84 11; 85 31; 88 13; 89 21; 91 462; 
92 71; 93 192; 94 57; 95 180; 96 42; 
97 134; 98 16; 101 15; 102 23; 103 117; 
104 40; 105 261; 106 55; 107 230; 108 76; 
109 132; 110 40; 111 77; 112 18; 115 216; 
116 78; 117 164; 118 45; 119 160; 120 59; 
121 166; 122 72; 123 299; 124 70; 125 48; 
126 17; 127 80; 128 161; 129 115; 130 59; 
131 199; 132 59; 133 172; 134 69; 135 191; 
136 208; 137 318; 138 470; 139 221; 140 31; 
141 74; 142 42; 143 67; 144 57; 145 201; 
146 76; 147 282; 148 82; 149 306; 150 393; 
151 176; 152 927; 153 350; 154 57; 155 42; 
156 22; 157 66; 158 61; 159 184; 160 139; 
161 352; 162 133; 163 529; 164 217; 165 98; 
166 132; 167 58; 168 19; 169 40; 170 23; 
171 65; 172 39; 173 203; 174 191; 175 318; 
176 193; 177 436; 178 130; 179 168; 180 105; 
181 49; 183 45; 184 19; 185 75; 186 42; 
187 351; 188 156; 189 259; 190 157; 191 161; 
192 74; 193 30; 194 104; 195 51; 196 13; 
197 35; 198 15; 199 76; 200 43; 201 347; 
202 367; 203 600; 204 200; 205 142; 206 125; 
207 32; 208 15; 211 22; 212 12; 213 47; 
214 27; 215 267; 216 670; 217 628; 218 120; 
219 148; 220 98; 221 104; 222 35; 223 13; 
225 14; 227 34; 229 226; 230 211; 231 218; 
232 73; 233 147; 234 445; 235 171; 236 33; 
241 25; 243 312; 244 133; 245 95; 246 26; 
247 164; 248 78; 249 74; 250 23; 253 16; 
254 12; 257 283; 258 211; 259 97; 260 83; 
261 69; 262 44; 263 48; 267 15; 269 13; 
271 240; 272 88; 273 25; 274 14; 275 27; 
276 87; 277 21; 278 12; 285 38; 286 31; 
287 19; 289 56; 290 11; 297 35; 299 121; 
300 30; 304 14; 314 503; 315 136; 316 38; 
317 39; 332 184; 333 43; 334 20; 
