Name: AM630
Synon: Iodopravadoline
Synon: [6-iodo-2-methyl-1-[2-(4-morpholinyl)ethyl]-1H-indol-3-yl](4-methoxyphenyl)-methanone
InChIKey: JHOTYHDSLIUKCJ-UHFFFAOYSA-N
Formula: C23H25IN2O3
MW: 504
ExactMass: 504.09099
CASNO: 164178330
ID: 2584
Comment: Provided by www.caymanchem.com/app/template/landing%2CForensic.vm / Item #10006974  Lot #0419734
Num Peaks: 100
41 3; 42 7; 43 1; 44 3; 45 1; 
54 2; 55 4; 56 35; 57 1; 63 1; 
64 3; 70 17; 71 1; 72 6; 73 3; 
75 3; 76 2; 77 27; 78 2; 89 2; 
92 12; 98 14; 100 999; 101 67; 102 6; 
103 1; 104 1; 107 13; 112 1; 113 2; 
114 3; 115 10; 116 1; 119 1; 121 3; 
127 4; 128 10; 133 3; 135 148; 136 8; 
140 1; 141 3; 142 1; 150 2; 151 2; 
152 1; 154 3; 155 1; 156 1; 163 2; 
165 3; 176 1; 177 2; 178 2; 179 1; 
190 1; 191 5; 192 3; 193 1; 195 1; 
197 2; 203 1; 204 2; 205 4; 207 2; 
209 1; 216 1; 217 2; 218 1; 219 1; 
220 2; 221 1; 232 2; 233 1; 234 2; 
248 1; 249 2; 253 2; 254 1; 255 2; 
262 1; 267 2; 269 1; 276 1; 281 1; 
282 3; 283 2; 290 1; 291 1; 292 1; 
325 1; 327 2; 331 1; 341 1; 377 1; 
404 4; 405 1; 474 1; 504 6; 505 1; 
