Name: AM2201 N-(4-fluoropentyl) isomer
Synon: (1-(4-fluoropentyl)-1H-indol-3-yl)(naphthalen-1-yl)methanone
InChIKey: NFOQHRRYZIBSNW-UHFFFAOYSA-N
Formula: C24H22FNO
MW: 359
ExactMass: 359.168543
CASNO: 0
ID: 2585
Comment: Provided by www.caymanchem.com/app/template/landing%2CForensic.vm / Item #9001029  Lot #0433439
Num Peaks: 148
40 11; 41 172; 42 14; 43 36; 47 97; 
50 12; 51 29; 52 8; 53 10; 55 17; 
59 13; 61 10; 62 11; 63 20; 65 8; 
67 11; 69 66; 73 7; 74 18; 75 38; 
76 30; 77 102; 78 13; 87 18; 88 21; 
89 72; 90 10; 95 12; 100 11; 101 86; 
102 89; 103 26; 104 9; 107 20; 113 36; 
114 37; 115 89; 116 151; 117 29; 120 13; 
121 23; 125 12; 126 137; 127 816; 128 240; 
129 82; 130 48; 132 10; 133 11; 134 12; 
135 19; 136 8; 138 10; 139 26; 140 9; 
142 254; 143 34; 144 363; 145 31; 146 8; 
150 9; 151 12; 152 13; 153 8; 154 31; 
155 369; 156 75; 157 7; 158 8; 163 12; 
165 9; 167 189; 168 28; 170 38; 176 11; 
184 33; 185 8; 187 15; 188 12; 189 16; 
200 8; 201 8; 202 8; 204 9; 208 10; 
209 8; 211 15; 212 82; 213 94; 214 47; 
215 53; 216 15; 224 14; 225 12; 226 46; 
227 27; 228 25; 229 12; 232 686; 233 115; 
234 9; 238 14; 239 21; 240 81; 241 162; 
242 71; 243 27; 251 9; 252 18; 253 56; 
254 173; 255 96; 256 116; 257 26; 265 14; 
266 39; 267 67; 268 43; 269 92; 270 294; 
271 61; 272 14; 280 34; 281 7; 282 80; 
284 999; 285 246; 286 32; 294 8; 296 49; 
297 11; 298 13; 308 11; 310 12; 322 32; 
323 10; 324 12; 330 11; 331 13; 338 43; 
339 230; 340 81; 342 479; 343 126; 358 445; 
359 967; 360 246; 361 41; 
