Name: 5-epi CP 55,940
Synon: rel-2-((1R,2R,5S)-5-hydroxy-2-(3-hydroxypropyl)cyclohexyl)-5-(2-methyloctan-2-yl)phenol
InChIKey: YNZFFALZMRAPHQ-KAGYGMCKSA-N
Formula: C24H40O3
MW: 376
ExactMass: 376.297745
CASNO: 0
ID: 2587
Comment: Provided by www.caymanchem.com/app/template/landing%2CForensic.vm / Item #13803  Lot #0421063
Num Peaks: 198
40 19; 41 212; 42 29; 43 363; 44 19; 
45 14; 53 26; 55 182; 56 23; 57 188; 
58 11; 65 22; 67 115; 68 24; 69 106; 
70 17; 71 179; 72 13; 73 11; 75 6; 
77 69; 78 17; 79 139; 80 15; 81 62; 
83 50; 84 18; 85 111; 86 12; 87 9; 
89 7; 91 152; 93 186; 94 31; 95 138; 
96 13; 97 68; 98 12; 99 9; 100 17; 
102 7; 103 35; 104 15; 105 91; 106 24; 
107 187; 108 34; 109 25; 111 13; 113 11; 
115 59; 116 24; 117 60; 118 18; 119 72; 
121 682; 122 79; 123 13; 125 29; 127 50; 
128 71; 129 69; 130 12; 131 75; 132 34; 
133 259; 134 51; 135 346; 136 55; 137 33; 
138 14; 139 176; 140 20; 141 24; 142 19; 
143 25; 144 30; 145 123; 147 999; 148 253; 
149 103; 150 13; 151 12; 152 11; 153 15; 
154 17; 155 19; 156 10; 157 59; 158 41; 
159 81; 160 37; 161 464; 162 111; 163 24; 
164 10; 165 17; 167 9; 169 14; 170 10; 
171 82; 172 71; 173 125; 174 25; 175 54; 
176 11; 177 15; 178 7; 183 14; 184 9; 
185 81; 186 26; 187 158; 188 28; 189 41; 
190 19; 191 55; 192 9; 193 3; 195 13; 
196 8; 197 23; 198 9; 199 87; 200 9; 
201 21; 202 10; 203 10; 205 17; 208 6; 
209 7; 211 14; 213 194; 214 38; 215 23; 
216 6; 217 31; 218 7; 219 23; 220 12; 
221 10; 225 11; 227 53; 228 11; 229 18; 
231 102; 232 34; 233 229; 234 40; 235 6; 
242 9; 243 10; 245 23; 246 42; 247 35; 
249 19; 254 8; 255 221; 256 61; 257 106; 
258 30; 259 60; 260 21; 267 4; 269 7; 
271 14; 272 84; 273 708; 274 230; 275 64; 
276 13; 281 8; 282 4; 283 9; 285 7; 
287 9; 291 339; 292 75; 293 9; 299 92; 
300 25; 301 8; 302 10; 304 51; 305 13; 
313 7; 315 9; 325 9; 327 4; 331 9; 
342 6; 343 6; 355 1; 358 74; 359 19; 
376 430; 377 122; 378 11; 
