Name: 2-Aminoindane
Synon: 2-AI
Synon: SU 8629
Synon: 2,3-dihydro-1H-inden-2-amine
InChIKey: LMHHFZAXSANGGM-UHFFFAOYSA-N
Formula: C9H11N
MW: 133
ExactMass: 133.089149
CASNO: 2338183
ID: 2592
Comment: Provided by www.caymanchem.com/app/template/landing%2CForensic.vm / Item #11048  Lot #0433283
Num Peaks: 67
40 11; 41 18; 42 32; 43 10; 44 1; 
49 3; 50 45; 51 82; 52 31; 53 27; 
54 19; 55 4; 56 5; 58 2; 59 4; 
61 9; 62 36; 63 96; 64 30; 65 90; 
67 12; 68 2; 73 2; 74 23; 75 23; 
76 23; 77 153; 78 82; 79 61; 80 14; 
81 1; 85 3; 86 10; 87 11; 88 6; 
89 88; 90 35; 91 538; 92 50; 93 7; 
94 2; 97 1; 98 3; 99 2; 100 1; 
101 6; 102 38; 103 114; 104 66; 105 159; 
106 143; 107 13; 110 1; 113 6; 115 369; 
116 576; 117 245; 118 291; 119 24; 120 1; 
128 5; 130 129; 131 44; 132 398; 133 999; 
134 102; 135 4; 
