Name: 1-(4-Fluorobenzyl) piperazine
Synon: 1-[(4-fluorophenyl)methyl]-piperazine
InChIKey: OOSZCNKVJAVHJI-UHFFFAOYSA-N
Formula: C11H15FN2
MW: 194
ExactMass: 194.121926
CASNO: 199672065
ID: 2638
Comment: Provided by www.caymanchem.com/app/template/landing%2CForensic.vm / Item #11112  Lot #0435859
Num Peaks: 88
40 3; 41 24; 42 69; 43 22; 44 16; 
45 3; 50 6; 51 8; 52 4; 54 19; 
55 20; 56 207; 57 66; 58 37; 59 12; 
61 1; 62 8; 63 23; 64 2; 65 2; 
68 4; 69 5; 70 10; 71 9; 72 3; 
74 3; 75 10; 76 1; 77 2; 78 1; 
80 1; 81 13; 83 132; 84 10; 85 85; 
86 6; 87 2; 89 17; 90 3; 91 1; 
93 1; 94 3; 95 7; 96 5; 97 2; 
99 7; 101 3; 102 1; 103 3; 105 1; 
107 32; 109 999; 110 77; 111 3; 118 2; 
119 2; 120 1; 121 4; 122 24; 123 7; 
124 3; 133 2; 134 1; 135 9; 136 43; 
137 24; 138 52; 139 8; 148 4; 149 15; 
150 18; 152 409; 153 40; 154 1; 162 2; 
163 5; 164 37; 165 17; 166 2; 176 2; 
177 3; 179 5; 191 1; 192 1; 193 17; 
194 137; 195 17; 196 1; 
