Name: RCS-4 3-methoxy isomer
Synon: (3-methoxyphenyl)(1-pentyl-1H-indol-3-yl)-methanone
InChIKey: SWUSQHCKRVISGU-UHFFFAOYSA-N
Formula: C21H23NO2
MW: 321
ExactMass: 321.172878
CASNO: 0
ID: 2645
Comment: Provided by www.caymanchem.com/app/template/landing%2CForensic.vm / Item #10866  Lot #0428910
Num Peaks: 142
40 2; 41 65; 43 87; 51 2; 55 7; 
63 14; 64 18; 65 1; 73 14; 74 7; 
75 10; 76 15; 77 108; 78 23; 79 1; 
88 7; 89 29; 90 2; 91 8; 92 74; 
93 3; 95 1; 96 14; 97 2; 101 13; 
102 47; 103 13; 104 4; 105 2; 107 124; 
108 14; 114 14; 115 63; 116 83; 117 8; 
118 3; 119 4; 121 1; 125 3; 126 3; 
127 1; 128 62; 129 59; 130 124; 131 7; 
132 3; 133 21; 135 314; 136 36; 139 1; 
140 2; 143 39; 144 301; 145 27; 147 29; 
149 10; 150 13; 151 16; 152 35; 153 10; 
154 10; 156 9; 157 2; 158 10; 160 1; 
161 1; 163 23; 164 9; 165 47; 166 9; 
167 11; 168 1; 170 24; 176 6; 177 36; 
178 80; 179 37; 180 15; 181 1; 184 9; 
186 117; 187 14; 189 1; 190 20; 191 35; 
192 42; 193 86; 194 10; 195 8; 197 6; 
203 4; 204 26; 205 15; 206 9; 207 42; 
208 15; 209 21; 210 1; 214 999; 215 158; 
216 13; 219 6; 220 46; 221 27; 222 24; 
223 3; 232 7; 233 3; 234 6; 235 13; 
236 20; 237 1; 241 1; 248 66; 249 34; 
250 83; 251 14; 253 24; 254 14; 264 507; 
265 151; 266 17; 267 17; 268 3; 278 2; 
282 23; 283 24; 284 3; 290 4; 292 1; 
298 37; 299 1; 300 8; 304 15; 305 1; 
306 23; 307 1; 319 1; 320 3; 321 733; 
322 161; 323 21; 
