Name: RCS-4 2-methoxy isomer
Synon: (2-methoxyphenyl)(1-pentyl-1H-indol-3-yl)-methanone
InChIKey: NJRFLQZVMFTRAS-UHFFFAOYSA-N
Formula: C21H23NO2
MW: 321
ExactMass: 321.172878
CASNO: 0
ID: 2646
Comment: Provided by www.caymanchem.com/app/template/landing%2CForensic.vm / Item #10865  Lot #0429305
Num Peaks: 154
41 63; 43 124; 50 6; 51 19; 53 8; 
55 29; 62 8; 63 22; 64 17; 65 7; 
73 10; 74 7; 75 35; 76 51; 77 263; 
78 27; 79 24; 88 35; 89 75; 90 10; 
91 26; 92 114; 93 6; 96 5; 101 42; 
102 100; 103 44; 104 30; 105 165; 106 48; 
107 7; 108 10; 109 12; 110 6; 111 6; 
114 40; 115 115; 116 152; 117 35; 119 225; 
120 18; 121 36; 123 8; 127 12; 128 86; 
129 83; 130 396; 131 91; 132 36; 133 26; 
134 168; 135 716; 136 74; 137 6; 139 31; 
140 15; 141 10; 142 12; 143 75; 144 758; 
145 105; 146 9; 147 14; 149 6; 150 12; 
151 38; 152 42; 153 11; 154 25; 156 30; 
157 22; 158 37; 159 9; 163 23; 164 35; 
165 115; 166 28; 167 21; 168 8; 170 35; 
171 9; 172 25; 176 44; 177 39; 178 47; 
179 28; 180 44; 181 11; 184 6; 186 186; 
187 219; 188 159; 189 36; 190 26; 191 52; 
192 43; 193 43; 194 38; 195 20; 197 7; 
198 8; 200 420; 201 237; 202 25; 203 30; 
204 101; 205 47; 206 53; 207 13; 212 6; 
214 617; 215 100; 216 33; 217 34; 218 28; 
219 26; 220 180; 221 72; 222 70; 223 23; 
232 27; 233 19; 234 133; 235 43; 236 77; 
237 21; 246 40; 248 66; 249 35; 250 19; 
251 7; 254 8; 263 7; 264 939; 265 182; 
266 18; 267 2; 274 18; 276 46; 277 13; 
281 8; 282 2; 283 8; 290 33; 291 7; 
292 20; 304 974; 305 243; 306 48; 307 6; 
320 19; 321 999; 322 261; 323 46; 
