Name: 3'-Methyl-.alpha.-pyrrolidinobutiophenone
Synon: 3-MPBP
Synon: 2-(pyrrolidin-1-yl)-1-(m-tolyl)butan-1-one
InChIKey: GHUHXBRSGNJMFC-UHFFFAOYSA-N
Formula: C15H21NO
MW: 231
ExactMass: 231.162314
CASNO: 0
ID: 2673
Comment: Provided by www.caymanchem.com/app/template/landing%2CForensic.vm / Item #9001189  Lot #0435652
Num Peaks: 71
40 4; 41 60; 42 40; 43 15; 44 2; 
50 2; 51 7; 52 2; 53 6; 54 20; 
55 48; 56 13; 57 1; 58 10; 62 2; 
63 11; 65 50; 66 3; 67 3; 68 13; 
69 16; 70 60; 71 4; 74 1; 75 1; 
76 1; 77 4; 78 1; 79 2; 80 2; 
81 1; 82 6; 83 3; 84 5; 89 13; 
90 8; 91 81; 92 7; 93 1; 94 3; 
96 26; 97 15; 98 1; 102 1; 103 2; 
105 6; 108 2; 110 35; 112 999; 113 84; 
114 3; 115 4; 116 1; 117 2; 119 27; 
120 3; 127 1; 128 1; 129 1; 130 1; 
131 1; 144 1; 145 1; 147 1; 174 2; 
186 1; 200 1; 202 5; 203 1; 229 1; 
230 1; 
