Name: 1-(3,4-methylenedioxyphenyl)propane
InChIKey: MYEIDJPOUKASEC-UHFFFAOYSA-N
Formula: C10H12O2
MW: 164
ExactMass: 164.08373
CASNO: 94586
ID: 2681
Comment: ENFSI / Lancaster 10047872
Num Peaks: 60
37 3; 38 11; 39 41; 40 4; 41 9; 
42 2; 43 1; 49 2; 50 32; 51 105; 
52 16; 53 18; 54 1; 55 3; 61 4; 
62 15; 63 36; 64 9; 65 25; 66 5; 
67 4; 73 2; 74 10; 75 8; 76 12; 
77 172; 78 34; 79 50; 80 4; 86 1; 
87 1; 89 16; 90 4; 91 18; 92 3; 
93 1; 94 1; 102 3; 103 11; 104 3; 
105 56; 106 10; 107 3; 119 3; 120 1; 
121 12; 122 7; 131 2; 132 1; 133 4; 
135 999; 136 95; 137 7; 147 9; 148 5; 
149 1; 161 1; 164 268; 165 30; 166 3; 
