Name: Tetrahydrogestrinone
Synon: THG
Synon: 13.beta.,17.alpha.-diethyl-17.beta.-hydroxygon-4,9,11-trien-3-one
InChIKey: OXHNQTSIKGHVBH-ANULTFPQSA-N
Formula: C21H28O2
MW: 312
ExactMass: 312.208931
CASNO: 618903563
ID: 2683
Comment: DEA SWL
Num Peaks: 210
40 4; 41 193; 42 13; 43 202; 44 10; 
45 25; 50 3; 51 35; 52 12; 53 91; 
54 7; 55 215; 56 13; 57 430; 58 18; 
59 14; 63 21; 64 12; 65 67; 66 13; 
67 70; 68 6; 69 44; 70 6; 71 23; 
72 6; 73 8; 74 2; 75 7; 76 26; 
77 148; 78 41; 79 95; 80 10; 81 42; 
82 16; 83 49; 84 15; 85 98; 86 19; 
87 3; 88 3; 89 46; 90 24; 91 271; 
92 33; 93 33; 94 6; 95 44; 96 16; 
97 17; 98 17; 99 30; 100 3; 101 10; 
102 24; 103 60; 104 32; 105 96; 106 53; 
107 47; 108 8; 109 19; 110 5; 111 91; 
112 12; 113 19; 114 5; 115 287; 116 79; 
117 139; 118 22; 119 101; 120 20; 121 25; 
122 3; 123 11; 124 1; 125 4; 126 15; 
127 102; 128 333; 129 273; 130 56; 131 70; 
132 21; 133 68; 134 12; 135 17; 137 3; 
139 47; 140 17; 141 417; 142 131; 143 92; 
144 40; 145 87; 146 29; 147 42; 148 8; 
149 2; 150 6; 151 32; 152 174; 153 258; 
154 167; 155 251; 156 77; 157 126; 158 98; 
159 82; 160 45; 161 18; 162 4; 163 7; 
164 12; 165 228; 166 113; 167 261; 168 106; 
169 240; 170 74; 171 57; 172 26; 173 43; 
174 11; 175 1; 176 10; 177 11; 178 81; 
179 106; 180 39; 181 208; 182 68; 183 137; 
184 58; 185 113; 186 27; 187 13; 188 1; 
189 13; 190 9; 191 32; 192 16; 193 46; 
194 25; 195 115; 196 59; 197 175; 198 184; 
199 108; 200 27; 201 6; 202 30; 203 11; 
204 1; 205 8; 206 3; 207 25; 208 23; 
209 150; 210 55; 211 319; 212 184; 213 66; 
214 15; 215 4; 218 2; 219 3; 221 8; 
222 5; 223 102; 224 49; 225 198; 226 77; 
227 999; 228 196; 229 19; 230 1; 235 6; 
236 17; 237 67; 238 88; 239 45; 240 399; 
241 93; 242 10; 247 3; 249 1; 251 14; 
252 7; 253 11; 254 17; 255 15; 256 1; 
265 427; 266 97; 267 14; 269 2; 279 4; 
281 1; 282 3; 283 55; 284 11; 285 1; 
294 35; 295 8; 312 361; 313 83; 314 10; 
