Name: 1,3-butanediol
Synon: 1,3-BD
InChIKey: PUPZLCDOIYMWBV-UHFFFAOYSA-N
Formula: C4H10O2
MW: 90
ExactMass: 90.0680795
CASNO: 24621612
ID: 2684
Comment: DEA SWL / Aldrich lot 01057LA
Num Peaks: 31
40 22; 41 134; 42 185; 43 999; 44 196; 
45 843; 46 44; 47 26; 49 7; 50 7; 
51 7; 52 2; 53 13; 54 12; 55 66; 
57 275; 58 15; 59 6; 60 1; 61 2; 
62 7; 63 4; 69 3; 70 4; 71 35; 
72 308; 73 20; 75 105; 76 3; 89 3; 
90 1; 
