Name: 1,2-butanediol
Synon: 1,2-BD
InChIKey: BMRWNKZVCUKKSR-UHFFFAOYSA-N
Formula: C4H10O2
MW: 90
ExactMass: 90.0680795
CASNO: 584032
ID: 2685
Comment: DEA SWL / Aldrich lot 13825HO
Num Peaks: 26
41 304; 42 70; 43 294; 44 31; 45 21; 
47 4; 49 1; 50 5; 51 5; 52 1; 
53 10; 54 2; 55 33; 56 4; 57 72; 
58 129; 59 999; 60 55; 61 227; 62 7; 
63 1; 69 2; 71 4; 72 2; 73 2; 
89 2; 
