Name: Oxymetholone
Synon: 17.alpha.-methyl-2-hydroxymethylene-17.beta.-hydroxy-[5.alpha.]-androstan-3-one
InChIKey: ICMWWNHDUZJFDW-SEYXRHQNSA-N
Formula: C21H32O3
MW: 332
ExactMass: 332.235146
CASNO: 434071
ID: 2689
Comment: DEA SWL / sample in CHCl3
Num Peaks: 209
40 36; 41 393; 43 999; 44 50; 45 42; 
51 31; 52 16; 53 186; 55 567; 56 129; 
57 199; 58 117; 59 42; 65 101; 66 58; 
67 476; 68 104; 69 215; 70 98; 71 550; 
72 89; 73 22; 77 314; 78 58; 79 552; 
80 118; 81 528; 82 81; 83 249; 84 82; 
85 147; 86 10; 87 12; 88 9; 91 564; 
92 112; 93 462; 94 151; 95 441; 96 59; 
97 113; 98 59; 99 41; 100 81; 101 17; 
102 9; 103 50; 105 448; 106 159; 107 435; 
108 276; 109 332; 110 53; 111 100; 112 17; 
113 12; 115 85; 116 38; 117 122; 118 73; 
119 269; 120 130; 121 292; 122 121; 123 322; 
124 57; 125 67; 126 15; 127 14; 128 54; 
129 70; 130 38; 131 163; 132 52; 133 207; 
134 152; 135 201; 136 119; 137 204; 138 50; 
139 78; 140 16; 141 28; 142 31; 143 70; 
144 24; 145 190; 146 77; 147 306; 148 109; 
149 137; 150 252; 151 129; 152 89; 153 38; 
154 12; 155 24; 156 12; 157 60; 158 35; 
159 309; 160 119; 161 472; 162 242; 163 269; 
164 80; 165 53; 166 24; 169 21; 170 15; 
171 40; 172 155; 173 154; 174 705; 175 309; 
176 550; 177 137; 178 17; 179 26; 180 11; 
183 20; 184 20; 185 40; 186 29; 187 76; 
188 32; 189 70; 190 52; 191 66; 192 14; 
193 11; 194 10; 195 11; 197 18; 198 12; 
199 84; 200 29; 201 121; 202 34; 203 21; 
204 14; 205 39; 206 51; 207 28; 208 7; 
209 8; 210 8; 211 9; 212 16; 213 59; 
214 269; 215 270; 216 417; 217 90; 218 23; 
219 17; 223 18; 225 20; 226 18; 227 30; 
228 14; 229 35; 230 18; 231 26; 232 69; 
233 41; 234 115; 235 28; 238 27; 239 18; 
241 32; 243 51; 244 29; 245 38; 246 27; 
247 28; 248 10; 253 13; 256 63; 257 46; 
258 24; 259 123; 260 30; 261 169; 262 63; 
263 24; 271 9; 272 68; 274 479; 275 570; 
276 110; 277 15; 281 28; 282 7; 285 8; 
286 8; 296 26; 299 97; 300 26; 303 18; 
304 73; 305 11; 314 98; 315 26; 317 43; 
318 15; 332 638; 333 122; 334 21; 
