Name: Cannabicyclol
Synon: 1H-4-Oxabenzo(f)cyclobut(cd)inden-8-ol, 1a-.alpha.,2,3,3a,8b-.alpha.,8c-.alpha.-hexahydro-1,1,3a-trimethyl-6-pentyl-
Synon: CBL
InChIKey: IGHTZQUIFGUJTG-UHFFFAOYSA-N
Formula: C21H30O2
MW: 314
ExactMass: 314.22458
CASNO: 21366632
ID: 2693
Comment: DEA SCL / Lot # 2 Applied Science
Num Peaks: 141
40 3; 41 49; 42 2; 43 26; 44 1; 
51 3; 52 1; 53 14; 54 1; 55 25; 
56 1; 57 1; 63 1; 64 1; 65 8; 
66 3; 67 10; 68 3; 69 31; 70 1; 
71 1; 77 17; 78 5; 79 21; 80 3; 
81 30; 82 3; 83 2; 89 2; 90 1; 
91 23; 92 3; 93 5; 94 1; 95 3; 
102 2; 103 7; 104 2; 105 10; 106 2; 
107 13; 108 2; 109 2; 115 18; 116 5; 
117 7; 118 1; 119 4; 120 1; 121 5; 
122 2; 123 5; 127 5; 128 12; 129 7; 
130 1; 131 11; 132 3; 133 6; 134 1; 
135 3; 136 3; 137 2; 139 1; 141 5; 
142 2; 143 2; 144 3; 145 13; 146 3; 
147 13; 148 3; 149 3; 150 1; 152 2; 
153 2; 154 1; 155 1; 157 5; 158 2; 
159 5; 160 11; 161 19; 162 4; 163 3; 
165 3; 166 1; 169 1; 171 3; 172 1; 
173 25; 174 145; 175 27; 176 3; 177 4; 
178 12; 179 1; 181 1; 182 1; 183 2; 
184 1; 185 2; 186 3; 187 34; 188 9; 
189 3; 191 2; 192 1; 193 8; 194 1; 
197 1; 198 1; 199 3; 200 2; 201 7; 
202 1; 207 1; 211 1; 213 2; 214 1; 
215 2; 217 5; 218 1; 229 4; 231 999; 
232 167; 233 19; 234 3; 243 1; 244 1; 
245 3; 257 3; 258 2; 271 6; 272 1; 
299 25; 300 5; 313 1; 314 41; 315 9; 
316 1; 
