Name: 1-Naphyrone
Synon: .alpha.-naphyrone
Synon: 1-(naphthalen-1-yl)-2-(pyrrolidin-1-yl)pentan-1-one
Synon: Naphyrone 1-naphthyl isomer
InChIKey: PDYIKONOBSBEMS-UHFFFAOYSA-N
Formula: C19H23NO
MW: 281
ExactMass: 281.177965
CASNO: 0
ID: 2696
Comment: UK Forensic Science Service Lab, Huntingdon
Num Peaks: 75
29 2; 30 2; 39 2; 41 8; 42 13; 
43 2; 51 2; 53 1; 54 5; 55 17; 
56 5; 57 1; 63 1; 67 1; 68 4; 
69 13; 70 8; 72 1; 74 1; 75 3; 
76 2; 77 9; 78 1; 80 1; 81 1; 
82 2; 84 18; 85 1; 87 1; 94 2; 
95 1; 96 24; 97 20; 98 8; 99 1; 
100 1; 101 6; 102 1; 110 8; 111 1; 
115 2; 124 16; 126 999; 127 178; 128 20; 
129 1; 139 3; 140 1; 141 6; 151 1; 
152 5; 153 4; 154 1; 155 21; 156 2; 
165 5; 166 2; 167 2; 168 1; 169 1; 
178 1; 180 1; 181 3; 182 1; 208 1; 
210 1; 222 1; 236 2; 238 4; 239 1; 
250 1; 252 1; 279 2; 280 1; 281 1; 
