Name: 1-Phenyl-1-Cyclohexanol
InChIKey: DTTDXHDYTWQDCS-UHFFFAOYSA-N
Formula: C12H16O
MW: 176
ExactMass: 176.120115
CASNO: 1589602
ID: 2699
Comment: DEA SWL / unverified from sample
Num Peaks: 91
40 5; 41 40; 42 9; 43 17; 45 1; 
50 18; 51 63; 52 16; 53 17; 54 3; 
55 266; 56 16; 57 5; 62 4; 63 18; 
64 6; 65 31; 66 7; 67 5; 68 1; 
69 7; 70 4; 74 8; 75 10; 76 19; 
77 295; 78 159; 79 57; 80 6; 81 12; 
82 1; 83 1; 86 1; 87 2; 88 1; 
89 14; 90 4; 91 140; 92 22; 93 1; 
94 1; 97 1; 98 1; 99 2; 101 3; 
102 17; 103 30; 104 15; 105 480; 106 39; 
107 22; 108 2; 113 1; 114 1; 115 123; 
116 19; 117 13; 118 4; 119 5; 120 327; 
121 29; 122 2; 126 2; 127 14; 128 36; 
129 54; 130 26; 131 14; 133 999; 134 136; 
135 9; 139 1; 141 6; 142 4; 143 19; 
144 2; 145 6; 146 2; 147 25; 148 3; 
152 2; 153 2; 154 1; 155 1; 157 4; 
158 25; 159 6; 175 27; 176 339; 177 43; 
178 3; 
