Name: 1-Phenylpiperazine
Synon: Phenylpiperazine
InChIKey: YZTJYBJCZXZGCT-UHFFFAOYSA-N
Formula: C10H14N2
MW: 162
ExactMass: 162.115699
CASNO: 92546
ID: 2703
Comment: DEA SWL / Aldrich lot 03519DA
Num Peaks: 59
40 3; 41 13; 42 28; 43 6; 44 4; 
50 19; 51 70; 52 13; 53 3; 54 9; 
56 82; 57 31; 58 3; 62 2; 63 9; 
64 7; 65 16; 66 3; 67 1; 68 2; 
73 1; 74 6; 75 6; 77 191; 78 29; 
79 14; 80 2; 81 11; 83 2; 85 2; 
89 4; 91 59; 92 8; 93 4; 94 1; 
102 1; 104 169; 105 147; 106 59; 107 14; 
108 1; 116 1; 117 9; 118 18; 120 999; 
121 85; 122 3; 130 5; 131 4; 132 14; 
133 3; 134 1; 145 1; 147 1; 159 1; 
160 3; 162 264; 163 30; 164 1; 
