Name: Diclofenac
Synon: 2-[(2,6-Dichlorophenyl)amino]benzeneacetic acid
Synon: Cataflam
Synon: Voltaren
InChIKey: DCOPUUMXTXDBNB-UHFFFAOYSA-N
Formula: C14H11Cl2NO2
MW: 295
ExactMass: 295.016684
CASNO: 15307865
ID: 2704
Comment: AAFS
Num Peaks: 169
42 1; 43 4; 44 3; 45 16; 49 1; 
50 11; 51 27; 52 13; 53 6; 54 1; 
55 4; 56 1; 57 2; 60 3; 61 3; 
62 10; 63 28; 64 7; 65 8; 66 1; 
67 2; 68 1; 69 2; 70 1; 71 1; 
72 1; 73 8; 74 14; 75 28; 76 33; 
77 40; 78 21; 79 6; 80 1; 81 2; 
82 2; 83 3; 84 4; 85 3; 86 3; 
87 5; 89 45; 91 7; 92 1; 93 6; 
94 3; 95 2; 96 1; 97 4; 98 4; 
99 6; 100 5; 101 6; 102 4; 103 3; 
104 4; 105 1; 107 38; 108 14; 109 13; 
110 4; 111 9; 112 2; 113 4; 114 2; 
115 2; 116 1; 117 1; 119 1; 121 1; 
123 2; 125 14; 126 10; 127 8; 128 5; 
129 2; 130 1; 132 1; 133 3; 135 2; 
136 4; 137 3; 138 4; 139 5; 140 6; 
141 1; 145 6; 146 1; 147 5; 148 1; 
149 4; 150 17; 151 62; 152 41; 153 10; 
154 3; 159 1; 160 1; 161 2; 162 2; 
163 2; 164 8; 165 4; 166 8; 167 3; 
168 1; 171 2; 172 2; 173 2; 174 2; 
175 2; 176 12; 177 60; 178 78; 179 121; 
180 56; 181 12; 182 1; 185 1; 186 3; 
187 2; 188 3; 196 1; 199 1; 200 3; 
201 6; 202 2; 203 3; 206 1; 207 3; 
208 1; 209 1; 214 999; 215 219; 216 339; 
217 71; 218 11; 219 1; 230 1; 235 2; 
242 416; 243 66; 244 139; 245 21; 246 1; 
248 10; 250 13; 251 3; 252 5; 253 1; 
254 1; 256 6; 257 1; 258 2; 259 1; 
260 1; 261 1; 277 32; 278 5; 279 22; 
280 3; 281 3; 295 404; 296 67; 297 269; 
298 41; 299 43; 300 7; 301 3; 
