Name: Nefazodone
Synon: 2-[3-[4-(3-Chlorophenyl)-1-piperazinyl]propyl]-5-ethyl-2,4-dihydro-4-(2-phenoxyethyl)-3H-1,2,4-triazol-3-one
Synon: Serzone
Synon: Nefadar
InChIKey: VRBKIVRKKCLPHA-UHFFFAOYSA-N
Formula: C25H32ClN5O2
MW: 469
ExactMass: 469.224453
CASNO: 83366669
ID: 2705
Comment: AAFS / Antidepressant
Num Peaks: 204
38 1; 39 15; 40 3; 41 27; 42 92; 
43 28; 44 41; 45 2; 50 5; 51 16; 
52 3; 53 1; 54 32; 55 33; 56 214; 
57 24; 58 11; 62 1; 63 4; 64 2; 
65 33; 66 10; 67 5; 68 44; 69 57; 
70 380; 71 36; 72 5; 73 1; 74 1; 
75 12; 76 7; 77 126; 78 11; 79 9; 
80 3; 81 7; 82 39; 83 112; 84 40; 
85 12; 86 1; 87 1; 89 6; 90 5; 
91 61; 92 14; 93 19; 94 29; 95 8; 
96 141; 97 92; 98 26; 99 24; 100 1; 
102 3; 103 9; 104 8; 105 8; 106 2; 
107 5; 108 2; 109 3; 111 53; 112 15; 
113 22; 114 12; 115 3; 116 2; 117 15; 
118 22; 119 28; 120 76; 121 34; 122 3; 
123 2; 124 8; 125 34; 126 22; 127 16; 
128 3; 129 2; 130 12; 131 15; 132 8; 
133 4; 134 1; 135 1; 137 1; 138 122; 
139 120; 140 126; 141 48; 142 13; 143 4; 
144 3; 145 2; 146 2; 150 1; 151 5; 
152 30; 153 22; 154 64; 155 10; 156 12; 
157 1; 158 2; 159 1; 160 2; 162 1; 
164 2; 165 4; 166 125; 167 38; 168 50; 
169 13; 170 3; 171 2; 173 4; 174 4; 
175 2; 176 3; 178 8; 179 16; 180 37; 
181 34; 182 14; 183 24; 184 2; 187 3; 
188 12; 189 4; 191 3; 192 2; 193 14; 
194 62; 195 109; 196 39; 197 34; 198 6; 
199 1; 205 1; 207 27; 208 12; 209 204; 
210 28; 211 58; 212 4; 220 1; 221 2; 
222 1; 223 14; 224 1; 225 3; 234 38; 
235 20; 236 3; 237 9; 238 1; 239 1; 
246 21; 247 2; 248 2; 260 189; 261 31; 
262 2; 272 2; 274 222; 275 41; 276 4; 
277 1; 278 4; 279 1; 289 9; 290 1; 
300 1; 303 999; 304 187; 305 22; 306 1; 
315 1; 316 30; 317 120; 318 22; 319 3; 
329 62; 330 12; 331 1; 334 1; 427 8; 
428 2; 429 3; 434 3; 435 1; 446 3; 
454 40; 455 12; 456 14; 457 4; 467 7; 
468 5; 469 11; 470 2; 471 1; 
