Name: 2,3-Butanediol
Synon: 2,3-BD
InChIKey: OWBTYPJTUOEWEK-UHFFFAOYSA-N
Formula: C4H10O2
MW: 90
ExactMass: 90.0680795
CASNO: 513859
ID: 2706
Comment: DEA SWL / Aldrich lot 23119BO
Num Peaks: 23
40 2; 41 20; 42 37; 43 195; 45 999; 
46 35; 47 44; 50 5; 51 5; 53 8; 
55 37; 56 5; 57 107; 58 4; 59 2; 
60 7; 69 2; 71 9; 72 13; 73 6; 
75 30; 87 2; 90 9; 
