Name: 2,4,5-Trimethoxyamphetamine
InChIKey: TVSIMAWGATVNGK-UHFFFAOYSA-N
Synon: TMA-2
Synon: PIHKAL #158
Synon: 1-(2,4,5-Trimethoxyphenyl)propan-2-amine
Formula: C12H19NO3
MW: 225
ExactMass: 225.136494
CASNO: 1083096
ID: 2707
Comment: DEA SWL
Num Peaks: 117
40 3; 41 10; 42 28; 43 12; 44 790; 
45 22; 47 1; 50 7; 51 18; 52 16; 
53 23; 54 4; 55 8; 56 3; 57 4; 
58 1; 59 6; 61 2; 62 3; 63 19; 
64 14; 65 35; 66 20; 67 23; 68 6; 
69 41; 70 2; 74 2; 75 4; 76 5; 
77 46; 78 26; 79 35; 80 35; 81 11; 
82 5; 84 3; 85 3; 89 12; 90 15; 
91 38; 92 19; 93 30; 94 14; 95 44; 
96 7; 98 6; 102 1; 103 3; 104 4; 
105 15; 106 21; 107 40; 108 27; 109 25; 
110 7; 111 2; 113 1; 115 1; 116 1; 
117 2; 118 4; 119 5; 120 10; 121 46; 
122 21; 123 24; 124 28; 125 9; 131 2; 
132 2; 133 5; 134 7; 135 15; 136 75; 
137 37; 138 22; 139 95; 140 7; 146 3; 
147 7; 148 5; 149 6; 150 5; 151 147; 
152 19; 153 9; 154 1; 160 1; 161 5; 
162 6; 163 5; 164 5; 165 7; 166 10; 
167 365; 168 37; 169 4; 176 2; 177 3; 
178 10; 179 6; 180 5; 181 136; 182 999; 
183 102; 184 11; 192 3; 193 4; 194 8; 
195 4; 208 2; 209 4; 210 4; 224 3; 
225 17; 226 2; 
