Name: 2C-T-4
Synon: PIHKAL #41
Synon: 2,5-Dimethoxy-4-isopropylthiophenethylamine
Synon: 2-[4-(Isopropylthio)-2,5-dimethoxyphenyl]ethanamine
InChIKey: HDYZSVKZKDPLDT-UHFFFAOYSA-N
Formula: C13H21NO2S
MW: 255
ExactMass: 255.1293
CASNO: 207740258
ID: 2712
Comment: AAFS
Num Peaks: 127
38 2; 39 25; 40 7; 41 37; 42 9; 
43 29; 44 14; 45 15; 50 1; 51 8; 
52 2; 53 14; 55 2; 57 1; 58 1; 
59 9; 63 8; 64 5; 65 22; 66 12; 
67 12; 68 2; 69 13; 70 6; 71 5; 
75 8; 76 2; 77 33; 78 21; 79 26; 
80 4; 81 4; 82 3; 83 1; 84 5; 
85 20; 87 1; 89 8; 90 6; 91 40; 
92 12; 93 12; 94 8; 95 10; 96 9; 
97 26; 98 4; 99 2; 103 3; 104 4; 
105 21; 106 10; 107 13; 108 17; 109 26; 
110 38; 111 12; 112 3; 117 4; 118 5; 
119 7; 120 7; 121 44; 122 40; 123 28; 
124 8; 125 23; 126 7; 127 2; 132 4; 
133 6; 134 6; 135 10; 136 13; 137 23; 
138 58; 139 19; 140 19; 141 9; 147 8; 
148 10; 149 11; 150 11; 151 24; 152 16; 
153 221; 154 25; 155 20; 163 3; 164 9; 
165 13; 166 5; 167 15; 168 9; 169 197; 
170 21; 171 11; 178 2; 179 8; 180 8; 
181 26; 182 22; 183 999; 184 346; 185 79; 
186 18; 193 2; 195 12; 196 7; 197 6; 
207 1; 211 41; 212 21; 213 5; 223 5; 
224 7; 225 276; 226 732; 227 109; 228 41; 
229 3; 238 2; 241 3; 253 7; 255 310; 
256 47; 257 16; 
