Name: 2C-N
Synon: PIHKAL #34
Synon: 2,5-Dimethoxy-4-nitro-phenethylamine
Synon: 2-(2,5-Dimethoxy-4-nitro-phenyl)ethanamine
InChIKey: ZMUSDZGRRJGRAO-UHFFFAOYSA-N
Formula: C10H14N2O4
MW: 226
ExactMass: 226.095357
CASNO: 261789008
ID: 2714
Comment: DEA SWL
Num Peaks: 122
40 8; 41 16; 42 18; 43 21; 44 4; 
45 3; 47 7; 49 1; 50 46; 51 99; 
52 38; 53 108; 54 18; 55 20; 56 3; 
57 10; 59 6; 61 10; 62 25; 63 92; 
64 80; 65 89; 66 43; 67 35; 68 15; 
69 24; 70 4; 73 1; 74 18; 75 31; 
76 39; 77 236; 78 85; 79 114; 80 42; 
81 12; 82 6; 83 4; 84 1; 85 2; 
86 5; 87 6; 88 4; 89 110; 90 182; 
91 219; 92 108; 93 78; 94 35; 95 45; 
96 9; 97 1; 98 1; 99 1; 101 1; 
102 5; 103 10; 104 27; 105 100; 106 57; 
107 96; 108 39; 109 26; 110 5; 111 2; 
116 4; 117 10; 118 24; 119 46; 120 387; 
121 150; 122 110; 123 39; 124 14; 125 3; 
131 2; 132 6; 133 13; 134 40; 135 53; 
136 61; 137 167; 138 18; 139 7; 145 1; 
146 2; 147 7; 148 12; 149 168; 150 43; 
151 15; 152 20; 153 4; 161 1; 162 6; 
163 7; 164 56; 165 14; 166 17; 167 558; 
168 56; 169 6; 176 1; 177 1; 178 3; 
179 3; 180 210; 181 32; 182 5; 193 3; 
194 3; 195 4; 197 999; 198 103; 199 12; 
200 1; 209 2; 210 1; 225 1; 226 48; 
227 7; 228 1; 
