Name: Epibolin
Synon: 2.alpha.,3.alpha.-epithio-17.alpha.-methyl-5.alpha.-androstan-17.beta.-ol
InChIKey: UPLPHRJJTCUQAY-WIRWPRASSA-N
Formula: C20H32OS
MW: 320
ExactMass: 320.217386
CASNO: 0
ID: 2720
Comment: DEA SWL / from sample capsule
Num Peaks: 242
37 1; 38 3; 39 119; 40 22; 41 570; 
42 36; 43 999; 44 23; 45 97; 46 5; 
47 39; 49 1; 50 3; 51 26; 52 15; 
53 213; 54 45; 55 510; 56 27; 57 120; 
58 73; 59 60; 60 6; 61 15; 63 5; 
64 31; 65 102; 66 37; 67 330; 68 42; 
69 130; 70 10; 71 222; 72 47; 73 32; 
74 5; 75 6; 76 4; 77 254; 78 55; 
79 479; 80 78; 81 379; 82 36; 83 102; 
84 15; 85 68; 86 18; 87 24; 88 4; 
89 8; 90 6; 91 643; 92 142; 93 541; 
94 112; 95 317; 96 30; 97 132; 98 28; 
99 62; 100 34; 101 54; 102 11; 103 41; 
104 50; 105 639; 106 244; 107 479; 108 198; 
109 190; 110 34; 111 111; 112 39; 113 92; 
114 27; 115 83; 116 24; 117 149; 118 96; 
119 312; 120 146; 121 244; 122 87; 123 159; 
124 36; 125 93; 126 24; 127 44; 128 45; 
129 69; 130 28; 131 175; 132 50; 133 232; 
134 109; 135 175; 136 38; 137 40; 138 19; 
139 114; 140 61; 141 47; 142 27; 143 77; 
144 30; 145 245; 146 67; 147 315; 148 104; 
149 90; 150 24; 151 40; 152 20; 153 44; 
154 20; 155 23; 156 10; 157 57; 158 36; 
159 198; 160 119; 161 243; 162 98; 163 92; 
164 27; 165 28; 166 12; 167 25; 168 11; 
169 12; 170 4; 171 32; 172 23; 173 112; 
174 70; 175 96; 176 149; 177 42; 178 14; 
179 59; 180 23; 181 14; 182 3; 183 9; 
184 3; 185 24; 186 12; 187 60; 188 36; 
189 38; 190 8; 191 11; 192 11; 193 32; 
194 16; 195 8; 196 1; 197 13; 198 4; 
199 30; 200 13; 201 81; 202 25; 203 16; 
204 4; 205 8; 206 5; 207 12; 208 8; 
209 2; 211 8; 212 4; 213 68; 214 30; 
215 124; 216 153; 217 48; 218 10; 219 8; 
220 7; 221 5; 225 2; 226 4; 227 17; 
228 33; 229 50; 230 84; 231 30; 232 5; 
233 15; 234 66; 235 19; 236 2; 239 2; 
241 3; 242 1; 243 1; 245 10; 246 10; 
247 76; 248 21; 249 31; 250 14; 251 4; 
253 22; 254 3; 255 176; 256 37; 257 3; 
259 3; 260 10; 261 6; 262 295; 263 87; 
264 21; 265 3; 268 8; 269 30; 270 52; 
271 16; 272 2; 273 15; 274 4; 277 2; 
286 8; 287 70; 288 63; 289 12; 290 2; 
292 5; 301 1; 302 33; 303 9; 304 2; 
305 57; 306 11; 307 3; 320 332; 321 74; 
322 23; 323 4; 
