Name: Phenethylbromide
Synon: .beta.-Bromoethylbenzene
Synon: (2-bromoethyl)benzene
InChIKey: WMPPDTMATNBGJN-UHFFFAOYSA-N
Formula: C8H9Br
MW: 184
ExactMass: 183.988762
CASNO: 103639
ID: 2721
Comment: DEA SWL / Aldrich lot 06527LC
Num Peaks: 46
40 3; 41 3; 49 1; 50 59; 51 121; 
52 29; 53 7; 61 7; 62 20; 63 50; 
64 11; 65 64; 66 4; 73 6; 74 35; 
75 24; 76 30; 77 207; 78 113; 79 112; 
80 10; 81 6; 82 3; 85 1; 86 3; 
87 5; 89 32; 91 999; 92 76; 93 16; 
95 12; 97 1; 98 4; 99 1; 101 4; 
102 35; 103 166; 104 148; 105 744; 106 65; 
107 3; 184 339; 185 12; 186 329; 187 29; 
188 1; 
