Name: 3,4,5-Trimethoxyamphetamine
Synon: TMA
Synon: PIHKAL #157
InChIKey: WGTASENVNYJZBK-UHFFFAOYSA-N
Formula: C12H19NO3
MW: 225
ExactMass: 225.136494
CASNO: 1082888
ID: 2724
Comment: DEA SWL
Num Peaks: 106
40 1; 41 8; 42 26; 43 11; 44 999; 
45 27; 47 2; 48 2; 50 7; 51 16; 
52 23; 53 22; 54 2; 55 4; 56 2; 
57 3; 58 1; 59 2; 60 1; 61 1; 
62 2; 63 12; 64 11; 65 24; 66 11; 
67 12; 68 2; 69 4; 74 1; 75 2; 
76 6; 77 28; 78 22; 79 26; 80 22; 
81 7; 82 3; 83 1; 89 12; 90 18; 
91 19; 92 9; 93 12; 94 8; 95 17; 
96 3; 97 2; 98 1; 103 1; 104 3; 
105 13; 106 16; 107 28; 108 8; 109 13; 
110 4; 118 4; 119 3; 120 10; 121 16; 
122 11; 123 14; 124 14; 125 5; 131 1; 
132 2; 133 4; 134 5; 135 8; 136 28; 
137 21; 138 7; 139 36; 140 3; 147 4; 
148 38; 149 7; 150 1; 151 42; 152 8; 
153 4; 161 1; 162 2; 163 3; 164 2; 
165 9; 166 5; 167 147; 168 16; 169 1; 
177 1; 178 2; 179 2; 180 1; 181 91; 
182 463; 183 50; 184 5; 192 1; 193 2; 
194 4; 208 3; 209 1; 210 2; 224 1; 
225 4; 
