Name: Pergolide
Synon: 8.beta.-[(Methylthio)methyl]-6-propylergoline
Synon: Permax
InChIKey: YEHCICAEULNIGD-UHFFFAOYSA-N
Formula: C19H26N2S
MW: 314
ExactMass: 314.18167
CASNO: 66104221
ID: 2735
Comment: AAFS
Num Peaks: 193
36 1; 37 1; 38 1; 39 10; 40 4; 
41 36; 42 13; 43 26; 44 13; 45 6; 
46 1; 47 7; 50 2; 51 1; 53 2; 
56 2; 58 5; 61 39; 62 2; 63 7; 
65 1; 69 1; 70 13; 71 7; 72 21; 
73 2; 74 2; 75 8; 76 2; 77 20; 
78 2; 79 4; 80 2; 83 3; 84 3; 
86 10; 87 179; 88 17; 89 19; 90 7; 
91 9; 92 4; 93 1; 94 12; 96 1; 
97 1; 98 13; 99 2; 100 3; 101 7; 
102 12; 103 5; 104 7; 105 1; 106 3; 
107 3; 108 2; 109 1; 110 50; 111 4; 
112 3; 113 9; 114 12; 115 34; 116 7; 
117 7; 118 8; 119 2; 121 3; 122 16; 
124 3; 125 3; 126 17; 127 123; 128 43; 
129 23; 130 26; 131 7; 132 6; 133 13; 
134 1; 136 8; 139 19; 140 19; 141 22; 
142 25; 143 13; 144 119; 145 18; 149 3; 
150 3; 151 2; 152 23; 153 35; 154 382; 
155 151; 156 120; 157 28; 158 15; 159 1; 
163 2; 164 7; 165 20; 166 32; 167 140; 
168 114; 169 47; 170 20; 171 3; 176 2; 
177 4; 178 15; 179 11; 180 55; 181 60; 
182 72; 183 29; 184 13; 185 1; 186 1; 
189 3; 190 7; 191 16; 192 43; 193 44; 
194 107; 195 44; 196 59; 197 21; 198 29; 
199 7; 200 3; 204 6; 205 14; 206 35; 
207 32; 208 40; 209 51; 210 25; 211 11; 
212 7; 213 2; 214 4; 216 4; 217 2; 
219 6; 220 6; 221 12; 222 8; 223 71; 
224 27; 225 19; 226 11; 227 6; 228 15; 
234 1; 235 4; 236 1; 237 46; 238 23; 
239 13; 240 8; 242 4; 249 8; 251 86; 
252 22; 253 32; 254 14; 255 4; 257 1; 
265 27; 266 6; 267 97; 268 24; 269 3; 
270 17; 271 14; 279 2; 285 403; 286 83; 
287 29; 288 1; 297 2; 299 60; 300 12; 
301 1; 309 3; 312 6; 313 25; 314 999; 
315 230; 316 71; 317 13; 
