Name: Fexofenadine
Synon: Allegra
Synon: (RS)- 2-[4-[1-Hydroxy- 4-[4-(hydroxy- diphenyl- methyl) - 1-piperidyl]butyl]phenyl]- 2-methyl- propanoic acid
InChIKey: RWTNPBWLLIMQHL-UHFFFAOYSA-N
Formula: C32H39NO4
MW: 501
ExactMass: 501.287909
CASNO: 83799240
ID: 2739
Comment: DEA SWL / unverified from sample
Num Peaks: 32
42 41; 44 48; 55 91; 73 9; 74 12; 
77 165; 82 41; 84 25; 85 55; 91 179; 
96 179; 97 100; 98 133; 105 400; 115 98; 
129 68; 131 224; 133 40; 135 55; 147 26; 
183 124; 191 37; 207 4; 208 9; 209 20; 
253 30; 256 103; 262 146; 280 999; 281 223; 
282 37; 439 129; 
