Name: .alpha.-Methoxy-3,4-methylenedioxymethamphetamine
Synon: .alpha.-Methoxy-MDMA
InChIKey: XEEIHFOWPGDFQK-UHFFFAOYSA-N
Formula: C12H17NO3
MW: 223
ExactMass: 223.120843
CASNO: 0
ID: 2741
Comment: ENFSI / impurity in MDMA case sample
Num Peaks: 81
38 2; 39 9; 40 1; 41 5; 42 16; 
43 10; 44 4; 45 1; 50 6; 51 13; 
52 4; 53 5; 54 1; 55 2; 56 27; 
57 9; 58 999; 59 38; 60 1; 61 1; 
62 4; 63 16; 64 7; 65 14; 66 3; 
67 1; 69 1; 70 1; 74 2; 75 2; 
76 6; 77 22; 78 7; 79 7; 80 1; 
89 4; 90 1; 91 11; 92 6; 93 2; 
94 1; 95 2; 102 2; 103 8; 104 6; 
105 3; 106 1; 107 3; 108 1; 117 2; 
118 5; 119 15; 120 3; 121 13; 122 2; 
131 5; 132 5; 133 1; 134 1; 135 13; 
136 4; 146 6; 147 1; 148 1; 149 66; 
150 48; 151 5; 152 1; 160 4; 161 2; 
162 4; 163 1; 165 51; 166 7; 175 1; 
176 1; 177 4; 190 1; 191 1; 192 5; 
193 1; 
