Name: 1-Methyl-3-phenylpropylamine
Synon: .alpha.-Methylbenzenepropaneamine
InChIKey: WECUIGDEWBNQJJ-UHFFFAOYSA-N
Formula: C10H15N
MW: 149
ExactMass: 149.120449
CASNO: 0
ID: 2744
Comment: ENFSI / amphetamine homolog from benzylacetone
Num Peaks: 72
37 2; 38 13; 39 111; 40 13; 41 49; 
42 145; 43 68; 44 999; 45 43; 49 1; 
50 48; 51 132; 52 34; 53 17; 54 10; 
55 3; 56 28; 57 25; 58 15; 61 3; 
62 16; 63 62; 64 14; 65 166; 66 11; 
67 1; 70 16; 71 34; 72 1; 73 1; 
74 14; 75 13; 76 15; 77 133; 78 73; 
79 54; 80 4; 85 1; 86 1; 87 3; 
88 1; 89 35; 91 524; 92 53; 93 3; 
98 1; 101 1; 102 13; 103 49; 104 38; 
105 30; 106 6; 115 40; 116 12; 117 201; 
118 20; 119 1; 120 3; 127 2; 128 6; 
129 4; 130 6; 131 19; 132 253; 133 25; 
134 23; 135 2; 146 2; 147 1; 148 10; 
149 13; 150 3; 
