Name: Nizatadine
Synon: Axid
InChIKey: SMPGFBSYWZGPIX-IZZDOVSWSA-N
Formula: C12H21N5O2S2
MW: 331
ExactMass: 331.113667
CASNO: 76963412
ID: 2753
Comment: DEA SWL / unverified from sample
Num Peaks: 66
40 25; 41 25; 42 143; 43 48; 44 48; 
45 86; 53 24; 55 25; 56 34; 57 37; 
58 852; 59 70; 67 262; 68 14; 69 49; 
70 13; 71 156; 72 26; 73 29; 83 49; 
84 24; 85 6; 96 62; 97 5; 98 7; 
99 7; 100 17; 103 24; 110 133; 111 999; 
112 201; 113 191; 114 27; 115 26; 117 84; 
131 12; 133 20; 135 21; 137 11; 138 37; 
139 7; 142 67; 143 202; 144 45; 145 237; 
146 25; 147 41; 154 144; 155 34; 156 62; 
171 122; 172 7; 173 6; 191 19; 193 5; 
207 25; 208 16; 209 19; 223 31; 227 17; 
253 21; 254 245; 255 40; 256 19; 281 13; 
297 48; 
