Name: Barbital
Synon: Barbitone
Synon: Veronal
Synon: Medinal
Synon: 5,5-Diethylpyrimidine-2,4,6(1H,3H,5H)-trione
InChIKey: FTOAOBMCPZCFFF-UHFFFAOYSA-N
Formula: C8H12N2O3
MW: 184
ExactMass: 184.084792
CASNO: 57443
ID: 2755
Comment: DEA SWL / SWGDRUG Monograph Available
Num Peaks: 68
40 24; 41 156; 42 36; 43 31; 44 65; 
45 4; 50 4; 51 11; 52 15; 53 64; 
54 50; 55 194; 56 33; 57 9; 58 1; 
61 1; 62 1; 63 2; 64 1; 65 7; 
66 12; 67 27; 68 22; 69 86; 70 71; 
71 5; 72 1; 73 2; 77 1; 78 1; 
80 21; 81 5; 82 7; 83 122; 84 18; 
85 44; 86 2; 87 3; 94 40; 95 16; 
96 10; 97 11; 98 192; 99 12; 100 1; 
108 7; 109 2; 110 2; 112 177; 113 24; 
114 2; 124 2; 126 13; 127 4; 128 4; 
129 1; 138 1; 139 1; 141 963; 142 61; 
143 7; 153 2; 154 1; 155 190; 156 999; 
157 76; 158 8; 169 1; 
