Name: Benzocaine
Synon: Ethyl p-aminobenzoate
InChIKey: BLFLLBZGZJTVJG-UHFFFAOYSA-N
Formula: C9H11NO2
MW: 165
ExactMass: 165.078979
CASNO: 94097
ID: 2756
Comment: DEA SWL
Num Peaks: 51
40 4; 41 14; 42 5; 43 3; 44 1; 
46 6; 50 6; 51 6; 52 17; 53 7; 
54 5; 60 8; 61 3; 62 11; 63 33; 
64 30; 65 188; 66 25; 67 1; 74 4; 
75 3; 76 2; 77 2; 78 1; 79 1; 
80 4; 81 5; 88 1; 89 2; 90 9; 
91 29; 92 226; 93 43; 94 3; 106 1; 
108 17; 109 3; 118 2; 120 999; 121 99; 
122 7; 136 2; 137 147; 138 12; 139 1; 
150 16; 151 1; 164 9; 165 274; 166 27; 
167 2; 
