Name: .beta.-Benzopinacolone
InChIKey: CFBBKHROQRFCNZ-UHFFFAOYSA-N
Formula: C26H20O
MW: 348
ExactMass: 348.151415
CASNO: 466375
ID: 2758
Comment: DEA SWL / Pfaltz and Bauer 940825
Num Peaks: 97
50 10; 51 54; 52 3; 62 2; 63 7; 
64 1; 65 6; 74 3; 75 5; 77 168; 
78 15; 86 1; 87 4; 88 2; 89 8; 
91 18; 92 1; 95 1; 98 1; 99 1; 
100 1; 101 2; 102 3; 105 157; 106 12; 
107 1; 113 6; 114 3; 115 36; 116 4; 
120 3; 126 7; 127 3; 128 2; 137 2; 
138 4; 139 28; 140 3; 141 5; 145 1; 
149 1; 150 5; 151 8; 152 12; 153 2; 
161 1; 162 3; 163 34; 164 33; 165 702; 
166 106; 167 8; 174 2; 175 1; 176 11; 
177 3; 178 6; 187 7; 188 6; 189 18; 
190 3; 191 1; 200 10; 201 8; 202 38; 
203 9; 204 1; 211 3; 212 1; 213 22; 
214 8; 215 67; 216 12; 217 1; 224 4; 
226 47; 227 30; 228 82; 229 14; 230 1; 
236 1; 237 18; 239 123; 240 43; 241 106; 
243 999; 244 201; 245 19; 250 2; 252 6; 
253 6; 254 3; 255 2; 276 1; 289 1; 
332 7; 333 2; 
