Name: .beta.-Butyrolactone
InChIKey: GSCLMSFRWBPUSK-UHFFFAOYSA-N
Formula: C4H6O2
MW: 86
ExactMass: 86.0367794
CASNO: 3068880
ID: 2759
Comment: DEA SWL / Aldrich lot 05627PD
Num Peaks: 19
30 1; 31 1; 36 2; 37 21; 38 35; 
39 125; 40 55; 41 208; 42 999; 43 443; 
44 33; 45 10; 50 1; 53 2; 55 1; 
68 1; 69 3; 71 22; 87 1; 
