Name: Valdecoxib
Synon: Bextra
InChIKey: LNPDTQAFDNKSHK-UHFFFAOYSA-N
Formula: C16H14N2O3S
MW: 314
ExactMass: 314.072514
CASNO: 181695727
ID: 2762
Comment: DEA SWL / unverified from sample
Num Peaks: 154
40 6; 41 4; 43 667; 44 20; 45 6; 
46 3; 48 8; 50 76; 51 252; 52 30; 
53 10; 54 5; 55 5; 61 9; 62 95; 
63 123; 64 74; 65 29; 66 8; 69 6; 
73 6; 74 36; 75 59; 76 102; 77 551; 
78 54; 79 5; 80 37; 81 4; 82 7; 
86 28; 87 113; 88 144; 89 155; 90 24; 
91 26; 92 7; 93 6; 94 6; 96 6; 
98 11; 99 11; 100 12; 101 28; 102 86; 
103 161; 104 92; 105 119; 106 10; 107 4; 
108 4; 109 6; 111 4; 112 4; 113 17; 
114 72; 115 35; 117 16; 118 14; 119 18; 
120 13; 121 3; 125 4; 126 13; 127 13; 
128 21; 129 12; 130 10; 131 24; 132 14; 
136 11; 137 12; 138 13; 139 28; 140 17; 
141 10; 142 6; 147 5; 150 13; 151 25; 
152 46; 153 19; 154 5; 156 29; 157 14; 
158 5; 161 4; 162 13; 163 115; 164 120; 
165 156; 166 34; 167 18; 168 137; 169 11; 
170 6; 174 4; 175 3; 176 19; 177 20; 
178 40; 179 26; 180 36; 181 14; 182 4; 
187 7; 188 24; 189 51; 190 411; 191 601; 
192 265; 193 41; 194 4; 200 12; 201 7; 
202 21; 203 14; 204 95; 205 39; 206 66; 
207 119; 208 162; 209 27; 210 5; 216 4; 
217 3; 218 4; 219 6; 220 4; 221 4; 
232 5; 233 16; 234 32; 235 8; 239 5; 
240 17; 249 9; 250 8; 271 150; 272 935; 
273 154; 274 57; 275 9; 281 3; 282 9; 
283 5; 299 321; 300 64; 301 31; 302 7; 
314 999; 315 172; 316 78; 317 13; 
