Name: Butabarbital
Synon: Butisol
Synon: 5-butan-2-yl-5-ethyl-1,3-diazinane-2,4,6-trione
InChIKey: ZRIHAIZYIMGOAB-UHFFFAOYSA-N
Formula: C10H16N2O3
MW: 212
ExactMass: 212.116093
CASNO: 125406
ID: 2765
Comment: DEA SWL
Num Peaks: 79
40 19; 41 266; 42 24; 43 30; 44 46; 
45 3; 50 4; 51 11; 52 12; 53 54; 
54 28; 55 100; 56 37; 57 135; 58 8; 
61 1; 63 2; 64 1; 65 11; 66 12; 
67 41; 68 23; 69 80; 70 44; 71 3; 
72 2; 73 2; 77 6; 78 2; 79 8; 
80 19; 81 14; 82 7; 83 21; 84 10; 
85 33; 86 3; 87 2; 91 1; 92 1; 
93 1; 94 18; 95 13; 96 16; 97 45; 
98 111; 99 6; 100 1; 106 1; 108 1; 
109 4; 110 7; 111 5; 112 57; 113 19; 
114 6; 122 3; 123 21; 124 8; 125 5; 
126 7; 127 3; 128 5; 129 3; 138 2; 
139 1; 141 992; 142 62; 143 7; 153 3; 
154 5; 155 77; 156 999; 157 125; 158 12; 
167 2; 169 2; 183 64; 184 10; 
