Name: Butorphanol
Synon: Stadol
Synon: 17-cyclobutylmethyl-morphinan-3,14-diol
InChIKey: IFKLAQQSCNILHL-UHFFFAOYSA-N
Formula: C21H29NO2
MW: 327
ExactMass: 327.21983
CASNO: 42408822
ID: 2767
Comment: DEA SWL
Num Peaks: 186
40 2; 41 83; 42 33; 43 17; 44 17; 
51 3; 52 1; 53 10; 54 7; 55 31; 
56 32; 57 10; 58 7; 60 6; 63 1; 
65 6; 66 1; 67 19; 68 11; 69 19; 
70 10; 71 1; 72 2; 73 1; 74 2; 
77 16; 78 4; 79 11; 80 9; 81 9; 
82 15; 83 5; 84 4; 85 2; 86 29; 
87 1; 89 3; 90 1; 91 23; 92 3; 
93 6; 94 6; 95 7; 96 8; 97 1; 
98 8; 99 2; 100 3; 101 3; 102 3; 
103 10; 104 3; 105 10; 106 5; 107 48; 
108 8; 109 2; 110 3; 112 4; 113 2; 
115 38; 116 12; 117 14; 118 4; 119 6; 
120 5; 121 14; 122 3; 123 2; 124 2; 
127 31; 128 26; 129 15; 130 6; 131 39; 
132 19; 133 23; 134 11; 135 6; 136 51; 
139 2; 140 1; 141 16; 142 5; 143 6; 
144 29; 145 61; 146 23; 147 13; 148 7; 
149 2; 151 1; 152 9; 153 9; 154 5; 
155 6; 156 4; 157 64; 158 26; 159 25; 
160 26; 161 7; 162 1; 164 1; 165 9; 
166 5; 167 5; 168 4; 169 11; 170 13; 
171 22; 172 13; 173 30; 174 9; 175 2; 
176 1; 177 1; 178 1; 179 4; 180 1; 
181 10; 182 7; 183 14; 184 12; 185 22; 
186 19; 187 11; 188 3; 189 1; 190 12; 
191 3; 193 2; 194 1; 195 5; 196 7; 
197 15; 198 14; 199 26; 200 8; 201 7; 
202 3; 203 1; 207 2; 208 1; 209 2; 
210 2; 211 6; 212 5; 213 5; 214 4; 
215 4; 216 5; 223 1; 224 2; 225 5; 
226 2; 227 6; 228 2; 238 1; 240 4; 
241 2; 242 10; 243 5; 244 1; 253 3; 
254 43; 255 8; 256 1; 270 2; 271 1; 
272 999; 273 190; 274 21; 275 1; 281 1; 
282 2; 298 5; 299 2; 308 4; 309 1; 
310 1; 325 1; 326 8; 327 50; 328 11; 
329 1; 
