Name: Cannabichromene
Synon: CBC
Synon: 2-Methyl-2-(4-methylpent-3-enyl)-7-pentyl-5-chromenol
InChIKey: UVOLYTDXHDXWJU-UHFFFAOYSA-N
Formula: C21H30O2
MW: 314
ExactMass: 314.22458
CASNO: 20675518
ID: 2769
Comment: DEA SWL
Num Peaks: 119
40 2; 41 56; 42 2; 43 18; 51 2; 
52 1; 53 8; 54 1; 55 25; 56 1; 
57 1; 63 2; 65 6; 66 1; 67 11; 
68 3; 69 30; 70 2; 77 14; 78 4; 
79 8; 80 1; 81 3; 82 1; 83 2; 
89 2; 90 1; 91 21; 92 3; 93 2; 
94 1; 95 2; 102 2; 103 7; 104 1; 
105 7; 106 2; 107 7; 108 1; 109 1; 
115 18; 116 5; 117 7; 118 1; 119 3; 
121 3; 123 1; 127 5; 128 10; 129 6; 
130 1; 131 12; 132 3; 133 3; 134 1; 
135 1; 136 1; 137 1; 141 3; 142 1; 
143 1; 144 3; 145 15; 146 3; 147 14; 
148 2; 149 1; 152 1; 153 1; 155 1; 
157 5; 158 2; 159 6; 160 12; 161 9; 
162 1; 163 1; 165 2; 169 1; 171 4; 
172 1; 173 33; 174 190; 175 34; 176 4; 
181 1; 183 1; 185 2; 186 4; 187 46; 
188 11; 189 3; 191 1; 193 5; 199 3; 
200 1; 201 8; 202 2; 203 1; 213 1; 
214 1; 215 2; 217 6; 227 1; 229 4; 
231 999; 232 161; 233 17; 234 1; 243 2; 
245 3; 257 3; 258 1; 271 5; 272 1; 
299 18; 300 4; 314 15; 315 3; 
