Name: Cannabidiol
Synon: CBD
Synon: 2-[(1R,6R)-6-isopropenyl-3-methylcyclohex-2-en-1-yl]-5-pentylbenzene-1,3-diol
InChIKey: QHMBSVQNZZTUGM-UHFFFAOYSA-N
Formula: C21H30O2
MW: 314
ExactMass: 314.22458
CASNO: 521379
ID: 2770
Comment: DEA SWL
Num Peaks: 191
40 5; 41 53; 42 4; 43 57; 44 1; 
51 5; 52 2; 53 23; 54 2; 55 32; 
56 2; 57 4; 63 3; 64 1; 65 16; 
66 5; 67 37; 68 22; 69 21; 70 1; 
71 5; 75 1; 76 2; 77 38; 78 10; 
79 30; 80 6; 81 14; 82 2; 83 3; 
89 4; 90 2; 91 57; 92 10; 93 19; 
94 5; 95 9; 96 1; 97 1; 101 2; 
102 4; 103 14; 104 4; 105 29; 106 7; 
107 41; 108 35; 109 13; 110 1; 111 1; 
114 1; 115 33; 116 9; 117 14; 118 4; 
119 24; 120 33; 121 87; 122 11; 123 16; 
124 6; 126 1; 127 12; 128 33; 129 18; 
130 4; 131 21; 132 6; 133 14; 134 13; 
135 8; 136 9; 137 14; 138 3; 139 3; 
140 1; 141 14; 142 6; 143 7; 144 8; 
145 17; 146 8; 147 39; 148 9; 149 9; 
150 6; 151 3; 152 17; 153 8; 154 3; 
155 5; 156 1; 157 12; 158 7; 159 29; 
160 18; 161 26; 162 5; 163 4; 164 3; 
165 12; 166 6; 167 3; 168 2; 169 4; 
170 2; 171 9; 172 8; 173 25; 174 122; 
175 65; 176 9; 177 3; 178 4; 179 3; 
180 5; 181 6; 182 4; 183 4; 184 2; 
185 6; 186 4; 187 34; 188 11; 189 18; 
190 17; 191 5; 192 1; 193 76; 194 13; 
195 14; 196 3; 197 4; 198 2; 199 6; 
200 3; 201 12; 202 4; 203 5; 204 2; 
205 1; 206 9; 207 25; 208 12; 209 3; 
210 1; 211 2; 212 1; 213 5; 214 3; 
215 6; 216 1; 217 7; 218 3; 219 5; 
220 2; 221 2; 225 1; 227 1; 228 1; 
229 38; 231 999; 232 169; 233 23; 234 2; 
241 1; 243 9; 244 3; 245 7; 246 107; 
247 18; 248 2; 255 1; 257 6; 258 10; 
259 7; 260 1; 269 1; 270 1; 271 15; 
272 5; 273 1; 283 1; 285 2; 286 4; 
297 2; 299 19; 300 4; 314 48; 315 10; 
316 1; 
