Name: Cannabinol
Synon: CBN
Synon: 6,6,9-trimethyl-3-pentyl-benzo[c]chromen-1-ol
InChIKey: VBGLYOIFKLUMQG-UHFFFAOYSA-N
Formula: C21H26O2
MW: 310
ExactMass: 310.19328
CASNO: 521357
ID: 2771
Comment: DEA SWL
Num Peaks: 161
40 2; 41 34; 42 2; 43 27; 44 1; 
51 4; 52 1; 53 5; 55 10; 56 3; 
57 5; 63 2; 64 2; 65 5; 66 1; 
67 4; 69 3; 71 1; 75 1; 76 3; 
77 9; 78 3; 79 3; 81 1; 82 3; 
83 1; 87 1; 88 1; 89 7; 90 1; 
91 10; 92 1; 93 1; 95 3; 96 1; 
97 1; 98 1; 101 2; 102 4; 103 4; 
104 5; 105 5; 106 1; 107 1; 109 2; 
110 1; 111 2; 112 3; 113 1; 115 22; 
116 5; 117 4; 118 4; 120 27; 123 1; 
125 1; 126 5; 127 13; 128 31; 129 17; 
130 3; 131 2; 139 9; 140 2; 141 23; 
142 7; 143 7; 144 1; 145 1; 146 1; 
150 2; 151 8; 152 37; 153 16; 154 3; 
155 8; 156 2; 157 2; 158 1; 161 1; 
163 4; 164 6; 165 60; 166 21; 167 10; 
168 5; 169 5; 170 3; 171 3; 172 2; 
176 5; 177 6; 178 28; 179 15; 180 5; 
181 12; 182 4; 183 4; 189 12; 190 5; 
191 12; 192 8; 193 7; 194 9; 195 24; 
196 7; 197 4; 198 2; 199 2; 200 1; 
201 1; 202 3; 203 3; 204 1; 205 7; 
206 3; 207 9; 208 8; 209 26; 210 7; 
211 9; 212 2; 215 2; 219 3; 221 10; 
223 65; 224 24; 225 15; 226 2; 227 1; 
231 1; 233 1; 234 1; 235 5; 236 4; 
238 205; 239 51; 240 7; 241 1; 247 1; 
249 3; 250 4; 251 60; 252 19; 253 20; 
254 8; 255 1; 263 2; 265 12; 266 2; 
267 9; 268 1; 281 2; 293 5; 295 999; 
296 221; 297 23; 298 2; 310 90; 311 20; 
312 2; 
