Name: Carbamazepine
Synon: Tegretol
InChIKey: FFGPTBGBLSHEPO-UHFFFAOYSA-N
Formula: C15H12N2O
MW: 236
ExactMass: 236.094963
CASNO: 298464
ID: 2772
Comment: AAFS / Probability Based Matching Data Base Entry
Num Peaks: 85
38 3; 39 14; 43 2; 44 25; 50 13; 
51 17; 52 5; 61 1; 62 14; 63 39; 
64 8; 65 6; 69 9; 74 14; 75 21; 
76 15; 77 13; 78 2; 81 15; 83 11; 
85 1; 86 9; 87 14; 88 10; 89 32; 
90 12; 91 3; 95 37; 96 21; 98 5; 
99 5; 100 4; 101 11; 102 8; 103 2; 
110 2; 111 3; 112 2; 113 14; 114 9; 
115 19; 116 5; 117 5; 125 3; 126 12; 
127 8; 128 12; 129 1; 137 8; 138 8; 
139 40; 140 30; 141 5; 149 1; 150 8; 
151 10; 152 19; 153 10; 154 3; 161 2; 
162 8; 163 58; 164 69; 165 200; 166 63; 
167 86; 168 11; 176 5; 177 22; 178 15; 
179 12; 180 2; 188 7; 189 20; 190 137; 
191 230; 192 419; 193 999; 194 149; 195 11; 
207 2; 234 2; 236 277; 237 47; 238 5; 
