Name: Celecoxib
Synon: Celebrex
InChIKey: RZEKVGVHFLEQIL-UHFFFAOYSA-N
Formula: C17H14F3N3O2S
MW: 381
ExactMass: 381.075882
CASNO: 169590425
ID: 2774
Comment: DEA SWL / unverified from sample
Num Peaks: 245
41 1; 46 1; 48 2; 50 11; 51 7; 
52 3; 53 1; 62 3; 63 19; 64 18; 
65 17; 66 2; 69 9; 70 1; 74 5; 
75 21; 76 23; 77 14; 78 5; 79 2; 
80 20; 81 2; 82 2; 83 1; 86 1; 
87 3; 88 7; 89 17; 90 14; 91 25; 
92 3; 93 1; 95 3; 96 3; 98 1; 
99 2; 100 2; 101 8; 102 15; 103 14; 
104 4; 105 2; 106 2; 107 3; 108 3; 
109 2; 110 1; 111 1; 113 5; 114 10; 
115 56; 116 22; 117 6; 118 6; 119 2; 
120 2; 123 1; 124 2; 125 3; 126 7; 
127 20; 128 10; 129 6; 130 15; 131 5; 
132 2; 133 5; 134 5; 135 1; 137 2; 
138 2; 139 22; 140 53; 142 5; 143 4; 
144 2; 145 2; 146 8; 147 8; 148 1; 
150 7; 151 12; 152 10; 153 4; 154 2; 
155 2; 156 3; 157 7; 158 2; 162 1; 
163 6; 164 11; 165 16; 166 5; 167 2; 
169 2; 171 1; 172 1; 173 1; 174 1; 
175 5; 176 9; 177 18; 178 13; 179 6; 
180 3; 181 2; 182 6; 183 1; 184 6; 
185 1; 187 1; 188 4; 189 8; 190 32; 
191 19; 192 8; 193 9; 194 3; 195 4; 
196 3; 197 3; 198 1; 200 2; 201 4; 
202 9; 203 15; 204 33; 205 18; 206 14; 
207 3; 208 2; 209 1; 210 2; 214 2; 
215 7; 216 17; 217 13; 218 4; 219 5; 
220 3; 221 2; 222 1; 223 1; 225 5; 
226 2; 227 1; 228 2; 229 12; 230 10; 
231 27; 232 24; 233 6; 234 2; 235 2; 
236 2; 237 1; 238 2; 239 3; 240 2; 
241 3; 242 1; 246 3; 247 6; 248 2; 
249 3; 250 2; 251 3; 252 2; 253 3; 
254 4; 255 25; 256 5; 257 1; 258 1; 
259 2; 260 6; 261 8; 262 2; 263 1; 
264 1; 265 7; 266 7; 267 3; 268 1; 
269 5; 270 1; 271 1; 272 1; 273 8; 
274 3; 275 17; 276 5; 277 1; 278 3; 
279 12; 280 33; 281 97; 282 22; 283 3; 
284 2; 285 13; 286 51; 287 16; 288 2; 
289 2; 296 2; 297 7; 298 4; 299 41; 
300 295; 301 133; 302 22; 303 2; 311 1; 
312 8; 313 1; 314 1; 315 4; 316 12; 
317 24; 318 6; 331 1; 346 5; 347 2; 
348 2; 349 6; 350 1; 352 2; 353 1; 
360 48; 361 11; 362 58; 363 13; 364 4; 
365 4; 366 18; 367 3; 368 1; 380 100; 
381 999; 382 202; 383 67; 384 10; 385 1; 
