Name: Codeine
Synon: 3-methylmorphine
Synon: (5.alpha.,6.alpha.)-7,8-didehydro-4,5-epoxy-3-methoxy-17-methylmorphinan-6-ol
InChIKey: OROGSEYTTFOCAN-UHFFFAOYSA-N
Formula: C18H21NO3
MW: 299
ExactMass: 299.152143
CASNO: 76573
ID: 2777
Comment: DEA SWL
Num Peaks: 230
36 2; 38 8; 39 94; 40 15; 41 73; 
42 545; 43 63; 44 300; 45 13; 50 18; 
51 82; 52 28; 53 86; 54 23; 55 109; 
56 37; 57 71; 58 69; 59 243; 60 18; 
62 14; 63 67; 64 27; 65 79; 66 21; 
67 37; 68 43; 69 21; 70 167; 71 19; 
72 11; 73 4; 74 14; 75 30; 76 35; 
77 159; 78 54; 79 37; 80 41; 81 199; 
82 100; 83 38; 84 15; 85 5; 86 15; 
87 15; 88 15; 89 72; 90 29; 91 134; 
92 17; 93 24; 94 159; 95 36; 96 90; 
97 28; 98 14; 99 14; 100 7; 101 32; 
102 62; 103 105; 104 29; 105 45; 106 27; 
107 37; 108 42; 109 71; 110 34; 111 7; 
112 19; 113 28; 114 44; 115 389; 116 114; 
117 75; 118 42; 119 26; 120 24; 121 5; 
122 68; 123 26; 124 361; 125 38; 126 36; 
127 151; 128 201; 129 87; 130 32; 131 91; 
132 50; 133 38; 134 38; 135 13; 136 32; 
137 19; 138 20; 139 101; 140 48; 141 119; 
142 38; 143 52; 144 103; 145 57; 146 137; 
147 44; 148 27; 149 9; 150 17; 151 58; 
152 187; 153 118; 154 42; 155 76; 156 42; 
157 52; 158 43; 159 46; 160 56; 161 71; 
162 639; 163 91; 164 25; 165 119; 166 41; 
167 52; 168 77; 169 81; 170 51; 171 64; 
172 24; 173 64; 174 42; 175 105; 176 50; 
177 26; 178 62; 179 39; 180 25; 181 112; 
182 52; 183 55; 184 45; 185 100; 186 50; 
187 69; 188 218; 189 56; 190 35; 191 15; 
192 8; 193 24; 194 21; 195 38; 196 38; 
197 84; 198 72; 199 65; 200 40; 201 31; 
202 35; 203 9; 204 13; 205 11; 206 9; 
207 19; 208 15; 209 53; 210 32; 211 53; 
212 46; 213 57; 214 246; 215 52; 216 28; 
217 22; 218 15; 219 13; 220 12; 221 8; 
222 8; 223 24; 224 26; 225 93; 226 37; 
227 35; 228 46; 229 326; 230 91; 231 13; 
235 3; 236 7; 237 6; 238 23; 239 22; 
240 47; 241 42; 242 107; 243 26; 244 6; 
248 2; 250 12; 251 10; 252 18; 253 11; 
254 32; 255 16; 256 49; 257 10; 262 4; 
264 3; 265 2; 266 38; 267 15; 268 19; 
269 6; 270 45; 271 15; 280 104; 281 36; 
282 116; 283 29; 284 74; 285 14; 296 2; 
297 37; 298 151; 299 999; 300 189; 301 25; 
