Name: Dexamethasone
InChIKey: UREBDLICKHMUKA-UHFFFAOYSA-N
Formula: C22H29FO5
MW: 392
ExactMass: 392.199902
CASNO: 50022
ID: 2779
Comment: DEA SWL / unverified from sample
Num Peaks: 203
40 14; 41 104; 42 21; 43 49; 44 11; 
45 8; 47 6; 49 2; 50 2; 51 19; 
52 11; 53 49; 54 7; 55 91; 56 11; 
57 14; 58 4; 59 15; 61 2; 63 7; 
64 6; 65 30; 66 9; 67 38; 68 7; 
69 43; 70 4; 71 6; 73 21; 74 4; 
75 8; 76 3; 77 85; 78 22; 79 57; 
80 11; 81 52; 82 13; 83 14; 84 5; 
85 10; 86 2; 87 6; 88 7; 89 10; 
90 5; 91 195; 92 42; 93 56; 94 13; 
95 36; 96 19; 97 17; 98 6; 99 12; 
100 2; 101 8; 102 5; 103 23; 104 7; 
105 38; 106 10; 107 89; 108 50; 109 62; 
110 20; 111 32; 112 4; 113 13; 115 51; 
116 16; 117 23; 118 7; 119 23; 120 29; 
121 404; 122 999; 123 133; 124 33; 125 37; 
126 7; 127 33; 128 32; 129 25; 130 9; 
131 34; 132 12; 133 62; 134 94; 135 99; 
136 28; 137 23; 138 5; 139 75; 140 11; 
141 20; 142 13; 143 12; 144 11; 145 48; 
146 31; 147 64; 148 11; 149 16; 150 9; 
151 14; 152 30; 153 18; 154 5; 155 8; 
156 4; 157 10; 158 21; 159 56; 160 162; 
161 33; 162 8; 163 18; 164 5; 165 18; 
166 9; 167 4; 168 5; 169 10; 170 5; 
171 19; 172 12; 173 34; 174 8; 175 7; 
176 3; 177 12; 178 11; 179 15; 180 5; 
181 9; 182 3; 183 8; 184 9; 185 12; 
186 27; 187 34; 188 6; 189 6; 191 9; 
192 3; 193 9; 194 3; 195 9; 196 6; 
197 9; 198 6; 199 11; 200 2; 203 3; 
205 4; 207 18; 208 7; 209 19; 210 5; 
211 8; 212 7; 213 15; 214 13; 215 5; 
221 4; 222 4; 223 14; 224 13; 225 8; 
226 5; 227 14; 228 6; 231 2; 235 4; 
237 7; 238 3; 239 3; 240 3; 241 7; 
242 23; 243 5; 249 3; 251 9; 252 2; 
253 7; 255 3; 261 3; 265 2; 267 5; 
268 32; 269 15; 270 3; 279 5; 281 5; 
283 3; 284 15; 285 3; 294 3; 297 4; 
312 87; 313 19; 314 2; 
