Name: Allobarbital
Synon: Diallylbarbituric acid
Synon: Allobarbitone
Synon: 5,5-diprop-2-enyl-1,3-diazinane-2,4,6-trione
InChIKey: FDQGNLOWMMVRQL-UHFFFAOYSA-N
Formula: C10H12N2O3
MW: 208
ExactMass: 208.084792
CASNO: 52437
ID: 2782
Comment: DEA SWL
Num Peaks: 124
40 88; 41 804; 42 88; 43 176; 44 153; 
45 11; 46 1; 49 4; 50 61; 51 149; 
52 173; 53 479; 54 109; 55 75; 56 42; 
57 16; 58 1; 59 3; 60 1; 61 5; 
62 12; 63 37; 64 14; 65 116; 66 82; 
67 174; 68 299; 69 54; 70 103; 71 7; 
73 2; 74 2; 75 3; 76 6; 77 174; 
78 148; 79 212; 80 683; 81 169; 82 40; 
83 27; 84 3; 85 4; 87 3; 89 6; 
90 1; 91 137; 92 35; 93 59; 94 59; 
95 63; 96 244; 97 110; 98 129; 99 15; 
103 1; 104 10; 105 17; 106 337; 107 65; 
108 45; 109 30; 110 17; 111 6; 112 4; 
113 2; 114 1; 116 2; 117 5; 118 13; 
119 16; 120 47; 121 27; 122 109; 123 69; 
124 870; 125 73; 126 9; 128 2; 129 12; 
132 2; 133 5; 134 3; 135 4; 136 56; 
137 33; 138 16; 139 15; 140 2; 141 284; 
142 32; 143 4; 146 1; 147 8; 148 17; 
149 20; 150 77; 151 79; 152 46; 153 56; 
154 79; 155 7; 156 16; 157 2; 162 2; 
163 7; 164 7; 165 340; 166 491; 167 999; 
168 98; 169 11; 175 3; 176 1; 179 173; 
180 66; 181 7; 190 3; 191 7; 193 185; 
194 20; 195 1; 207 6; 208 11; 
