Name: Dihydrocodeine
Synon: DHC
Synon: Drocode
Synon: Paracodeine
Synon: Parzone
Synon: 4,5-alpha-epoxy-3-methoxy-17-methylmorphinan-6-ol
InChIKey: RBOXVHNMENFORY-UHFFFAOYSA-N
Formula: C18H23NO3
MW: 301
ExactMass: 301.167793
CASNO: 125280
ID: 2784
Comment: DEA SWL
Num Peaks: 231
40 5; 41 44; 42 212; 43 45; 44 172; 
45 9; 50 6; 51 27; 52 11; 53 28; 
54 11; 55 73; 56 23; 57 70; 58 56; 
59 185; 60 18; 62 4; 63 26; 64 11; 
65 38; 66 11; 67 21; 68 28; 69 13; 
70 219; 71 43; 72 16; 74 6; 75 12; 
76 16; 77 85; 78 30; 79 32; 80 14; 
81 22; 82 111; 83 40; 84 23; 85 7; 
86 6; 87 6; 88 7; 89 36; 91 86; 
92 19; 93 15; 94 51; 95 20; 96 60; 
97 19; 98 23; 99 6; 100 3; 101 15; 
102 36; 103 59; 104 21; 105 33; 106 14; 
107 36; 108 43; 109 24; 110 12; 112 9; 
113 19; 114 37; 115 263; 116 67; 117 43; 
118 26; 119 16; 120 34; 121 29; 122 28; 
123 18; 124 9; 125 4; 126 47; 127 107; 
128 177; 129 86; 130 29; 131 67; 132 33; 
133 19; 134 32; 135 15; 136 35; 137 27; 
138 17; 139 40; 140 19; 141 94; 142 39; 
143 53; 144 89; 145 54; 146 101; 147 31; 
148 23; 149 10; 150 33; 151 39; 152 62; 
153 72; 154 34; 155 76; 156 41; 157 59; 
158 46; 159 49; 160 30; 161 42; 162 57; 
163 28; 164 330; 165 93; 166 23; 167 23; 
168 45; 169 51; 170 46; 171 64; 172 36; 
173 47; 174 43; 175 59; 176 28; 177 15; 
178 32; 179 14; 180 10; 181 52; 182 32; 
183 81; 184 52; 185 173; 186 57; 187 86; 
188 79; 189 35; 190 35; 191 9; 192 6; 
193 13; 194 12; 195 18; 196 18; 197 31; 
198 55; 199 127; 200 62; 201 60; 202 42; 
203 15; 204 10; 205 3; 206 11; 207 1; 
208 5; 209 12; 210 15; 211 40; 212 34; 
213 64; 214 63; 215 63; 216 37; 217 15; 
218 9; 219 6; 220 1; 221 2; 222 3; 
223 4; 224 12; 225 28; 226 57; 227 62; 
228 74; 229 43; 230 71; 231 18; 232 6; 
233 1; 236 2; 237 2; 238 7; 239 8; 
240 28; 241 17; 242 155; 243 70; 244 175; 
245 51; 246 9; 250 2; 251 1; 252 5; 
253 3; 254 15; 255 6; 256 59; 257 74; 
258 70; 259 12; 260 2; 264 1; 266 8; 
267 2; 268 19; 269 8; 270 16; 271 5; 
272 56; 273 13; 274 2; 282 29; 283 11; 
284 144; 285 29; 286 126; 287 24; 288 2; 
298 2; 300 197; 301 999; 302 201; 303 25; 
304 2; 
