Name: Diosgenin
Synon: (3.beta.,25R)-spirost-5-en-3-ol
InChIKey: WQLVFSAGQJTQCK-UHFFFAOYSA-N
Formula: C27H42O3
MW: 414
ExactMass: 414.313395
CASNO: 512049
ID: 2787
Comment: DEA SWL
Num Peaks: 232
40 4; 41 112; 42 58; 43 102; 44 5; 
45 5; 51 3; 52 1; 53 32; 54 8; 
55 234; 56 33; 57 79; 58 5; 59 3; 
65 18; 66 6; 67 95; 68 16; 69 263; 
70 25; 71 16; 72 4; 73 10; 74 1; 
77 56; 78 14; 79 126; 80 18; 81 110; 
82 15; 83 29; 84 7; 85 14; 86 2; 
87 1; 89 1; 90 1; 91 165; 92 32; 
93 131; 94 27; 95 105; 96 16; 97 67; 
98 8; 99 16; 100 3; 101 1; 103 12; 
104 11; 105 162; 106 35; 107 115; 108 32; 
109 73; 110 14; 111 18; 112 8; 113 12; 
114 25; 115 155; 116 22; 117 62; 118 24; 
119 108; 120 49; 121 96; 122 46; 123 33; 
124 13; 125 40; 126 53; 127 16; 128 26; 
129 45; 130 21; 131 80; 132 25; 133 80; 
134 20; 135 29; 136 9; 137 12; 138 2; 
139 999; 140 114; 141 26; 142 18; 143 66; 
144 30; 145 102; 146 27; 147 62; 148 15; 
149 20; 150 5; 151 11; 152 4; 153 4; 
154 4; 155 17; 156 8; 157 56; 158 58; 
159 84; 160 29; 161 59; 162 24; 163 14; 
164 8; 165 11; 166 4; 167 11; 168 23; 
169 17; 170 7; 171 36; 172 18; 173 33; 
174 20; 175 32; 176 19; 177 13; 178 4; 
179 4; 180 3; 181 10; 182 4; 183 18; 
184 6; 185 22; 186 8; 187 15; 188 9; 
189 16; 190 5; 191 1; 192 1; 193 2; 
194 1; 195 5; 196 3; 197 20; 198 7; 
199 28; 200 8; 201 8; 202 2; 203 4; 
204 1; 205 2; 209 1; 210 1; 211 12; 
212 14; 213 19; 214 14; 215 14; 216 6; 
217 4; 218 3; 221 1; 223 1; 224 1; 
225 11; 226 4; 227 14; 228 5; 229 4; 
230 11; 231 8; 232 6; 233 3; 234 1; 
235 1; 237 6; 238 2; 239 4; 240 6; 
241 19; 242 6; 243 7; 244 2; 245 3; 
251 2; 252 2; 253 29; 254 9; 255 4; 
256 1; 257 5; 258 16; 259 9; 260 1; 
267 64; 268 16; 269 6; 270 4; 271 84; 
272 20; 273 2; 282 153; 283 46; 284 10; 
285 39; 286 9; 287 3; 288 1; 298 2; 
300 55; 301 15; 302 2; 309 2; 311 7; 
312 1; 315 2; 326 10; 327 9; 328 2; 
329 1; 342 41; 343 11; 344 9; 345 8; 
346 1; 355 11; 356 3; 381 1; 399 1; 
414 7; 415 2; 
