Name: Venlafaxine
Synon: Effexor
Synon: (RS)-1-[2-dimethylamino-1-(4-methoxyphenyl)-ethyl]cyclohexanol
InChIKey: PNVNVHUZROJLTJ-UHFFFAOYSA-N
Formula: C17H27NO2
MW: 277
ExactMass: 277.20418
CASNO: 93413446
ID: 2792
Comment: DEA SWL / unverified from sample
Num Peaks: 92
40 1; 41 13; 42 19; 43 10; 44 9; 
45 6; 51 3; 52 1; 53 5; 54 1; 
55 21; 56 4; 57 7; 58 999; 59 35; 
63 2; 64 1; 65 12; 66 1; 67 2; 
69 3; 70 2; 71 1; 72 1; 74 2; 
76 1; 77 17; 78 7; 79 11; 80 1; 
81 20; 82 2; 83 1; 89 5; 90 3; 
91 41; 92 5; 93 2; 94 4; 98 1; 
99 5; 102 3; 103 8; 104 3; 105 6; 
106 1; 107 3; 108 2; 109 3; 115 6; 
116 2; 117 3; 118 4; 119 39; 120 10; 
121 34; 122 4; 127 1; 128 3; 129 2; 
130 1; 131 4; 132 4; 133 7; 134 237; 
135 28; 136 2; 137 5; 141 1; 144 3; 
145 3; 146 4; 147 7; 148 11; 149 2; 
158 1; 159 3; 160 2; 161 1; 162 11; 
163 9; 164 1; 171 1; 173 1; 174 1; 
175 1; 176 1; 177 3; 178 12; 179 36; 
180 4; 202 4; 
