Name: Embutramide
Synon: N-[2-ethyl-2-(3-methoxyphenyl)butyl]-4-hydroxybutanamide
InChIKey: LMBMDLOSPKIWAP-UHFFFAOYSA-N
Formula: C17H27NO3
MW: 293
ExactMass: 293.199093
CASNO: 15687146
ID: 2793
Comment: AAFS
Num Peaks: 134
42 18; 43 64; 44 14; 45 29; 46 1; 
50 2; 51 9; 52 4; 53 16; 54 5; 
55 47; 56 16; 57 16; 58 18; 59 15; 
60 1; 62 1; 63 10; 64 8; 65 29; 
66 5; 67 6; 68 5; 69 154; 70 13; 
71 2; 72 20; 73 32; 74 2; 75 2; 
76 6; 77 74; 78 44; 79 38; 80 4; 
81 3; 82 1; 83 4; 84 7; 85 11; 
86 57; 87 136; 88 7; 89 20; 90 21; 
91 158; 92 25; 93 9; 94 15; 95 3; 
96 1; 98 26; 99 20; 100 6; 101 2; 
102 16; 103 56; 104 39; 105 68; 106 14; 
107 22; 108 53; 109 32; 110 3; 115 70; 
116 50; 117 132; 118 32; 119 20; 120 21; 
121 999; 122 99; 123 9; 124 1; 126 1; 
127 9; 128 21; 129 21; 130 17; 131 48; 
132 21; 133 25; 134 26; 135 675; 136 80; 
137 6; 141 2; 142 1; 143 3; 144 8; 
145 24; 146 19; 147 68; 148 30; 149 47; 
150 9; 151 1; 157 1; 158 3; 159 11; 
160 10; 161 112; 162 73; 163 37; 164 5; 
165 1; 172 1; 173 2; 174 3; 175 25; 
176 51; 177 142; 178 91; 179 11; 180 1; 
188 1; 190 822; 191 124; 192 12; 193 1; 
204 1; 205 1; 206 6; 207 1; 222 4; 
234 4; 249 1; 262 2; 263 1; 264 1; 
274 1; 293 55; 294 12; 295 1; 
