Name: Ephedrine
Synon: (R*,S*)-2-(methylamino)-1-phenylpropan-1-ol
InChIKey: KWGRBVOPPLSCSI-UHFFFAOYSA-N
Formula: C10H15NO
MW: 165
ExactMass: 165.115364
CASNO: 299423
ID: 2794
Comment: DEA SWL
Num Peaks: 50
40 2; 41 9; 42 33; 43 24; 44 16; 
50 13; 51 38; 52 12; 53 8; 54 3; 
55 5; 56 44; 58 999; 59 34; 62 3; 
63 9; 64 2; 65 7; 66 1; 70 1; 
72 1; 73 1; 74 4; 75 3; 77 113; 
78 28; 79 47; 80 3; 87 1; 88 1; 
89 6; 90 3; 91 15; 92 1; 102 1; 
103 4; 105 28; 106 7; 107 10; 115 8; 
116 3; 117 13; 118 3; 130 4; 131 6; 
132 6; 133 3; 134 1; 144 1; 146 2; 
