Name: Fenethylline
Synon: Captagon
Synon: Phenethylline
Synon: (RS)-1,3-dimethyl- 7-[2-(1-phenylpropan-2-ylamino)ethyl]purine- 2,6-dione
InChIKey: NMCHYWGKBADVMK-UHFFFAOYSA-N
Formula: C18H23N5O2
MW: 341
ExactMass: 341.185175
CASNO: 3736081
ID: 2799
Comment: DEA SWL
Num Peaks: 123
40 11; 41 53; 42 84; 43 35; 44 24; 
45 1; 50 2; 51 11; 52 7; 53 13; 
54 39; 55 15; 56 92; 57 24; 58 8; 
62 1; 63 8; 64 2; 65 53; 66 12; 
67 31; 68 44; 69 32; 70 296; 71 19; 
73 1; 75 2; 76 1; 77 19; 78 10; 
79 16; 80 9; 81 37; 82 15; 83 8; 
89 13; 90 5; 91 437; 92 41; 93 12; 
94 37; 95 59; 96 16; 97 37; 98 2; 
102 2; 103 13; 104 10; 105 10; 106 2; 
107 6; 108 13; 109 30; 110 14; 111 4; 
115 21; 116 6; 117 23; 118 14; 119 91; 
120 18; 121 10; 122 34; 123 22; 124 17; 
125 14; 128 1; 129 3; 130 6; 131 5; 
132 5; 133 3; 134 26; 135 9; 136 14; 
137 12; 138 25; 139 1; 143 1; 144 6; 
145 1; 146 14; 147 8; 148 79; 149 13; 
150 16; 151 10; 152 11; 158 1; 159 7; 
160 9; 161 3; 162 3; 163 8; 164 2; 
165 28; 166 4; 177 4; 179 2; 180 12; 
181 67; 182 6; 191 1; 192 2; 193 34; 
194 10; 195 3; 206 4; 207 456; 208 54; 
209 5; 221 1; 222 3; 235 2; 248 4; 
250 999; 251 143; 252 13; 253 2; 326 2; 
327 1; 340 1; 341 1; 
