Name: gamma-Phenyl-gamma-butyrolactone
Synon: .gamma.-Phenyl-.gamma.-butyrolactone
InChIKey: AEUULUMEYIPECD-UHFFFAOYSA-N
Formula: C10H10O2
MW: 162
ExactMass: 162.06808
CASNO: 1008760
ID: 2802
Comment: DEA SWL
Num Peaks: 72
40 16; 41 23; 42 27; 43 7; 44 6; 
45 6; 49 7; 50 163; 51 402; 52 96; 
53 30; 54 5; 55 56; 56 892; 57 69; 
58 58; 61 11; 62 38; 63 100; 64 24; 
65 91; 66 19; 67 3; 73 6; 74 46; 
75 33; 76 41; 77 517; 78 234; 79 219; 
80 14; 84 14; 85 44; 86 10; 87 12; 
88 4; 89 71; 90 23; 91 264; 92 27; 
93 1; 94 1; 98 1; 101 2; 102 22; 
103 70; 104 21; 105 801; 106 110; 107 986; 
108 75; 109 4; 113 2; 114 2; 115 199; 
116 44; 117 638; 118 286; 119 26; 120 17; 
121 2; 131 4; 133 42; 134 18; 135 1; 
144 4; 145 1; 160 2; 161 173; 162 999; 
163 116; 164 10; 
