Name: Guaifenesin
Synon: Guaiphenesin
Synon: Glyceryl guaiacolate
Synon: Mucinex
Synon: (RS)-3-(2-methoxyphenoxy)propane-1,2-diol
InChIKey: HSRJKNPTNIJEKV-UHFFFAOYSA-N
Formula: C10H14O4
MW: 198
ExactMass: 198.089209
CASNO: 93141
ID: 2805
Comment: DEA SWL
Num Peaks: 72
40 3; 41 21; 42 6; 43 26; 44 6; 
45 19; 47 1; 49 1; 50 20; 51 44; 
52 67; 53 31; 54 5; 55 12; 56 2; 
57 25; 58 1; 59 1; 60 1; 61 6; 
62 6; 63 31; 64 28; 65 59; 66 8; 
67 12; 68 1; 69 1; 73 2; 74 6; 
75 6; 76 7; 77 126; 78 20; 79 16; 
80 23; 81 128; 82 7; 86 1; 91 5; 
92 45; 93 17; 94 10; 95 66; 96 7; 
105 3; 106 1; 107 7; 108 13; 109 596; 
110 47; 111 4; 121 27; 122 64; 123 64; 
124 999; 125 77; 126 7; 135 2; 137 14; 
138 18; 139 2; 149 29; 150 3; 151 1; 
164 1; 166 3; 167 22; 168 2; 198 175; 
199 18; 200 2; 
