Name: Methocarbamol
Synon: Guaifenesin carbamate
Synon: Robaxin
Synon: 2-hydroxy-3-(2-methoxyphenoxy)propyl carbamate
InChIKey: GNXFOGHNGIVQEH-UHFFFAOYSA-N
Formula: C11H15NO5
MW: 241
ExactMass: 241.095022
CASNO: 532036
ID: 2806
Comment: DEA SWL
Num Peaks: 68
41 30; 42 26; 43 114; 44 139; 45 48; 
46 2; 50 22; 51 54; 52 86; 53 33; 
54 2; 55 16; 57 163; 58 5; 61 53; 
62 125; 63 43; 64 38; 65 80; 66 10; 
67 17; 73 9; 74 30; 75 102; 76 14; 
77 191; 78 27; 79 22; 80 33; 81 142; 
82 9; 91 10; 92 67; 93 25; 94 15; 
95 85; 96 7; 104 15; 105 3; 107 13; 
108 15; 109 607; 110 50; 111 2; 118 999; 
119 55; 120 6; 121 43; 122 106; 123 78; 
124 698; 125 57; 126 5; 135 5; 137 28; 
138 18; 147 2; 149 33; 150 2; 166 4; 
167 39; 168 2; 198 57; 199 3; 207 2; 
224 9; 241 30; 242 2; 
