Name: Lamotrigine
Synon: Lamictal
InChIKey: PYZRQGJRPPTADH-UHFFFAOYSA-N
Formula: C9H7Cl2N5
MW: 255
ExactMass: 255.007851
CASNO: 84057841
ID: 2812
Comment: DEA SWL / unverified from sample
Num Peaks: 149
40 2; 41 10; 42 63; 43 133; 44 3; 
47 3; 48 1; 49 11; 50 27; 51 16; 
52 20; 53 23; 54 3; 55 2; 57 19; 
58 1; 60 6; 61 38; 62 46; 63 36; 
64 15; 65 25; 66 5; 67 2; 68 12; 
69 1; 71 2; 72 11; 73 60; 74 36; 
75 71; 76 48; 77 8; 78 3; 82 3; 
83 11; 84 21; 85 38; 86 60; 87 118; 
88 57; 89 35; 90 12; 91 2; 93 4; 
94 3; 95 3; 96 17; 97 34; 98 16; 
99 32; 100 67; 101 15; 102 11; 103 3; 
107 16; 108 4; 109 32; 110 19; 111 34; 
112 19; 113 24; 114 287; 115 63; 116 6; 
117 1; 119 1; 120 4; 121 13; 122 55; 
123 347; 124 55; 125 114; 126 12; 127 4; 
128 1; 129 4; 131 3; 132 1; 133 4; 
134 3; 135 5; 136 42; 137 11; 138 17; 
139 4; 140 1; 142 3; 143 1; 144 2; 
145 3; 146 1; 147 6; 148 26; 149 36; 
150 119; 151 25; 152 37; 153 5; 156 2; 
157 150; 158 17; 159 96; 160 10; 161 16; 
162 2; 163 2; 165 4; 167 1; 171 28; 
172 15; 173 22; 174 11; 175 5; 176 2; 
178 5; 180 1; 183 1; 184 26; 185 999; 
186 108; 187 639; 188 60; 189 105; 190 9; 
191 2; 192 8; 193 1; 194 3; 199 9; 
200 3; 201 6; 202 2; 212 2; 214 1; 
220 9; 221 1; 222 3; 226 2; 227 4; 
228 1; 229 2; 254 9; 255 332; 256 45; 
257 212; 258 27; 259 37; 260 4; 
