Name: Methadone
Synon: Dolophine
Synon: Methadose
Synon: (RS)-6-(Dimethylamino)-4,4-diphenylheptan-3-one
InChIKey: USSIQXCVUWKGNF-UHFFFAOYSA-N
Formula: C21H27NO
MW: 309
ExactMass: 309.209265
CASNO: 76993
ID: 2821
Comment: DEA SWL
Num Peaks: 86
41 2; 42 20; 43 4; 44 19; 45 1; 
50 1; 51 4; 52 1; 54 1; 55 3; 
56 29; 57 38; 58 7; 63 2; 65 2; 
70 20; 71 9; 72 999; 73 45; 74 1; 
75 1; 76 2; 77 9; 78 2; 79 1; 
84 2; 85 15; 86 6; 87 1; 89 3; 
91 32; 92 2; 102 7; 103 5; 104 1; 
105 13; 106 1; 115 23; 116 4; 117 11; 
118 1; 126 1; 127 3; 128 7; 129 7; 
130 5; 131 2; 139 3; 141 1; 144 1; 
145 1; 146 1; 150 1; 151 2; 152 8; 
153 2; 158 1; 160 3; 163 3; 164 4; 
165 32; 166 6; 167 5; 176 3; 177 2; 
178 19; 179 11; 180 4; 189 2; 190 1; 
191 3; 192 1; 193 5; 194 2; 195 5; 
202 1; 203 1; 207 2; 208 3; 223 11; 
224 2; 236 1; 265 1; 294 13; 295 2; 
309 1; 
