Name: JWH-018 N-(2-methylbutyl) isomer
Synon: JWH-073 2-methylbutyl homolog
Synon: N-(2-methylbutyl)-3-(1-naphthoyl)-indole
InChIKey: DAZJHNOTFUBQMK-UHFFFAOYSA-N
Formula: C24H23NO
MW: 341
ExactMass: 341.177965
CASNO: 0
ID: 2825
Comment: Provided by www.caymanchem.com/app/template/landing%2CForensic.vm / Item #10690  Lot #0428073
Num Peaks: 164
41 90; 43 140; 44 6; 50 5; 51 15; 
52 3; 53 8; 55 25; 56 3; 57 10; 
62 5; 63 12; 64 1; 65 3; 69 2; 
71 11; 73 3; 74 8; 75 24; 76 18; 
77 48; 78 10; 79 1; 86 2; 87 7; 
88 13; 89 31; 90 5; 91 2; 93 2; 
95 3; 98 2; 99 3; 100 6; 101 52; 
102 53; 103 19; 104 3; 107 5; 108 2; 
109 1; 113 17; 114 18; 115 38; 116 63; 
117 19; 118 2; 119 2; 121 11; 125 6; 
126 74; 127 500; 128 150; 129 76; 130 45; 
131 5; 133 4; 134 2; 135 4; 138 1; 
139 16; 140 5; 141 30; 143 16; 144 191; 
145 23; 150 3; 151 4; 152 6; 153 4; 
155 276; 156 45; 157 8; 158 5; 162 2; 
163 7; 164 3; 165 3; 167 116; 168 18; 
169 1; 170 6; 174 1; 175 1; 176 4; 
177 1; 178 1; 182 1; 184 8; 185 2; 
186 19; 187 14; 188 8; 189 13; 190 3; 
191 1; 198 2; 199 1; 200 6; 201 4; 
202 7; 203 2; 207 5; 211 6; 212 9; 
213 49; 214 282; 215 78; 216 11; 217 2; 
224 8; 225 7; 226 32; 227 18; 228 20; 
229 11; 230 2; 237 2; 238 9; 239 19; 
240 48; 241 114; 242 58; 243 14; 244 3; 
251 7; 252 10; 253 24; 254 157; 255 70; 
256 73; 257 16; 258 3; 264 2; 266 38; 
267 33; 268 28; 269 59; 270 204; 271 51; 
272 10; 280 2; 281 3; 282 23; 284 999; 
285 240; 286 30; 287 1; 294 2; 296 1; 
298 2; 310 1; 312 7; 313 5; 314 1; 
322 10; 324 120; 325 34; 326 7; 340 152; 
341 673; 342 179; 343 23; 344 2; 
