Name: JWH-018 N-(2,2-dimethylpropyl) isomer
Synon: Naphthalen-1-yl(1-neopentyl-1H-indol-3-yl)methanone
InChIKey: VAWLMOLQJCGJAZ-UHFFFAOYSA-N
Formula: C24H23NO
MW: 341
ExactMass: 341.177965
CASNO: 0
ID: 2826
Comment: Provided by www.caymanchem.com/app/template/landing%2CForensic.vm / Item #9001001  Lot #0429775
Num Peaks: 119
41 37; 43 26; 44 8; 51 2; 55 6; 
57 22; 63 1; 71 1; 74 3; 75 17; 
76 7; 77 31; 78 9; 88 3; 89 14; 
96 3; 100 1; 101 29; 102 37; 103 14; 
113 5; 114 2; 115 20; 116 26; 117 14; 
119 3; 120 1; 126 44; 127 390; 128 119; 
129 70; 130 43; 131 2; 133 27; 134 1; 
135 13; 139 6; 141 13; 142 5; 143 2; 
144 88; 145 7; 147 6; 149 4; 151 2; 
152 4; 154 7; 155 262; 156 48; 157 7; 
158 28; 159 1; 163 8; 165 1; 167 53; 
168 6; 170 2; 177 3; 179 1; 186 2; 
187 5; 188 1; 189 6; 191 4; 192 3; 
193 2; 195 5; 197 1; 198 5; 201 2; 
202 4; 209 4; 212 2; 213 28; 214 105; 
215 33; 216 3; 224 4; 225 5; 226 27; 
227 7; 228 9; 229 6; 238 1; 239 15; 
240 31; 241 66; 242 21; 243 2; 251 10; 
252 3; 253 28; 254 125; 255 63; 256 55; 
257 11; 265 13; 266 28; 267 35; 268 85; 
269 50; 270 87; 271 19; 281 6; 282 21; 
283 2; 284 999; 285 259; 286 30; 324 17; 
325 6; 326 10; 327 11; 328 1; 331 2; 
340 5; 341 396; 342 108; 343 15; 
