Name: JWH-018 N-(1-ethylpropyl) isomer
Synon: Naphthalen-1-yl(1-(pentan-3-yl)-1H-indol-3-yl)methanone
InChIKey: OEESYRPHKQOKLA-UHFFFAOYSA-N
Formula: C24H23NO
MW: 341
ExactMass: 341.177965
CASNO: 0
ID: 2828
Comment: Provided by www.caymanchem.com/app/template/landing%2CForensic.vm / Item #11585  Lot #0437006
Num Peaks: 179
40 5; 41 62; 42 12; 43 136; 44 5; 
50 2; 51 11; 52 1; 53 5; 55 21; 
56 1; 62 5; 63 9; 64 2; 65 4; 
69 1; 70 1; 71 12; 74 6; 75 21; 
76 10; 77 40; 78 5; 86 2; 87 6; 
88 11; 89 46; 90 7; 91 2; 94 1; 
95 4; 96 1; 98 1; 99 3; 100 5; 
101 44; 102 11; 103 3; 107 8; 111 1; 
113 9; 114 15; 115 58; 116 83; 117 11; 
118 1; 120 4; 121 18; 125 5; 126 59; 
127 391; 128 91; 129 19; 130 11; 131 1; 
134 6; 135 14; 137 1; 139 7; 140 6; 
142 17; 144 252; 145 29; 146 3; 147 2; 
149 7; 150 2; 151 4; 152 5; 153 4; 
155 328; 156 60; 157 7; 158 2; 161 1; 
162 1; 163 5; 164 2; 165 4; 166 1; 
167 7; 168 2; 169 1; 170 32; 171 4; 
174 2; 175 1; 176 3; 177 1; 178 1; 
179 1; 184 25; 185 5; 186 4; 187 11; 
188 7; 189 12; 190 3; 191 3; 192 1; 
198 2; 199 1; 200 3; 201 3; 202 5; 
203 1; 211 5; 212 9; 213 56; 214 131; 
215 66; 216 13; 217 2; 224 4; 225 6; 
226 17; 227 10; 228 5; 229 1; 237 1; 
238 10; 239 12; 240 54; 241 142; 242 75; 
243 22; 244 4; 249 1; 250 1; 251 7; 
252 9; 253 15; 254 101; 255 34; 256 7; 
257 1; 264 2; 265 3; 266 4; 267 11; 
268 17; 269 54; 270 280; 271 62; 272 9; 
273 1; 278 6; 279 1; 280 10; 281 3; 
282 8; 283 13; 284 17; 285 4; 292 1; 
293 1; 294 8; 295 3; 296 12; 297 4; 
298 9; 299 2; 308 1; 310 4; 312 999; 
313 250; 314 34; 315 3; 322 5; 323 2; 
324 19; 325 7; 326 2; 327 2; 328 1; 
341 579; 342 152; 343 22; 344 2; 
