Name: JWH-018 N-(4,5-epoxypentyl) analog
Synon: JWH-018 epoxide
Synon: Naphthalen-1-yl(1-(3-(oxiran-2-yl)propyl)-1H-indol-3-yl)methanone
InChIKey: LYRUBFGQRDEXAV-UHFFFAOYSA-N
Formula: C24H21NO2
MW: 355
ExactMass: 355.157228
CASNO: 0
ID: 2830
Comment: Provided by www.caymanchem.com/app/template/landing%2CForensic.vm / Item #11075  Lot #0432197
Num Peaks: 94
40 36; 41 193; 43 102; 51 35; 53 28; 
55 132; 57 60; 63 25; 67 72; 73 4; 
75 44; 77 75; 78 27; 89 74; 101 78; 
102 62; 103 24; 113 31; 114 42; 115 118; 
116 123; 117 31; 120 30; 126 150; 127 788; 
128 237; 129 85; 130 87; 133 39; 134 31; 
139 37; 141 139; 143 51; 144 253; 145 24; 
147 39; 155 461; 156 74; 167 165; 168 26; 
170 169; 171 27; 184 44; 187 23; 200 35; 
208 3; 212 106; 213 111; 214 67; 215 50; 
226 46; 228 469; 229 60; 238 32; 239 36; 
240 120; 241 211; 242 91; 253 65; 254 214; 
255 122; 256 101; 257 29; 266 69; 267 86; 
268 99; 269 152; 270 539; 271 98; 272 28; 
280 85; 281 29; 282 198; 283 143; 284 504; 
285 141; 296 284; 297 65; 298 29; 308 28; 
310 48; 320 27; 322 39; 324 50; 325 33; 
326 27; 327 30; 338 347; 339 240; 340 79; 
354 173; 355 999; 356 280; 357 38; 
