Name: JWH-018 2'-naphthyl-N-(1,1-dimethylpropyl) isomer
Synon: Naphthalen-2-yl(1-(tert-pentyl)-1H-indol-3-yl)methanone
InChIKey: GUKXLKKRCJYVFK-UHFFFAOYSA-N
Formula: C24H23NO
MW: 341
ExactMass: 341.177965
CASNO: 0
ID: 2837
Comment: Provided by www.caymanchem.com/app/template/landing%2CForensic.vm / Item #9001007  lot #0434491
Num Peaks: 114
40 5; 41 70; 43 251; 44 11; 50 8; 
51 14; 53 13; 55 50; 56 4; 62 3; 
63 13; 64 3; 69 3; 71 80; 72 4; 
74 8; 75 25; 76 11; 77 40; 78 5; 
87 6; 88 18; 89 59; 90 11; 91 3; 
94 4; 98 3; 99 5; 100 6; 101 47; 
102 7; 107 5; 108 6; 113 5; 114 19; 
115 62; 116 116; 117 17; 121 9; 125 6; 
126 74; 127 329; 128 189; 129 24; 130 2; 
133 1; 135 7; 139 4; 140 5; 141 3; 
142 13; 144 820; 145 89; 152 7; 154 9; 
155 117; 156 31; 157 6; 161 3; 163 8; 
164 5; 165 4; 170 5; 176 3; 184 14; 
185 3; 187 8; 188 6; 189 13; 190 2; 
191 2; 192 3; 198 4; 200 3; 202 3; 
208 3; 211 6; 212 8; 213 47; 214 28; 
215 91; 216 21; 217 4; 225 4; 226 9; 
227 9; 228 3; 238 10; 240 48; 241 127; 
242 186; 243 91; 244 18; 253 10; 254 137; 
255 25; 256 4; 267 1; 268 4; 270 375; 
271 999; 272 200; 273 21; 282 5; 283 1; 
284 5; 297 3; 312 167; 313 40; 314 5; 
326 11; 341 568; 342 147; 343 25; 
