Name: JWH-018 2'-naphthyl-N-(1,2-dimethylpropyl) isomer
Synon: (1-(3-methylbutan-2-yl)-1H-indol-3-yl)(naphthalen-2-yl)methanone
InChIKey: JERJAAHYNIGGSX-UHFFFAOYSA-N
Formula: C24H23NO
MW: 341
ExactMass: 341.177965
CASNO: 0
ID: 2838
Comment: Provided by www.caymanchem.com/app/template/landing%2CForensic.vm / Item #9001006  Lot #0429792
Num Peaks: 140
40 1; 41 27; 42 2; 43 52; 44 1; 
50 1; 51 4; 52 1; 53 3; 55 13; 
56 1; 62 2; 63 4; 64 1; 65 2; 
69 1; 70 1; 71 6; 74 3; 75 10; 
76 6; 77 23; 78 2; 86 1; 87 3; 
88 6; 89 20; 90 4; 91 2; 94 1; 
99 1; 100 2; 101 29; 102 9; 103 1; 
107 2; 112 1; 113 5; 114 8; 115 42; 
116 45; 117 7; 118 1; 121 4; 125 3; 
126 42; 127 329; 128 86; 129 9; 130 2; 
133 3; 134 3; 139 3; 140 4; 141 5; 
142 16; 143 31; 144 126; 145 13; 146 1; 
149 53; 151 1; 152 4; 153 3; 155 252; 
156 30; 157 3; 163 3; 164 1; 165 2; 
166 1; 167 1; 168 2; 170 59; 171 8; 
172 1; 176 2; 184 2; 185 1; 186 2; 
187 5; 188 3; 189 7; 190 1; 198 4; 
199 1; 200 3; 201 1; 202 4; 211 3; 
212 4; 213 30; 214 25; 215 43; 216 9; 
217 1; 224 2; 225 2; 226 12; 227 8; 
228 5; 229 1; 238 4; 239 4; 240 25; 
241 49; 242 54; 243 16; 244 2; 251 2; 
252 3; 253 7; 254 32; 255 10; 256 1; 
265 1; 266 2; 267 4; 268 7; 269 6; 
270 39; 271 15; 272 3; 280 2; 281 1; 
282 5; 283 20; 284 7; 285 1; 296 3; 
298 999; 299 226; 300 27; 301 3; 326 2; 
327 1; 339 1; 341 289; 342 78; 343 10; 
