Name: JWH-018 2'-naphthyl-N-(2,2-dimethylpropyl) isomer
Synon: Naphthalen-2-yl(1-neopentyl-1H-indol-3-yl)-methanone
InChIKey: VAWLMOLQJCGJAZ-UHFFFAOYSA-N
Formula: C24H23NO
MW: 341
ExactMass: 341.177965
CASNO: 0
ID: 2841
Comment: Provided by www.caymanchem.com/app/template/landing%2CForensic.vm / Item #9001008  Lot #04290780
Num Peaks: 104
41 36; 43 14; 44 79; 55 2; 57 18; 
73 24; 75 7; 76 8; 77 31; 78 1; 
87 2; 89 13; 91 2; 96 4; 101 23; 
102 36; 103 10; 113 1; 114 2; 115 24; 
116 18; 119 4; 125 1; 126 43; 127 368; 
128 122; 129 72; 130 56; 131 1; 133 31; 
135 8; 141 8; 142 4; 143 1; 144 70; 
145 4; 147 14; 149 1; 154 5; 155 329; 
156 68; 157 8; 158 30; 159 2; 163 5; 
165 1; 167 1; 177 5; 179 2; 186 1; 
187 1; 189 2; 191 30; 192 5; 193 4; 
195 1; 197 2; 198 5; 208 1; 209 2; 
210 1; 213 14; 214 37; 215 26; 216 1; 
221 16; 223 1; 226 8; 227 4; 228 4; 
229 1; 239 2; 240 20; 241 29; 242 16; 
243 1; 251 1; 253 34; 254 53; 255 17; 
256 30; 257 7; 265 1; 266 2; 267 11; 
268 16; 269 5; 270 13; 271 4; 281 20; 
282 26; 283 7; 284 999; 285 335; 286 52; 
325 7; 326 5; 327 18; 329 1; 331 8; 
341 485; 342 112; 343 16; 346 1; 
