Name: JWH-122 3-methylnaphthyl isomer
Synon: (3-methylnaphthalen-1-yl)(1-pentyl-1H-indol-3-yl)methanone
InChIKey: AWAISCZQPNYSRY-UHFFFAOYSA-N
Formula: C25H25NO
MW: 355
ExactMass: 355.193615
CASNO: 0
ID: 2852
Comment: Provided by www.caymanchem.com/app/template/landing%2CForensic.vm / Item #9001033  Lot #0431225
Num Peaks: 172
40 9; 41 89; 43 203; 44 12; 50 3; 
51 11; 52 4; 53 4; 55 25; 56 3; 
62 6; 63 18; 65 8; 69 3; 71 3; 
73 3; 74 6; 75 12; 76 16; 77 14; 
78 7; 87 6; 88 11; 89 51; 90 5; 
91 13; 100 5; 101 28; 102 54; 103 19; 
104 3; 105 2; 106 7; 107 5; 113 24; 
115 269; 116 153; 117 20; 118 3; 120 19; 
121 10; 126 19; 127 59; 128 79; 129 57; 
130 51; 131 13; 132 8; 134 28; 135 31; 
139 119; 140 43; 141 333; 143 27; 144 359; 
145 44; 146 4; 147 5; 149 26; 151 5; 
152 10; 153 20; 154 11; 155 23; 156 13; 
157 4; 158 12; 159 4; 163 3; 164 5; 
165 6; 166 4; 167 4; 169 203; 170 50; 
171 6; 174 4; 178 24; 179 2; 181 178; 
182 26; 184 5; 185 3; 186 32; 187 13; 
188 5; 189 6; 190 3; 195 4; 200 12; 
201 4; 202 10; 203 6; 208 3; 209 1; 
211 7; 212 13; 214 642; 215 108; 216 11; 
224 8; 225 11; 226 54; 227 24; 228 33; 
229 17; 230 4; 237 5; 238 11; 239 21; 
240 46; 241 123; 242 39; 243 7; 249 2; 
250 3; 251 11; 252 18; 253 50; 254 132; 
255 94; 256 53; 257 11; 258 5; 264 8; 
265 11; 266 18; 267 25; 268 108; 269 94; 
270 102; 271 27; 272 5; 278 3; 279 3; 
280 22; 281 40; 282 55; 283 74; 284 322; 
285 77; 286 13; 294 10; 296 22; 298 566; 
299 142; 300 23; 301 2; 308 5; 310 4; 
311 3; 312 12; 313 5; 322 10; 325 4; 
326 15; 327 24; 328 5; 329 3; 331 3; 
336 21; 338 503; 339 146; 340 101; 341 26; 
342 4; 352 3; 354 461; 355 999; 356 273; 
357 38; 358 4; 
