Name: JWH-081 8-methoxynaphthyl isomer
Synon: (8-methoxy-1-naphthalenyl)(1-pentyl-1H-indol-3-yl)-methanone
InChIKey: CNQSHGRPSVJODG-UHFFFAOYSA-N
Formula: C25H25NO2
MW: 371
ExactMass: 371.18853
CASNO: 0
ID: 2856
Comment: Provided by www.caymanchem.com/app/template/landing%2CForensic.vm / Item #9001049  Lot #0431276
Num Peaks: 152
40 4; 41 49; 43 113; 44 5; 51 4; 
55 17; 62 5; 63 4; 71 4; 73 3; 
74 3; 75 11; 76 7; 77 24; 78 5; 
87 5; 88 12; 89 31; 90 3; 95 5; 
98 4; 100 4; 101 30; 102 32; 103 16; 
104 3; 107 18; 109 11; 112 3; 113 20; 
114 59; 115 58; 116 81; 117 14; 121 35; 
125 4; 126 48; 127 148; 128 77; 129 61; 
130 154; 131 21; 132 7; 133 3; 134 8; 
135 33; 139 6; 140 6; 142 30; 144 354; 
145 48; 146 8; 149 7; 150 18; 151 6; 
152 6; 154 14; 155 58; 156 28; 157 28; 
158 17; 163 5; 164 3; 167 9; 168 8; 
170 152; 171 79; 172 16; 175 5; 176 4; 
177 4; 183 8; 184 25; 185 118; 186 37; 
187 42; 188 12; 189 9; 193 3; 198 5; 
200 999; 201 271; 202 51; 203 11; 204 3; 
208 3; 211 6; 212 6; 213 36; 214 202; 
215 60; 216 10; 217 3; 224 4; 225 8; 
226 21; 227 21; 228 25; 229 11; 230 14; 
231 4; 238 9; 239 9; 240 48; 241 71; 
242 32; 243 13; 244 8; 245 3; 251 7; 
252 9; 253 19; 254 66; 255 30; 256 26; 
257 33; 258 9; 265 4; 266 8; 267 7; 
268 19; 269 99; 270 405; 271 106; 272 23; 
273 5; 280 3; 281 3; 282 52; 283 24; 
284 22; 285 31; 286 16; 294 4; 296 8; 
298 9; 300 17; 301 6; 312 6; 314 32; 
315 8; 328 3; 338 5; 340 572; 341 157; 
342 21; 343 3; 354 7; 356 3; 371 275; 
372 76; 373 12; 
