Name: JWH-164
Synon: (7-methoxy-1-naphthalenyl)(1-pentyl-1H-indol-3-yl)methanone
Synon: JWH-081 7-methoxynaphthyl isomer
InChIKey: IJNSZBAEVYRFCH-UHFFFAOYSA-N
Formula: C25H25NO2
MW: 371
ExactMass: 371.18853
CASNO: 824961617
ID: 2857
Comment: Provided by www.caymanchem.com/app/template/landing%2CForensic.vm / Item # 9001048  Lot #0431275
Num Peaks: 182
40 4; 41 80; 43 190; 44 8; 51 10; 
52 6; 53 4; 55 27; 62 4; 63 20; 
64 4; 65 5; 71 3; 73 3; 74 5; 
75 9; 76 12; 77 22; 78 7; 87 9; 
88 26; 89 39; 90 8; 91 3; 95 11; 
100 6; 101 25; 102 37; 103 19; 106 5; 
107 16; 108 14; 113 43; 114 147; 115 69; 
116 96; 117 18; 118 4; 119 5; 120 47; 
125 8; 126 37; 127 99; 128 95; 129 47; 
130 40; 131 9; 132 6; 133 4; 134 4; 
135 34; 139 15; 142 136; 144 368; 145 32; 
146 3; 147 3; 148 5; 149 14; 151 9; 
152 6; 153 3; 154 10; 155 18; 156 29; 
157 190; 158 44; 163 5; 165 5; 167 32; 
168 7; 169 13; 170 23; 171 18; 172 17; 
174 10; 175 3; 176 11; 177 4; 183 30; 
185 212; 186 67; 187 18; 188 7; 189 8; 
190 3; 191 6; 193 3; 197 181; 198 33; 
199 5; 200 30; 201 32; 202 34; 203 11; 
204 3; 207 6; 211 9; 212 13; 214 665; 
215 132; 216 18; 217 8; 225 8; 226 24; 
227 37; 228 80; 229 34; 230 18; 231 8; 
238 14; 239 11; 240 67; 241 147; 242 72; 
243 24; 244 11; 245 3; 251 10; 252 9; 
253 15; 254 58; 255 34; 256 52; 257 53; 
258 26; 259 6; 265 3; 266 9; 267 6; 
268 23; 269 66; 270 94; 271 57; 272 49; 
273 11; 274 4; 280 3; 281 3; 282 36; 
283 20; 284 53; 285 112; 286 191; 287 38; 
288 6; 294 4; 296 9; 297 14; 298 48; 
299 36; 300 80; 301 22; 302 5; 310 7; 
311 6; 312 9; 314 312; 315 86; 316 8; 
322 11; 324 4; 325 4; 326 4; 327 5; 
328 17; 329 5; 338 7; 339 11; 340 54; 
341 13; 342 10; 343 20; 352 23; 354 225; 
355 80; 356 213; 357 61; 358 7; 371 999; 
372 236; 373 34; 
