Name: JWH-267
Synon: JWH-081 2-methoxynaphthyl isomer
Synon: (2-methoxy-1-naphthalenyl)(1-pentyl-1H-indol-3-yl)-methanone
InChIKey: BWBLGFVKOJDYSU-UHFFFAOYSA-N
Formula: C25H25NO2
MW: 371
ExactMass: 371.18853
CASNO: 824960761
ID: 2861
Comment: Provided by www.caymanchem.com/app/template/landing%2CForensic.vm / Item #9001044  Lot #0431076
Num Peaks: 191
40 8; 41 105; 43 253; 44 6; 50 3; 
51 10; 52 4; 53 4; 55 32; 62 6; 
63 17; 65 7; 69 3; 71 3; 73 3; 
74 4; 75 17; 76 17; 77 41; 78 11; 
87 11; 88 27; 89 47; 90 9; 91 7; 
94 4; 95 11; 96 5; 98 2; 100 12; 
101 41; 102 66; 103 23; 104 6; 107 15; 
108 12; 109 11; 112 4; 113 42; 114 155; 
115 73; 116 137; 117 27; 118 14; 119 5; 
121 58; 126 70; 127 195; 128 123; 129 86; 
130 167; 131 47; 132 13; 133 11; 134 12; 
135 28; 136 27; 139 16; 142 138; 144 528; 
145 63; 146 10; 147 1; 149 11; 150 13; 
151 7; 152 6; 153 4; 154 19; 155 79; 
156 80; 157 48; 158 33; 159 5; 163 8; 
164 13; 165 4; 167 11; 168 8; 169 6; 
170 70; 171 48; 173 4; 175 6; 176 11; 
178 3; 183 27; 184 110; 185 319; 186 95; 
187 142; 188 80; 189 23; 190 6; 191 2; 
193 6; 196 3; 197 51; 198 11; 200 521; 
201 278; 202 82; 203 20; 204 5; 207 4; 
209 1; 211 9; 212 14; 213 51; 214 490; 
215 109; 216 19; 217 5; 224 4; 225 10; 
226 23; 227 43; 228 85; 229 41; 230 34; 
231 8; 238 11; 239 11; 240 74; 241 122; 
242 60; 243 21; 244 17; 245 5; 246 3; 
251 8; 252 13; 253 21; 254 72; 255 31; 
256 54; 257 85; 258 18; 259 4; 266 11; 
267 14; 268 18; 269 50; 270 99; 271 45; 
272 34; 273 8; 280 5; 281 1; 282 38; 
283 37; 284 45; 285 130; 286 64; 287 8; 
288 3; 295 3; 296 15; 298 42; 299 22; 
300 59; 301 12; 310 4; 312 7; 314 175; 
315 38; 316 5; 323 6; 324 11; 326 86; 
327 27; 328 15; 329 5; 331 3; 338 11; 
339 6; 340 28; 341 7; 342 10; 343 6; 
344 5; 352 4; 354 620; 355 178; 356 187; 
357 46; 358 9; 371 999; 372 268; 373 43; 
374 6; 
