Name: JWH-073 N-(2-methylpropyl) isomer
Synon: (1-isobutyl-1H-indol-3-yl)(naphthalen-1-yl)methanone
InChIKey: XNFHBVYEKFAQLX-UHFFFAOYSA-N
Formula: C23H21NO
MW: 327
ExactMass: 327.162313
CASNO: 0
ID: 2864
Comment: Provided by www.caymanchem.com/app/template/landing%2CForensic.vm / Item #9001011  Lot #0429783
Num Peaks: 145
41 79; 42 1; 43 7; 51 6; 55 3; 
57 29; 63 7; 73 22; 74 3; 75 22; 
76 13; 77 56; 78 9; 87 3; 88 6; 
89 41; 91 1; 96 4; 101 55; 102 53; 
103 13; 104 1; 107 1; 113 9; 114 9; 
115 35; 116 84; 117 20; 119 1; 120 3; 
121 3; 125 3; 126 80; 127 603; 128 172; 
129 74; 130 26; 131 1; 134 1; 135 26; 
136 1; 139 19; 141 20; 142 10; 143 6; 
144 302; 145 32; 147 12; 148 1; 149 6; 
150 3; 151 1; 152 1; 154 9; 155 291; 
156 37; 157 3; 158 1; 162 1; 163 14; 
164 4; 165 4; 167 166; 168 14; 170 1; 
172 7; 176 3; 177 6; 178 1; 179 1; 
181 1; 184 3; 187 13; 188 6; 189 9; 
191 10; 192 3; 193 9; 194 1; 195 13; 
197 7; 198 4; 199 1; 200 495; 201 73; 
202 9; 205 1; 207 53; 208 37; 209 31; 
210 1; 211 9; 212 3; 213 59; 214 32; 
215 46; 216 9; 221 16; 224 4; 225 4; 
226 38; 227 17; 228 20; 229 9; 238 10; 
239 17; 240 62; 241 143; 242 70; 243 14; 
249 4; 251 4; 252 6; 253 56; 254 214; 
255 89; 256 84; 257 16; 265 16; 266 40; 
267 29; 268 25; 269 80; 270 250; 271 56; 
281 31; 282 14; 283 20; 284 999; 285 213; 
286 19; 294 1; 298 1; 299 1; 308 7; 
310 126; 311 19; 312 1; 313 1; 325 14; 
326 157; 327 729; 328 165; 329 16; 331 7; 
