Name: JWH-073 N-(1,1-dimethylethyl) isomer
Synon: (1-(tert-butyl)-1H-indol-3-yl)(naphthalen-1-yl)methanone
InChIKey: GJHGLAADYQQJTA-UHFFFAOYSA-N
Formula: C23H21NO
MW: 327
ExactMass: 327.162313
CASNO: 0
ID: 2865
Comment: Provided by www.caymanchem.com/app/template/landing%2CForensic.vm / Item #9001013  Lot #0434161
Num Peaks: 142
41 109; 42 5; 50 4; 51 12; 52 2; 
53 3; 55 8; 57 119; 58 6; 62 5; 
63 14; 64 2; 65 3; 74 8; 75 24; 
76 9; 77 34; 78 2; 86 2; 87 6; 
88 13; 89 58; 90 8; 91 2; 94 4; 
98 2; 99 3; 100 5; 101 35; 102 6; 
103 1; 107 6; 109 1; 111 1; 112 2; 
113 6; 114 18; 115 44; 116 97; 117 12; 
118 1; 119 1; 121 10; 125 4; 126 62; 
127 228; 128 59; 129 6; 130 1; 133 1; 
135 3; 137 1; 138 1; 139 5; 140 3; 
141 3; 142 6; 144 360; 145 35; 146 3; 
149 1; 150 3; 151 3; 152 3; 153 1; 
154 5; 155 49; 156 9; 157 1; 161 2; 
162 2; 163 7; 164 3; 165 2; 167 2; 
168 1; 170 1; 174 2; 175 2; 176 4; 
177 1; 184 5; 185 1; 186 2; 187 12; 
188 7; 189 13; 190 2; 191 1; 193 1; 
198 2; 199 2; 200 10; 201 4; 202 4; 
203 1; 211 8; 212 7; 213 59; 214 40; 
215 50; 216 11; 217 1; 224 4; 225 4; 
226 10; 227 7; 228 4; 229 1; 238 11; 
240 64; 241 169; 242 119; 243 47; 244 11; 
245 1; 249 1; 251 9; 252 9; 254 490; 
255 111; 256 14; 257 1; 265 1; 266 1; 
267 3; 270 999; 271 290; 272 40; 273 4; 
281 2; 294 1; 296 1; 297 1; 312 112; 
313 25; 314 4; 315 1; 327 470; 328 116; 
329 15; 330 1; 
