Name: JWH-073 2'-naphthyl-N-(2-methylpropyl) isomer
Synon: (1-isobutyl-1H-indol-3-yl)(naphthalen-2-yl)methanone
InChIKey: SUFNWJKOGPQPRZ-UHFFFAOYSA-N
Formula: C23H21NO
MW: 327
ExactMass: 327.162313
CASNO: 0
ID: 2867
Comment: Provided by www.caymanchem.com/app/template/landing%2CForensic.vm / Item #9001015  Lot #0429785
Num Peaks: 116
41 40; 43 7; 51 2; 55 1; 57 16; 
63 3; 73 8; 74 6; 75 16; 76 11; 
77 43; 78 9; 87 2; 88 4; 89 16; 
91 1; 96 2; 97 1; 101 39; 102 41; 
103 17; 113 1; 114 10; 115 34; 116 60; 
117 7; 119 1; 120 1; 121 1; 125 1; 
126 60; 127 480; 128 150; 129 58; 130 23; 
133 12; 135 25; 139 2; 141 8; 142 15; 
143 7; 144 126; 145 19; 147 2; 150 2; 
152 1; 154 12; 155 317; 156 53; 157 1; 
158 2; 163 3; 164 1; 165 3; 167 1; 
172 12; 177 5; 179 1; 184 5; 187 7; 
189 11; 191 1; 193 34; 194 1; 195 6; 
197 5; 198 3; 200 340; 201 35; 202 3; 
209 56; 211 3; 213 35; 214 14; 215 41; 
216 3; 221 2; 224 1; 225 2; 226 22; 
227 10; 228 14; 229 2; 238 1; 239 5; 
240 29; 241 63; 242 62; 243 11; 251 3; 
252 2; 253 16; 254 76; 255 29; 256 39; 
257 3; 265 5; 266 10; 267 14; 268 5; 
269 8; 270 31; 271 12; 281 6; 282 2; 
283 3; 284 999; 285 225; 286 22; 310 8; 
325 2; 326 7; 327 620; 328 169; 329 22; 
331 2; 
