Name: JWH-073 2'-naphthyl-N-(1-methylpropyl) isomer
Synon: (1-(sec-butyl)-1H-indol-3-yl)(naphthalen-2-yl)-methanone
InChIKey: DFTLLFXLJMPATM-UHFFFAOYSA-N
Formula: C23H21NO
MW: 327
ExactMass: 327.162313
CASNO: 0
ID: 2868
Comment: Provided by www.caymanchem.com/app/template/landing%2CForensic.vm / Item #9001016  Lot #0429786
Num Peaks: 134
40 4; 41 29; 44 7; 45 1; 51 9; 
55 1; 57 19; 63 3; 65 1; 73 4; 
74 4; 75 15; 76 1; 77 38; 78 6; 
82 1; 87 2; 88 5; 89 53; 90 6; 
91 1; 94 1; 96 7; 101 43; 102 6; 
103 3; 106 1; 107 1; 108 1; 112 1; 
113 1; 114 12; 115 76; 116 108; 117 7; 
119 3; 121 4; 122 1; 125 3; 126 70; 
127 447; 128 129; 129 4; 133 1; 134 1; 
135 16; 136 3; 139 1; 140 1; 141 3; 
142 15; 143 36; 144 474; 145 56; 146 1; 
147 6; 148 1; 149 23; 152 3; 154 10; 
155 313; 156 24; 157 1; 163 3; 164 1; 
165 4; 166 1; 170 63; 171 1; 172 1; 
177 6; 184 5; 187 7; 189 4; 190 1; 
193 8; 198 2; 200 211; 201 37; 202 1; 
205 1; 207 1; 208 13; 211 1; 212 1; 
213 51; 214 21; 215 76; 216 16; 221 6; 
224 1; 225 1; 226 8; 227 7; 228 1; 
237 1; 238 2; 239 4; 240 17; 241 98; 
242 114; 243 34; 244 1; 252 1; 253 21; 
254 61; 255 15; 257 1; 265 1; 267 7; 
268 7; 269 12; 270 115; 271 33; 272 4; 
281 7; 282 4; 283 36; 284 6; 298 999; 
299 234; 300 25; 310 1; 311 1; 312 24; 
313 14; 315 1; 325 1; 326 6; 327 668; 
328 166; 329 16; 330 1; 331 2; 
