Name: JWH-073 2'-naphthyl-N-(1,1-dimethylethyl) isomer
Synon: (1-(tert-butyl)-1H-indol-3-yl)(naphthalen-2-yl)methanone
InChIKey: WXDJZVMXYNCQLO-UHFFFAOYSA-N
Formula: C23H21NO
MW: 327
ExactMass: 327.162313
CASNO: 0
ID: 2869
Comment: Provided by www.caymanchem.com/app/template/landing%2CForensic.vm / Item #9001017  Lot #0434373
Num Peaks: 130
41 137; 42 8; 50 6; 51 18; 52 4; 
53 3; 55 10; 57 160; 58 8; 62 8; 
63 19; 64 4; 65 4; 73 4; 74 11; 
75 30; 76 12; 77 52; 78 7; 81 1; 
86 3; 87 9; 88 19; 89 79; 90 13; 
94 4; 96 1; 98 3; 99 4; 100 7; 
101 44; 102 8; 103 3; 107 8; 108 7; 
113 5; 114 23; 115 75; 116 143; 117 17; 
118 2; 119 2; 121 8; 122 3; 126 81; 
127 339; 128 191; 129 26; 130 4; 133 2; 
134 1; 135 5; 137 2; 138 1; 139 6; 
140 5; 141 2; 144 999; 145 99; 146 5; 
150 3; 151 4; 152 6; 153 2; 155 103; 
156 18; 157 2; 161 2; 162 2; 163 7; 
164 4; 165 4; 166 2; 170 4; 176 3; 
177 1; 184 11; 185 2; 187 14; 188 6; 
189 17; 190 2; 191 1; 193 1; 198 4; 
200 7; 201 3; 202 3; 210 1; 211 8; 
212 6; 213 68; 214 42; 215 98; 216 27; 
217 3; 224 3; 225 3; 226 9; 227 12; 
228 6; 237 1; 238 9; 239 11; 240 67; 
241 139; 242 222; 243 118; 244 21; 251 2; 
252 3; 254 135; 255 29; 256 5; 257 3; 
267 1; 268 4; 270 423; 271 931; 272 187; 
273 22; 282 1; 284 1; 312 29; 313 12; 
314 2; 327 708; 328 188; 329 24; 330 3; 
