Name: JWH-073 2-methylnaphthyl analog
Synon: (1-butyl-1H-indol-3-yl)(2-methylnaphthalen-1-yl)methanone
InChIKey: DRPAIIWSIJRPFH-UHFFFAOYSA-N
Formula: C24H23NO
MW: 341
ExactMass: 341.177965
CASNO: 0
ID: 2871
Comment: Provided by www.caymanchem.com/app/template/landing%2CForensic.vm / Item #10848  Lot #0431599
Num Peaks: 155
41 125; 42 7; 50 4; 51 13; 52 6; 
53 6; 55 11; 57 36; 62 6; 63 27; 
65 9; 73 4; 74 6; 75 20; 76 17; 
77 30; 78 9; 87 9; 88 17; 89 80; 
90 11; 91 18; 95 5; 100 6; 101 28; 
102 51; 103 22; 104 7; 106 10; 107 10; 
112 5; 113 28; 114 28; 115 279; 116 164; 
117 33; 118 30; 119 21; 120 22; 122 7; 
125 5; 126 18; 127 62; 128 65; 129 46; 
130 178; 131 40; 132 9; 134 61; 135 33; 
136 47; 139 160; 140 274; 141 241; 142 53; 
143 26; 144 290; 145 29; 146 5; 149 29; 
150 10; 151 9; 152 22; 153 27; 154 15; 
155 10; 157 32; 158 7; 159 13; 160 11; 
163 5; 164 8; 165 16; 166 5; 168 692; 
169 150; 170 30; 172 55; 173 102; 174 15; 
176 7; 181 46; 182 15; 183 4; 186 5; 
187 4; 188 8; 189 14; 191 5; 198 5; 
200 260; 201 46; 202 20; 203 6; 207 2; 
208 7; 213 23; 214 19; 215 11; 216 6; 
224 10; 225 19; 226 57; 227 34; 228 37; 
229 17; 230 8; 237 6; 238 9; 239 44; 
240 49; 241 128; 242 36; 243 10; 250 4; 
251 14; 252 37; 253 60; 254 180; 255 88; 
256 73; 257 16; 264 9; 265 30; 266 46; 
267 84; 268 124; 269 85; 270 104; 271 19; 
278 12; 279 18; 280 97; 281 99; 282 59; 
283 57; 284 134; 285 31; 286 6; 294 6; 
295 5; 296 29; 298 812; 299 177; 312 13; 
313 18; 322 6; 324 371; 325 95; 326 28; 
327 9; 340 230; 341 999; 342 277; 343 41; 
