Name: JWH-031
Synon: (1-hexyl-1H-pyrrol-3-yl)-1-naphthalenyl-methanone
InChIKey: QTWPXDHMBKIWDK-UHFFFAOYSA-N
Formula: C21H23NO
MW: 305
ExactMass: 305.177965
CASNO: 162934749
ID: 2875
Comment: Provided by www.caymanchem.com/app/template/landing%2CForensic.vm / Item #10824  Lot #0435751
Num Peaks: 180
40 11; 41 162; 42 22; 43 192; 44 10; 
49 1; 50 9; 51 29; 52 68; 53 28; 
54 9; 55 48; 56 8; 57 12; 58 1; 
62 2; 63 14; 64 3; 65 20; 66 73; 
67 13; 68 4; 69 4; 70 4; 73 1; 
74 11; 75 26; 76 19; 77 63; 78 51; 
79 53; 80 37; 81 6; 82 9; 83 4; 
84 1; 85 4; 86 3; 87 10; 88 8; 
89 17; 91 5; 92 8; 93 43; 94 425; 
95 28; 96 12; 97 3; 98 5; 99 6; 
100 38; 101 41; 103 34; 104 59; 105 4; 
106 59; 107 34; 108 17; 110 8; 111 2; 
112 56; 113 9; 114 2; 115 9; 117 23; 
118 25; 119 1; 120 37; 121 6; 122 6; 
123 2; 124 3; 125 18; 126 109; 127 599; 
128 93; 129 18; 130 2; 132 1; 134 13; 
135 2; 136 8; 137 4; 138 4; 139 17; 
140 5; 141 19; 142 3; 143 1; 144 1; 
146 1; 148 9; 150 93; 151 25; 152 23; 
153 10; 155 602; 156 75; 157 7; 161 2; 
162 9; 163 56; 164 54; 165 152; 166 26; 
167 43; 168 8; 169 1; 175 5; 176 37; 
178 545; 179 91; 180 16; 181 8; 182 1; 
187 1; 188 3; 189 12; 190 32; 191 67; 
192 39; 193 30; 194 63; 195 9; 196 1; 
201 2; 202 7; 203 11; 204 68; 205 108; 
206 208; 207 66; 208 15; 209 1; 210 1; 
216 22; 217 29; 218 28; 219 54; 220 363; 
221 80; 222 13; 223 1; 230 4; 231 5; 
232 29; 234 342; 235 232; 236 48; 237 7; 
244 2; 245 2; 246 14; 248 71; 249 22; 
250 4; 251 1; 253 3; 258 2; 260 4; 
262 30; 263 11; 264 2; 265 1; 274 3; 
276 58; 277 22; 278 2; 279 1; 286 2; 
288 132; 289 29; 290 14; 291 3; 302 2; 
304 706; 305 999; 306 207; 307 23; 308 1; 
