Name: JWH-030
Synon: 1-naphthalenyl(1-pentyl-1H-pyrrol-3-yl)-methanone
InChIKey: VPBJQDBKZSHCPC-UHFFFAOYSA-N
Formula: C20H21NO
MW: 291
ExactMass: 291.162313
CASNO: 162934738
ID: 2876
Comment: Provided by www.caymanchem.com/app/template/landing%2CForensic.vm / Item #10831  Lot #0432156
Num Peaks: 153
41 146; 42 25; 43 186; 44 7; 50 12; 
51 43; 52 78; 53 29; 54 7; 55 32; 
56 5; 62 3; 63 15; 64 4; 65 22; 
66 83; 67 16; 68 3; 69 6; 70 4; 
71 7; 73 3; 74 16; 75 33; 76 23; 
77 76; 78 54; 79 54; 80 35; 81 5; 
82 7; 83 4; 84 2; 86 30; 87 10; 
88 11; 89 20; 91 3; 92 6; 94 465; 
95 30; 96 11; 97 3; 98 48; 99 9; 
100 6; 101 45; 103 40; 104 58; 106 53; 
107 29; 108 9; 109 5; 110 5; 111 8; 
113 5; 115 13; 117 24; 118 26; 120 27; 
121 5; 122 6; 124 2; 126 115; 127 567; 
128 85; 129 16; 133 3; 134 11; 135 7; 
136 66; 137 13; 138 4; 139 20; 140 4; 
141 17; 148 2; 149 2; 150 10; 151 19; 
152 28; 153 8; 155 445; 156 60; 157 5; 
161 2; 162 15; 163 67; 164 628; 165 218; 
166 33; 167 43; 168 7; 174 2; 175 5; 
176 29; 177 20; 178 34; 179 29; 180 12; 
181 6; 188 4; 189 12; 190 32; 191 74; 
192 46; 193 31; 194 60; 195 15; 201 3; 
202 7; 203 10; 204 62; 205 118; 206 185; 
207 71; 208 14; 209 4; 216 23; 217 28; 
218 22; 219 51; 220 385; 221 85; 222 12; 
230 4; 231 5; 232 28; 233 31; 234 317; 
235 184; 236 35; 237 5; 245 4; 246 7; 
248 46; 249 14; 260 3; 262 41; 263 16; 
264 4; 272 2; 274 121; 275 32; 276 19; 
277 7; 281 1; 283 2; 288 3; 290 711; 
291 999; 292 208; 293 24; 
