Name: JWH-020
Synon: 1-heptyl-1H-indol-3-yl)(naphthalen-1-yl)methanone
InChIKey: IHKDUDCDUKFOKK-UHFFFAOYSA-N
Formula: C26H27NO
MW: 369
ExactMass: 369.209265
CASNO: 209414095
ID: 2877
Comment: Jason Nawyn
Num Peaks: 87
41 24; 43 30; 55 6; 57 29; 73 46; 
74 4; 75 23; 77 25; 89 11; 101 16; 
102 14; 103 9; 115 23; 116 56; 117 10; 
126 23; 127 350; 128 76; 129 43; 130 19; 
131 5; 133 2; 141 2; 142 18; 143 6; 
144 226; 145 16; 147 18; 148 3; 149 3; 
155 304; 156 23; 167 88; 168 1; 170 2; 
189 1; 191 21; 193 7; 204 13; 207 36; 
208 28; 209 2; 213 15; 214 41; 215 23; 
217 15; 221 5; 226 7; 228 3; 240 22; 
241 76; 242 494; 243 83; 244 4; 251 2; 
253 6; 254 112; 255 65; 256 74; 257 14; 
266 18; 267 38; 268 37; 269 43; 270 215; 
271 51; 272 9; 282 24; 283 21; 284 768; 
285 188; 286 28; 298 4; 312 4; 326 12; 
327 9; 341 11; 351 2; 352 456; 353 124; 
354 28; 355 14; 368 390; 369 999; 370 250; 
371 34; 372 4; 
