Name: JWH-251
Synon: 1-pentyl-3-(2-methylphenylacetyl)indole
InChIKey: YBIPNGRKUAVSBG-UHFFFAOYSA-N
Formula: C22H25NO
MW: 319
ExactMass: 319.193615
CASNO: 864445396
ID: 2879
Comment: Jason Nawyn / standard from Cayman Chemicals (lot # 0422246-4)
Num Peaks: 82
39 4; 41 13; 43 27; 51 2; 52 1; 
53 1; 55 4; 62 1; 63 3; 65 2; 
69 1; 75 2; 76 3; 77 13; 78 4; 
79 7; 87 1; 88 3; 89 15; 90 2; 
91 2; 101 5; 102 14; 103 12; 104 3; 
105 23; 106 2; 111 2; 114 4; 115 17; 
116 44; 117 6; 118 1; 119 1; 127 1; 
128 11; 129 23; 130 16; 131 2; 141 1; 
142 1; 143 17; 144 155; 145 15; 146 1; 
154 1; 155 1; 156 3; 157 5; 158 4; 
170 5; 171 1; 178 1; 184 2; 185 1; 
186 1; 189 2; 190 1; 202 1; 203 1; 
204 3; 205 1; 212 5; 213 4; 214 999; 
215 152; 216 14; 217 4; 218 3; 219 1; 
220 1; 230 1; 232 1; 234 1; 246 1; 
262 4; 263 1; 290 1; 318 1; 319 52; 
320 12; 321 1; 
