Name: JWH-249
Synon: 2-(2-bromophenyl)-1-(1-pentyl-1H-indol-3-yl)-ethanone
InChIKey: CGQRVOHECAULLB-UHFFFAOYSA-N
Formula: C21H22BrNO
MW: 383
ExactMass: 383.088476
CASNO: 864445603
ID: 2881
Comment: Provided by www.caymanchem.com/app/template/landing%2CForensic.vm / Item #11153  Lot #0435511 / SWGDRUG Monograph available
Num Peaks: 124
40 2; 41 31; 42 3; 43 56; 44 3; 
50 2; 51 4; 52 2; 53 2; 55 8; 
62 4; 63 12; 64 3; 65 2; 69 2; 
71 1; 74 2; 75 5; 76 6; 77 7; 
78 2; 79 1; 82 1; 87 2; 88 8; 
89 49; 90 37; 91 7; 95 1; 96 1; 
100 1; 101 9; 102 29; 103 12; 104 2; 
109 3; 110 1; 113 1; 114 10; 115 30; 
116 55; 117 7; 118 1; 124 1; 126 1; 
127 2; 128 19; 129 37; 130 23; 131 3; 
141 1; 143 27; 144 186; 145 18; 146 1; 
150 2; 151 2; 152 2; 153 1; 154 3; 
155 2; 156 5; 157 7; 158 5; 163 1; 
164 1; 165 1; 168 1; 169 28; 170 9; 
171 27; 172 2; 175 1; 176 6; 177 3; 
178 5; 179 3; 180 1; 183 1; 184 4; 
185 2; 186 2; 188 1; 189 4; 190 1; 
191 3; 192 1; 198 1; 200 1; 202 1; 
203 4; 204 14; 205 9; 206 6; 212 5; 
214 999; 215 159; 216 16; 217 12; 218 13; 
219 4; 220 2; 230 2; 231 1; 232 4; 
233 2; 234 2; 246 4; 247 1; 248 1; 
253 1; 274 1; 276 3; 303 2; 304 7; 
305 1; 326 3; 327 1; 328 3; 329 1; 
383 15; 384 3; 385 12; 386 3; 
