Name: JWH-210 8-ethylnaphthyl isomer
Synon: (8-ethylnaphthalen-1-yl)(1-pentyl-1H-indol-3-yl)methanone
InChIKey: FRVNYZYXZMSTJD-UHFFFAOYSA-N
Formula: C26H27NO
MW: 369
ExactMass: 369.209265
CASNO: 0
ID: 2882
Comment: Provided by www.caymanchem.com/app/template/landing%2CForensic.vm / Item #9001043  Lot #0431271
Num Peaks: 176
41 69; 42 10; 43 139; 44 3; 51 6; 
53 8; 55 22; 63 6; 65 4; 69 4; 
73 4; 74 4; 75 11; 76 10; 77 33; 
78 8; 87 4; 88 6; 89 40; 90 9; 
91 15; 101 22; 102 35; 103 31; 104 6; 
106 10; 107 6; 113 30; 114 21; 115 61; 
116 96; 117 64; 118 50; 120 30; 125 7; 
126 43; 127 104; 128 83; 129 50; 130 757; 
131 191; 132 69; 134 62; 137 4; 139 68; 
140 46; 141 51; 142 53; 143 31; 144 196; 
145 31; 146 21; 147 22; 148 31; 150 17; 
151 41; 152 194; 153 319; 154 119; 155 33; 
156 31; 158 36; 159 7; 162 8; 163 13; 
164 15; 165 187; 166 35; 167 61; 168 31; 
169 9; 170 15; 171 6; 172 38; 173 4; 
176 8; 177 2; 178 10; 179 8; 181 349; 
182 138; 183 37; 185 22; 186 108; 187 999; 
188 183; 189 27; 190 5; 191 12; 193 10; 
194 4; 195 34; 196 6; 200 21; 201 8; 
202 18; 203 7; 207 7; 209 1; 211 7; 
212 9; 213 31; 214 102; 215 48; 216 7; 
219 4; 224 14; 225 17; 226 66; 227 28; 
228 21; 229 8; 237 15; 238 19; 239 49; 
240 55; 241 44; 242 23; 243 7; 249 5; 
250 16; 251 25; 252 61; 253 71; 254 190; 
255 91; 256 35; 257 4; 263 4; 264 20; 
265 23; 266 154; 267 126; 268 91; 269 94; 
270 146; 271 33; 278 41; 279 21; 280 71; 
281 29; 282 67; 283 35; 284 31; 285 4; 
291 9; 292 8; 293 9; 294 15; 295 10; 
296 13; 297 7; 298 19; 299 4; 308 3; 
310 5; 312 553; 313 138; 314 15; 324 7; 
325 7; 326 16; 327 6; 337 153; 338 52; 
340 150; 341 41; 342 4; 350 4; 352 416; 
353 134; 354 60; 355 14; 369 530; 370 144; 
371 26; 
