Name: JWH-210 6-ethylnaphthyl isomer
Synon: (6-ethylnaphthalen-1-yl)(1-pentyl-1H-indol-3-yl)methanone
InChIKey: GNPOOHZSCSYKPJ-UHFFFAOYSA-N
Formula: C26H27NO
MW: 369
ExactMass: 369.209265
CASNO: 0
ID: 2884
Comment: Provided by www.caymanchem.com/app/template/landing%2CForensic.vm / Item #9001041  Lot #0431269
Num Peaks: 139
41 90; 42 11; 43 167; 55 29; 63 9; 
65 8; 73 4; 75 17; 76 11; 77 32; 
78 11; 88 11; 89 51; 101 16; 102 53; 
103 27; 113 27; 114 38; 115 88; 116 165; 
117 28; 119 14; 121 15; 126 40; 127 103; 
128 130; 129 122; 130 68; 131 15; 134 47; 
135 13; 139 169; 140 227; 141 91; 143 22; 
144 531; 145 62; 147 12; 149 114; 150 13; 
151 31; 152 115; 153 160; 154 93; 155 280; 
156 54; 157 16; 158 21; 165 10; 167 28; 
168 13; 169 27; 170 38; 171 10; 177 12; 
181 39; 183 289; 184 63; 185 16; 186 55; 
187 16; 189 11; 191 9; 195 347; 196 65; 
200 13; 201 12; 202 12; 207 3; 208 2; 
209 17; 212 14; 214 999; 215 194; 216 20; 
217 13; 224 11; 225 14; 226 76; 227 41; 
228 28; 229 9; 230 8; 237 17; 238 16; 
239 36; 240 79; 241 155; 242 66; 243 11; 
251 18; 252 29; 253 67; 254 223; 255 116; 
256 40; 257 12; 264 11; 265 27; 266 37; 
267 60; 268 52; 269 170; 270 298; 271 73; 
278 14; 280 29; 281 15; 282 123; 283 115; 
284 109; 285 24; 294 21; 295 40; 296 51; 
297 32; 298 155; 299 46; 300 14; 308 25; 
309 12; 310 15; 312 576; 313 149; 314 24; 
322 30; 326 20; 340 288; 341 104; 342 13; 
350 27; 352 616; 353 191; 354 37; 355 10; 
368 412; 369 928; 370 272; 371 41; 
