Name: JWH-210 3-ethylnaphthyl isomer
Synon: (3-ethylnaphthalen-1-yl)(1-pentyl-1H-indol-3-yl)methanone
InChIKey: NGFGMPFSPOLCMX-UHFFFAOYSA-N
Formula: C26H27NO
MW: 369
ExactMass: 369.209265
CASNO: 0
ID: 2886
Comment: Provided by www.caymanchem.com/app/template/landing%2CForensic.vm / Item #9001039  Lot #0433376
Num Peaks: 155
40 11; 41 87; 42 8; 43 169; 44 4; 
51 6; 53 5; 55 19; 63 7; 74 6; 
75 10; 76 9; 77 31; 78 7; 88 15; 
89 56; 91 6; 96 9; 101 26; 102 55; 
103 24; 104 6; 107 8; 113 19; 114 18; 
115 144; 116 161; 117 23; 118 7; 120 18; 
121 13; 126 34; 127 101; 128 177; 129 164; 
130 75; 131 14; 132 15; 134 29; 135 10; 
139 135; 140 64; 142 73; 144 551; 145 61; 
146 8; 149 106; 150 10; 151 26; 152 125; 
153 208; 154 124; 155 143; 156 47; 157 18; 
158 21; 163 5; 165 14; 166 7; 167 32; 
168 11; 169 17; 170 38; 171 6; 174 6; 
181 19; 183 284; 184 56; 185 24; 186 42; 
187 10; 189 14; 191 4; 193 17; 195 272; 
196 42; 197 8; 200 13; 201 10; 202 15; 
209 3; 211 9; 212 17; 214 999; 215 174; 
216 25; 224 7; 225 13; 226 68; 227 37; 
228 23; 229 10; 230 7; 237 10; 238 7; 
239 30; 240 56; 241 136; 242 46; 243 13; 
251 11; 252 29; 253 55; 254 219; 255 88; 
256 39; 257 8; 264 14; 265 16; 266 40; 
267 59; 268 59; 269 129; 270 209; 271 40; 
272 10; 278 7; 279 8; 280 19; 281 18; 
282 108; 283 114; 284 98; 285 23; 294 27; 
295 29; 296 51; 297 37; 298 201; 299 51; 
300 20; 308 16; 309 8; 310 23; 312 574; 
313 131; 314 20; 322 17; 323 6; 324 7; 
326 14; 327 10; 338 6; 340 226; 341 78; 
342 15; 350 25; 352 525; 353 162; 354 39; 
355 8; 368 438; 369 882; 370 251; 371 33; 
