Name: JWH-206
Synon: 2-(4-chlorophenyl)-1-(1-pentyl-1H-indol-3-yl)-ethanone
Synon: JWH-203 4-chloro isomer
Synon: JWH-203 4-chlorophenyl isomer
InChIKey: GPMUZXUMSOFDBA-UHFFFAOYSA-N
Formula: C21H22ClNO
MW: 339
ExactMass: 339.138992
CASNO: 864445589
ID: 2889
Comment: Provided by www.caymanchem.com/app/template/landing%2CForensic.vm / Item #10867  Lot#0429095
Num Peaks: 87
40 2; 41 16; 43 20; 44 3; 55 3; 
63 4; 73 8; 75 5; 76 2; 77 5; 
78 2; 87 1; 88 4; 89 29; 90 5; 
91 1; 96 2; 99 3; 101 7; 102 16; 
103 7; 114 5; 115 22; 116 46; 117 6; 
119 1; 120 4; 121 1; 125 20; 126 4; 
127 10; 128 14; 129 29; 130 17; 131 1; 
133 3; 135 4; 143 20; 144 173; 145 17; 
147 4; 149 1; 151 1; 154 3; 156 5; 
157 7; 158 4; 163 2; 170 5; 171 1; 
176 2; 177 3; 178 1; 184 1; 189 2; 
191 1; 193 1; 195 2; 197 2; 203 1; 
204 4; 205 3; 207 13; 209 1; 212 9; 
214 999; 215 160; 216 15; 217 3; 218 1; 
221 1; 240 1; 253 5; 254 1; 267 2; 
269 1; 281 3; 282 3; 283 4; 325 1; 
327 3; 331 1; 339 12; 340 4; 341 9; 
342 2; 343 1; 
