Name: JWH-175
Synon: 3-(naphthalen-1-ylmethyl)-1-pentyl-1H-indole
InChIKey: TYBRSILIYTUTSQ-UHFFFAOYSA-N
Formula: C24H25N
MW: 327
ExactMass: 327.1987
CASNO: 619294358
ID: 2895
Comment: Jason Nawyn
Num Peaks: 150
41 14; 42 1; 43 28; 44 1; 51 2; 
53 1; 55 3; 63 2; 65 1; 69 1; 
71 1; 75 3; 76 3; 77 18; 78 3; 
88 1; 89 6; 90 1; 91 7; 95 1; 
100 1; 101 11; 102 13; 103 14; 104 6; 
107 2; 108 3; 109 2; 113 9; 114 6; 
115 70; 116 12; 117 9; 118 7; 119 4; 
120 12; 121 10; 122 6; 126 14; 127 51; 
128 38; 129 25; 130 176; 131 22; 132 1; 
133 3; 134 39; 135 72; 136 15; 139 13; 
140 7; 141 192; 142 66; 143 20; 144 36; 
145 4; 150 2; 151 6; 152 15; 153 29; 
154 12; 155 3; 156 12; 157 5; 158 6; 
163 3; 164 27; 165 16; 166 3; 167 4; 
168 1; 170 7; 171 2; 176 2; 177 1; 
178 5; 179 1; 184 2; 185 2; 186 178; 
187 30; 188 3; 189 4; 190 1; 191 1; 
192 1; 198 3; 199 9; 200 272; 201 48; 
202 16; 203 3; 204 1; 213 6; 214 3; 
215 9; 216 2; 217 1; 224 7; 225 10; 
226 38; 227 21; 228 28; 229 14; 230 5; 
237 3; 238 3; 239 25; 240 14; 241 45; 
242 18; 243 7; 244 1; 250 1; 251 7; 
252 27; 253 43; 254 199; 255 96; 256 133; 
257 45; 258 7; 264 2; 265 3; 266 18; 
267 45; 268 67; 269 24; 270 582; 271 152; 
272 21; 279 7; 280 3; 281 1; 282 4; 
283 2; 284 6; 285 1; 296 1; 298 5; 
299 1; 312 7; 313 1; 324 3; 325 8; 
326 222; 327 999; 328 281; 329 37; 330 3; 
