Name: JWH-133
Synon: (6aR,10aR)-3-(1,1-Dimethylbutyl)-6a,7,10,10a-tetrahydro-6,6,9-trimethyl-6H-dibenzo[b,d]pyran
InChIKey: YSBFLLZNALVODA-RBUKOAKNSA-N
Formula: C22H32O
MW: 312
ExactMass: 312.245316
CASNO: 259869551
ID: 2897
Comment: DEA SWL
Num Peaks: 209
39 43; 40 7; 41 228; 42 14; 43 393; 
44 12; 50 1; 51 12; 52 4; 53 41; 
54 4; 55 95; 56 6; 57 45; 58 2; 
59 3; 63 5; 64 3; 65 28; 66 6; 
67 35; 68 9; 69 43; 70 4; 71 2; 
72 2; 73 1; 75 1; 76 6; 77 73; 
78 17; 79 71; 80 8; 81 26; 82 5; 
83 17; 84 11; 85 251; 86 30; 87 2; 
88 1; 89 12; 90 5; 91 146; 92 40; 
93 114; 94 13; 95 21; 96 3; 97 2; 
98 11; 99 18; 100 4; 101 3; 102 6; 
103 25; 104 10; 105 82; 106 32; 107 138; 
108 25; 109 16; 110 1; 111 2; 112 1; 
113 35; 115 82; 116 25; 117 35; 118 10; 
119 142; 120 33; 121 116; 122 29; 123 5; 
126 3; 127 71; 128 82; 129 53; 130 13; 
131 56; 132 12; 133 65; 134 48; 135 111; 
136 14; 137 3; 139 9; 140 2; 141 57; 
142 27; 143 27; 144 28; 145 55; 146 11; 
147 75; 148 46; 149 29; 150 4; 151 6; 
152 36; 153 35; 154 19; 155 30; 156 10; 
157 36; 158 43; 159 233; 160 33; 161 40; 
162 8; 163 3; 164 2; 165 51; 166 22; 
167 27; 168 11; 169 25; 170 12; 171 118; 
172 35; 173 39; 174 6; 175 12; 176 7; 
177 4; 178 23; 179 20; 180 8; 181 16; 
182 8; 183 25; 184 11; 185 143; 186 84; 
187 29; 188 7; 189 13; 190 5; 191 115; 
192 22; 193 12; 194 5; 195 11; 196 6; 
197 19; 198 9; 199 32; 200 15; 201 147; 
202 28; 203 5; 204 5; 205 6; 206 1; 
207 3; 208 4; 209 8; 210 3; 211 26; 
212 7; 213 24; 214 11; 215 5; 221 1; 
223 3; 224 1; 225 12; 226 18; 227 33; 
228 5; 229 219; 230 39; 231 16; 232 3; 
235 1; 237 2; 238 1; 239 4; 240 1; 
241 19; 242 4; 243 12; 244 17; 245 3; 
249 1; 251 2; 253 3; 254 3; 255 25; 
256 26; 257 26; 258 5; 265 1; 267 3; 
268 2; 269 999; 270 357; 271 53; 272 5; 
283 1; 293 5; 295 4; 297 23; 298 5; 
310 1; 312 407; 313 95; 314 12; 
