Name: JWH-398 8-chloronaphthyl isomer
Synon: (8-chloronaphthalen-1-yl)(1-pentyl-1H-indol-3-yl)methanone
InChIKey: LZLCJWHUCAXUOX-UHFFFAOYSA-N
Formula: C24H22ClNO
MW: 375
ExactMass: 375.138992
CASNO: 0
ID: 2899
Comment: Provided by www.caymanchem.com/app/template/landing%2CForensic.vm / Item #9001028  Lot #0434546
Num Peaks: 168
41 40; 43 86; 44 3; 50 2; 51 4; 
52 1; 53 2; 55 8; 62 3; 63 6; 
64 1; 65 1; 71 2; 73 1; 74 5; 
75 13; 76 8; 77 7; 78 1; 87 3; 
88 6; 89 20; 90 2; 94 1; 95 1; 
96 1; 98 1; 99 8; 100 4; 101 14; 
102 21; 103 5; 107 3; 108 1; 112 4; 
113 14; 114 10; 115 23; 116 48; 117 6; 
118 2; 119 1; 120 9; 125 17; 126 73; 
127 45; 128 27; 129 16; 130 10; 133 2; 
134 2; 135 5; 139 3; 140 5; 142 61; 
144 116; 145 17; 147 3; 149 3; 150 2; 
151 2; 152 2; 154 4; 155 4; 156 5; 
157 1; 158 2; 159 4; 161 80; 162 11; 
163 27; 164 9; 167 2; 170 6; 171 2; 
174 2; 175 2; 176 2; 177 1; 184 1; 
186 2; 187 8; 188 6; 189 47; 190 9; 
191 13; 192 2; 193 1; 200 3; 202 1; 
203 1; 207 1; 208 1; 209 1; 211 5; 
212 6; 213 29; 214 98; 215 27; 216 7; 
223 1; 224 6; 225 5; 226 15; 227 6; 
228 4; 238 10; 239 10; 240 50; 241 57; 
242 13; 243 5; 249 2; 250 1; 251 8; 
252 8; 253 18; 254 52; 255 23; 256 3; 
264 2; 265 3; 266 8; 267 8; 268 21; 
269 136; 270 441; 271 90; 272 11; 276 2; 
277 2; 278 2; 280 3; 281 9; 282 44; 
283 23; 284 13; 285 3; 286 1; 290 2; 
294 3; 295 1; 296 12; 297 3; 304 6; 
305 2; 306 2; 310 5; 311 1; 312 1; 
314 1; 318 10; 319 1; 320 2; 322 3; 
324 2; 327 1; 338 6; 340 999; 341 258; 
342 34; 343 3; 355 1; 375 89; 376 23; 
377 28; 378 9; 379 1; 
