Name: JWH-398 5-chloronaphthyl isomer
Synon: (5-chloronaphthalen-1-yl)(1-pentyl-1H-indol-3-yl)methanone
InChIKey: HDEHWWPFRITSLL-UHFFFAOYSA-N
Formula: C24H22ClNO
MW: 375
ExactMass: 375.138992
CASNO: 0
ID: 2902
Comment: Provided by www.caymanchem.com/app/template/landing%2CForensic.vm / Item #9001025  Lot #0431226
Num Peaks: 214
40 14; 41 129; 43 297; 44 8; 50 8; 
51 18; 52 6; 53 8; 55 44; 62 10; 
63 25; 65 6; 69 4; 71 5; 73 12; 
74 14; 75 42; 76 31; 77 23; 78 12; 
86 5; 87 11; 88 26; 89 77; 90 8; 
91 5; 94 5; 98 10; 99 23; 100 17; 
101 57; 102 70; 103 31; 104 5; 105 5; 
106 10; 107 17; 108 5; 112 18; 113 55; 
114 32; 115 94; 116 154; 117 36; 118 8; 
119 4; 121 28; 125 72; 126 313; 127 167; 
128 126; 129 85; 130 104; 131 17; 132 5; 
133 7; 134 7; 135 21; 138 4; 139 12; 
140 14; 142 178; 143 37; 144 495; 145 51; 
147 5; 149 7; 150 9; 151 5; 152 4; 
153 4; 154 14; 155 8; 156 25; 157 11; 
158 19; 160 24; 161 379; 162 80; 163 139; 
164 21; 165 6; 166 5; 167 5; 170 27; 
173 13; 174 9; 175 26; 176 8; 177 6; 
184 10; 185 7; 186 74; 187 31; 189 263; 
190 37; 191 79; 192 12; 193 2; 195 5; 
198 5; 199 6; 200 11; 201 157; 202 26; 
203 53; 204 9; 207 2; 211 22; 212 24; 
213 94; 214 932; 215 176; 216 14; 221 4; 
223 6; 224 14; 225 11; 226 40; 227 25; 
228 12; 236 5; 238 36; 239 32; 240 118; 
241 146; 242 42; 243 11; 247 5; 248 5; 
249 15; 250 8; 251 16; 252 12; 253 57; 
254 171; 255 76; 256 22; 262 5; 264 4; 
265 10; 266 13; 267 18; 268 39; 269 257; 
270 118; 271 17; 272 6; 273 5; 274 10; 
275 29; 276 19; 277 9; 278 7; 280 5; 
281 13; 282 34; 283 48; 284 21; 285 7; 
287 8; 288 81; 289 42; 290 66; 291 22; 
292 20; 293 6; 294 5; 296 4; 300 14; 
301 24; 302 47; 303 37; 304 156; 305 39; 
306 57; 307 16; 308 5; 310 4; 312 8; 
314 10; 316 21; 318 632; 319 151; 320 228; 
321 61; 322 16; 328 8; 330 6; 331 4; 
332 17; 333 4; 334 5; 340 127; 341 29; 
342 9; 343 5; 346 21; 347 15; 348 8; 
349 4; 355 8; 356 17; 358 374; 359 111; 
360 157; 361 38; 362 10; 374 330; 375 999; 
376 355; 377 348; 378 88; 379 11; 
