Name: JWH-370
Synon: [5-(2-methylphenyl)-1-pentyl-1H-pyrrol-3-yl]-1-naphthalenyl-methanone
InChIKey: HZMLAMXVETUEJZ-UHFFFAOYSA-N
Formula: C27H27NO
MW: 381
ExactMass: 381.209265
CASNO: 914458223
ID: 2905
Comment: Provided by www.caymanchem.com/app/template/landing%2CForensic.vm / Item #10827  Lot #0431748
Num Peaks: 234
40 5; 41 52; 42 11; 43 116; 44 5; 
50 1; 51 4; 52 4; 53 6; 54 1; 
55 20; 56 1; 63 6; 64 1; 65 9; 
69 2; 71 5; 73 2; 74 2; 75 9; 
76 5; 77 39; 78 7; 79 1; 83 1; 
86 6; 87 3; 89 10; 90 7; 91 33; 
92 3; 96 5; 98 2; 100 5; 101 20; 
102 8; 103 9; 104 3; 105 10; 106 5; 
113 11; 114 2; 115 61; 116 34; 117 13; 
118 60; 119 5; 121 3; 122 1; 123 2; 
125 11; 126 90; 127 726; 128 217; 129 101; 
130 28; 131 8; 132 13; 133 1; 134 7; 
137 1; 138 5; 139 45; 140 30; 141 61; 
142 15; 143 10; 144 20; 145 13; 146 10; 
147 10; 148 8; 149 5; 150 6; 151 12; 
152 30; 153 38; 154 165; 155 999; 156 172; 
157 18; 158 6; 159 8; 161 9; 162 5; 
163 20; 164 20; 165 62; 166 29; 167 52; 
168 59; 169 51; 170 176; 171 22; 172 3; 
174 2; 175 2; 176 9; 177 6; 178 8; 
179 11; 180 14; 181 19; 182 33; 184 214; 
185 32; 186 4; 187 5; 188 26; 189 14; 
190 13; 191 5; 192 4; 193 32; 194 18; 
195 2; 196 15; 197 9; 198 16; 199 6; 
200 5; 201 5; 202 7; 203 6; 204 14; 
205 13; 206 7; 207 5; 208 6; 210 21; 
211 5; 212 7; 213 5; 214 5; 215 8; 
216 3; 217 2; 218 6; 219 13; 220 21; 
221 5; 223 2; 224 10; 225 4; 226 87; 
227 19; 228 6; 229 2; 232 14; 233 10; 
234 13; 235 2; 236 2; 237 8; 239 31; 
240 17; 241 8; 242 4; 243 2; 250 14; 
251 7; 252 56; 253 41; 254 252; 255 59; 
256 7; 257 1; 259 1; 261 2; 262 4; 
263 17; 264 10; 265 51; 266 32; 267 32; 
268 17; 269 8; 274 1; 276 12; 277 9; 
278 20; 279 15; 280 34; 281 61; 282 48; 
283 18; 284 3; 285 3; 289 2; 290 60; 
291 30; 292 27; 293 27; 294 38; 295 49; 
296 68; 297 26; 298 2; 304 2; 305 3; 
306 13; 308 66; 310 356; 311 83; 312 7; 
313 3; 322 7; 323 8; 324 185; 325 107; 
326 26; 327 3; 331 3; 336 4; 338 25; 
339 5; 341 2; 343 2; 350 3; 351 3; 
352 9; 353 4; 354 4; 364 57; 365 17; 
366 62; 367 21; 368 1; 378 5; 380 415; 
381 766; 382 193; 383 26; 384 4; 
