Name: JWH-368
Synon: [5-(3-fluorophenyl)-1-pentyl-1H-pyrrol-3-yl]-1-naphthalenyl-methanone
InChIKey: OCOICOMCAJNSCA-UHFFFAOYSA-N
Formula: C26H24FNO
MW: 385
ExactMass: 385.184193
CASNO: 914458314
ID: 2907
Comment: Provided by www.caymanchem.com/app/template/landing%2CForensic.vm / Item #10829  Lot #0432910
Num Peaks: 141
41 131; 43 271; 44 11; 51 17; 52 19; 
53 17; 55 31; 63 9; 71 16; 73 6; 
74 12; 75 23; 77 49; 78 9; 86 18; 
95 17; 99 10; 101 39; 107 14; 109 19; 
120 14; 121 13; 122 64; 123 14; 125 28; 
126 80; 127 567; 128 108; 129 19; 131 19; 
132 38; 133 179; 134 22; 135 31; 136 19; 
139 28; 140 8; 141 19; 145 44; 146 34; 
147 26; 150 18; 151 14; 152 18; 155 747; 
156 90; 157 12; 158 34; 159 46; 160 56; 
161 19; 162 10; 163 54; 164 53; 165 80; 
166 13; 167 18; 168 9; 172 36; 173 37; 
174 83; 176 12; 177 9; 180 10; 185 12; 
187 38; 188 272; 189 39; 190 23; 191 15; 
192 34; 193 35; 194 24; 195 10; 200 32; 
202 8; 204 12; 205 10; 207 17; 208 4; 
214 20; 219 20; 220 33; 230 56; 233 11; 
234 11; 239 17; 253 13; 255 16; 256 9; 
257 71; 258 269; 259 63; 260 10; 265 11; 
267 9; 268 12; 269 14; 270 51; 271 21; 
272 13; 276 17; 281 3; 282 12; 283 21; 
284 31; 285 52; 286 41; 287 18; 288 13; 
290 89; 291 27; 293 8; 294 13; 295 13; 
296 17; 298 47; 299 91; 300 154; 301 45; 
302 10; 310 11; 311 24; 312 40; 314 479; 
315 144; 316 25; 326 23; 328 367; 329 147; 
330 26; 342 44; 343 10; 356 11; 357 10; 
368 63; 369 18; 370 9; 384 470; 385 999; 
386 271; 
