Name: JWH-348
Synon: 1-pentyl-2-(4-trifluoromethylphenyl)-4-(1-naphthoyl)indole
InChIKey: KFMFBZYLXNTONN-UHFFFAOYSA-N
Formula: C27H24F3NO
MW: 435
ExactMass: 435.181
CASNO: 0
ID: 2909
Comment: ForensicDB entry 3109
Num Peaks: 241
51 5; 52 12; 53 8; 54 1; 55 15; 
56 1; 63 2; 65 2; 69 4; 71 7; 
74 2; 75 7; 76 3; 77 24; 78 3; 
84 1; 86 9; 87 2; 89 1; 99 1; 
100 1; 101 14; 102 2; 113 3; 114 2; 
115 5; 122 1; 125 7; 126 56; 127 373; 
128 59; 129 16; 130 1; 132 1; 133 7; 
138 1; 139 13; 140 11; 141 44; 143 2; 
144 2; 145 10; 146 1; 147 1; 150 2; 
151 8; 152 15; 154 9; 155 634; 156 76; 
157 8; 158 2; 159 3; 160 1; 162 3; 
163 23; 164 31; 165 61; 166 10; 167 20; 
168 4; 169 5; 170 3; 171 1; 172 45; 
173 7; 174 1; 175 9; 176 4; 177 6; 
178 5; 179 6; 180 5; 181 4; 182 24; 
183 78; 184 9; 185 3; 186 4; 187 1; 
188 1; 189 4; 190 11; 191 8; 192 4; 
193 17; 194 26; 195 27; 196 5; 197 1; 
198 3; 200 3; 201 1; 202 4; 203 4; 
204 6; 205 9; 206 9; 207 14; 208 5; 
209 13; 210 12; 211 8; 212 2; 213 3; 
215 1; 216 2; 218 7; 219 12; 220 24; 
221 6; 222 17; 223 14; 224 28; 225 4; 
226 3; 232 4; 233 4; 234 5; 235 5; 
236 5; 237 18; 238 216; 239 57; 240 14; 
241 2; 242 18; 243 2; 246 1; 248 3; 
249 2; 250 32; 251 6; 252 18; 253 9; 
254 4; 255 2; 257 1; 262 2; 263 1; 
264 16; 265 8; 266 10; 267 12; 268 9; 
269 2; 270 1; 275 1; 276 7; 277 6; 
278 9; 279 4; 280 32; 281 17; 282 7; 
283 2; 284 1; 286 1; 288 4; 289 1; 
290 91; 291 20; 292 5; 293 5; 294 9; 
295 11; 296 8; 297 2; 299 1; 301 1; 
306 4; 307 10; 308 200; 309 32; 310 5; 
314 1; 315 1; 316 2; 317 1; 319 2; 
320 7; 321 5; 322 2; 323 2; 324 7; 
325 1; 326 1; 329 1; 333 7; 334 8; 
335 14; 336 14; 337 8; 338 4; 342 2; 
343 5; 344 27; 345 8; 346 3; 347 2; 
348 33; 349 79; 350 141; 351 39; 352 3; 
358 1; 359 1; 360 8; 361 10; 362 20; 
363 14; 364 324; 365 90; 366 11; 374 1; 
375 1; 376 6; 377 4; 378 267; 379 104; 
380 14; 381 2; 390 2; 392 21; 393 5; 
404 1; 406 13; 407 7; 408 1; 416 62; 
417 18; 418 66; 419 17; 420 5; 432 1; 
433 5; 434 443; 435 999; 436 293; 437 39; 
438 2; 
