Name: JWH-309
Synon: 1-naphthalenyl[5-(1-naphthalenyl)-1-pentyl-1H-pyrrol-3-yl]-methanone
InChIKey: WVISOUYKTUUDFW-UHFFFAOYSA-N
Formula: C30H27NO
MW: 417
ExactMass: 417.209265
CASNO: 914458427
ID: 2910
Comment: Provided by www.caymanchem.com/app/template/landing%2CForensic.vm / Item #10830  Lot #0436105
Num Peaks: 101
41 67; 43 128; 44 19; 55 18; 73 4; 
75 14; 77 28; 101 20; 115 18; 119 13; 
126 57; 127 470; 128 87; 129 13; 133 5; 
134 17; 135 11; 139 21; 141 32; 143 17; 
147 6; 150 19; 151 43; 152 49; 153 57; 
154 71; 155 617; 156 76; 157 20; 158 25; 
163 45; 164 78; 165 226; 166 38; 167 15; 
172 18; 173 19; 176 39; 177 36; 178 39; 
179 46; 180 33; 181 23; 189 30; 190 90; 
191 70; 192 66; 193 51; 194 18; 203 18; 
204 52; 206 340; 207 82; 208 7; 209 1; 
218 28; 219 39; 220 191; 221 50; 232 35; 
246 17; 253 15; 262 66; 263 27; 276 15; 
282 3; 287 27; 288 15; 289 56; 290 230; 
291 57; 300 24; 301 23; 302 36; 314 18; 
315 37; 316 26; 317 39; 318 36; 319 13; 
328 25; 329 14; 330 33; 331 63; 332 82; 
333 16; 341 2; 342 17; 343 34; 344 37; 
346 291; 347 114; 358 14; 360 167; 361 55; 
374 16; 400 36; 402 14; 417 999; 418 353; 
419 42; 
