Name: JWH-302
Synon: 1-pentyl-3-(3-methoxyphenylacetyl)indole
InChIKey: XZVYWLVYUAQEIM-UHFFFAOYSA-N
Formula: C22H25NO2
MW: 335
ExactMass: 335.18853
CASNO: 864445454
ID: 2912
Comment: Jason Nawyn / standard from Cayman Chemicals (lot # 0426362-2)
Num Peaks: 96
39 4; 41 14; 42 1; 43 34; 44 1; 
51 3; 52 2; 53 1; 55 4; 62 1; 
63 3; 64 1; 65 5; 69 1; 71 1; 
75 2; 76 3; 77 9; 78 12; 79 1; 
88 3; 89 17; 90 3; 91 14; 92 1; 
101 4; 102 14; 103 5; 105 1; 106 1; 
109 1; 114 4; 115 16; 116 47; 117 5; 
119 2; 121 18; 122 1; 125 1; 126 5; 
127 1; 128 10; 129 24; 130 12; 131 1; 
140 2; 142 1; 143 16; 144 174; 145 17; 
146 1; 152 1; 154 2; 156 3; 157 5; 
158 6; 164 1; 165 2; 166 1; 168 4; 
170 6; 171 1; 176 1; 177 1; 178 1; 
184 2; 185 1; 186 1; 190 1; 191 2; 
192 2; 193 1; 203 1; 204 5; 205 2; 
206 1; 212 5; 213 4; 214 999; 215 164; 
216 14; 217 2; 218 1; 220 2; 221 1; 
222 1; 233 1; 234 1; 236 3; 264 1; 
278 4; 306 1; 334 1; 335 56; 336 13; 
337 1; 
