Name: Campesterol
Synon: Ergost-5-en-3-ol, (3.beta.,24R)-
Synon: Ergost-5-en-3.beta.-ol, (24R)-
Synon: (24R)-5-Ergosten-3.beta.-ol
Synon: Campesterin
Synon: Campestrol
Synon: 24.alpha.-Methylcholesterol
Synon: 24.alpha.-Methyl-5-cholesten-3.beta.-ol
Synon: (24R)-Methylcholest-5-en-3.beta.-ol
Synon: delta.5-24-Isoergosten-3.beta.-ol
Synon: Ergost-5-en-3-ol
InChIKey: SGNBVLSWZMBQTH-UHFFFAOYSA-N
Formula: C28H48O
MW: 400
ExactMass: 400.370516
CASNO: 474624
ID: 2921
Comment: AAFS / Probability Based Matching Data Base Entry
Num Peaks: 127
42 61; 43 607; 44 49; 53 47; 55 410; 
57 265; 65 47; 67 441; 68 66; 69 348; 
70 56; 71 348; 77 223; 78 68; 79 640; 
80 106; 81 697; 82 106; 83 334; 85 208; 
91 875; 92 161; 93 697; 94 189; 95 906; 
96 128; 97 313; 103 52; 104 59; 105 965; 
106 256; 107 999; 108 237; 109 472; 110 106; 
111 197; 115 97; 117 308; 118 159; 119 607; 
120 420; 121 493; 122 151; 123 270; 124 156; 
125 168; 128 102; 129 192; 130 125; 131 503; 
132 151; 133 538; 134 237; 135 467; 136 144; 
137 144; 138 49; 141 54; 142 73; 143 348; 
144 151; 145 778; 146 170; 147 424; 148 135; 
149 282; 150 85; 151 116; 157 194; 158 223; 
159 538; 160 287; 161 498; 162 140; 163 420; 
164 78; 165 64; 171 182; 172 64; 173 263; 
174 87; 175 132; 176 56; 177 137; 178 218; 
179 92; 185 151; 186 64; 187 140; 189 92; 
191 97; 199 206; 200 68; 201 123; 205 92; 
213 562; 214 144; 215 99; 217 61; 219 54; 
227 75; 228 94; 229 118; 231 230; 232 54; 
233 56; 247 49; 255 265; 256 68; 261 116; 
273 253; 274 94; 288 116; 289 431; 290 118; 
315 410; 316 116; 340 71; 341 49; 367 234; 
368 87; 382 280; 383 75; 385 230; 386 52; 
400 647; 401 168; 
