Name: alpha-D(+)-Glucose Pentaacetate
InChIKey: LPTITAGPBXDDGR-UHFFFAOYSA-N
Formula: C16H22O11
MW: 390
ExactMass: 390.11621
CASNO: 604682
ID: 2923
Comment: DEA WRL
Num Peaks: 133
24 1; 25 2; 27 1; 29 3; 35 1; 
39 1; 40 4; 42 13; 43 999; 44 24; 
45 4; 50 1; 51 1; 52 1; 55 6; 
57 7; 60 6; 61 11; 64 2; 68 4; 
69 23; 70 19; 71 12; 72 4; 73 74; 
74 4; 77 3; 80 18; 81 45; 82 13; 
83 5; 84 7; 85 41; 86 28; 87 5; 
89 4; 91 2; 95 2; 96 5; 97 86; 
98 345; 99 47; 100 6; 101 9; 102 37; 
103 185; 104 8; 109 139; 110 16; 111 9; 
112 31; 113 26; 114 54; 115 658; 116 57; 
117 7; 118 2; 123 1; 125 11; 126 52; 
127 87; 128 12; 129 9; 130 2; 131 25; 
138 2; 139 73; 140 224; 141 32; 143 36; 
144 18; 145 185; 146 12; 147 1; 151 3; 
152 1; 153 2; 155 37; 156 11; 157 511; 
158 163; 159 15; 161 4; 167 2; 168 47; 
169 277; 170 28; 171 8; 173 5; 174 2; 
175 1; 182 76; 183 2; 184 2; 185 7; 
186 20; 187 19; 188 2; 197 40; 198 5; 
199 145; 200 310; 201 28; 202 5; 203 13; 
204 2; 205 1; 210 11; 211 48; 212 6; 
215 28; 216 3; 217 3; 228 23; 229 15; 
230 2; 242 353; 243 49; 244 5; 245 33; 
246 5; 247 2; 270 4; 271 22; 272 3; 
275 1; 287 3; 288 3; 289 2; 317 2; 
331 61; 332 9; 333 1; 
