Name: 3,4-Methylenedioxy-.beta.-Nitrostyrene
InChIKey: KFLWBZPSJQPRDD-ONEGZZNKSA-N
Formula: C9H7NO4
MW: 193
ExactMass: 193.037508
CASNO: 1485003
ID: 2924
Comment: DEA SCL / LOT#26429
Num Peaks: 102
40 9; 41 7; 42 10; 43 5; 44 3; 
45 1; 46 30; 48 1; 49 18; 50 137; 
51 159; 52 42; 53 83; 54 12; 55 21; 
60 6; 61 73; 62 283; 63 525; 64 57; 
65 166; 66 30; 67 18; 68 11; 69 36; 
70 1; 73 25; 74 49; 75 39; 76 63; 
77 141; 78 117; 79 97; 80 25; 81 5; 
82 8; 83 4; 84 3; 85 19; 86 51; 
87 76; 88 95; 89 799; 90 94; 91 82; 
92 29; 93 14; 94 11; 95 41; 96 4; 
97 1; 98 3; 99 2; 100 4; 101 5; 
102 5; 103 11; 104 17; 105 65; 106 56; 
107 26; 108 18; 109 14; 110 2; 111 2; 
116 16; 117 131; 118 24; 119 18; 120 31; 
121 59; 122 70; 123 6; 124 2; 125 2; 
130 1; 131 2; 133 113; 134 30; 135 86; 
136 19; 137 46; 138 19; 139 2; 145 469; 
146 999; 147 143; 148 32; 149 47; 150 53; 
151 6; 160 9; 161 13; 162 12; 163 10; 
164 4; 165 1; 176 8; 177 3; 193 615; 
194 60; 195 8; 
