Name: Cl-MDMA
Synon: 2-Chloro-4,5-methylenedioxymethamphetamine
InChIKey: UUGIOXDVHPQROZ-UHFFFAOYSA-N
Formula: C11H13ClNO2
MW: 226
ExactMass: 226.063481
CASNO: 0
ID: 2926
Comment: ENFSI / NFI/06/98AP (98.06.25.046)
Num Peaks: 113
38 1; 39 7; 40 1; 41 10; 42 30; 
43 12; 44 5; 47 1; 50 19; 51 20; 
52 4; 53 8; 54 4; 55 2; 56 55; 
57 15; 58 999; 59 36; 60 1; 61 4; 
62 8; 63 16; 64 3; 65 6; 66 2; 
67 1; 68 1; 70 1; 71 1; 72 1; 
73 5; 74 11; 75 67; 76 17; 77 58; 
78 12; 79 3; 84 4; 85 7; 86 2; 
87 7; 88 2; 89 8; 90 2; 91 6; 
92 3; 94 1; 96 1; 97 3; 98 1; 
99 5; 100 1; 101 4; 102 8; 103 19; 
104 5; 106 10; 110 1; 111 26; 112 5; 
113 15; 114 2; 115 3; 116 2; 117 4; 
118 7; 119 2; 120 1; 123 1; 125 1; 
130 2; 131 6; 132 5; 133 3; 134 1; 
135 7; 136 1; 137 1; 138 1; 139 5; 
140 1; 141 3; 142 1; 146 12; 147 2; 
148 1; 152 1; 155 1; 156 1; 160 4; 
161 2; 162 3; 169 47; 170 9; 171 13; 
172 4; 174 1; 175 2; 176 3; 177 3; 
181 2; 182 1; 190 4; 191 8; 192 3; 
195 1; 196 1; 197 1; 198 1; 212 5; 
214 1; 226 1; 228 1; 
