Name: L-759,633
Synon: 3-(1,1-dimethylheptyl)-6aR,7,10,10aR-tetrahydro-1-methoxy-6,6,9-trimethyl-6H-dibenzo[b,d]pyran
InChIKey: SUFMHSFGODDLKI-NHCUHLMSSA-N
Formula: C26H40O2
MW: 384
ExactMass: 384.30283
CASNO: 174627500
ID: 2932
Comment: Jason Nawyn
Num Peaks: 216
39 5; 40 1; 41 46; 42 4; 43 84; 
53 6; 55 29; 56 4; 57 21; 59 2; 
65 4; 67 16; 68 5; 69 26; 71 19; 
77 16; 78 4; 79 18; 80 3; 81 12; 
82 1; 83 5; 85 13; 89 2; 91 37; 
92 5; 93 28; 94 7; 95 5; 97 1; 
99 1; 101 2; 103 9; 104 2; 105 25; 
106 5; 107 23; 108 3; 109 11; 113 1; 
114 5; 115 20; 116 4; 117 10; 118 3; 
119 31; 120 6; 121 25; 122 8; 123 3; 
125 5; 127 5; 128 26; 129 16; 130 3; 
131 9; 132 3; 133 5; 134 16; 135 20; 
136 4; 137 20; 138 1; 139 2; 141 12; 
142 20; 143 7; 144 4; 145 8; 146 3; 
147 9; 148 8; 149 13; 150 5; 151 12; 
152 8; 153 8; 154 4; 155 7; 156 5; 
157 9; 158 8; 159 8; 160 4; 161 15; 
162 3; 163 23; 164 5; 165 35; 166 17; 
167 6; 168 3; 169 6; 170 3; 171 12; 
172 5; 173 9; 174 9; 175 14; 176 3; 
177 27; 178 67; 179 23; 180 6; 181 8; 
182 5; 183 9; 184 3; 185 11; 186 6; 
187 13; 188 10; 189 16; 190 3; 191 3; 
192 11; 194 3; 195 10; 196 3; 197 11; 
198 3; 199 11; 200 13; 201 57; 202 17; 
203 21; 204 4; 205 6; 206 2; 210 3; 
211 6; 212 2; 213 13; 214 6; 215 70; 
216 52; 217 31; 218 8; 219 5; 220 4; 
221 4; 223 9; 224 2; 225 8; 226 3; 
227 12; 228 4; 229 29; 230 10; 231 59; 
232 23; 233 3; 237 1; 239 5; 240 2; 
241 19; 242 11; 243 15; 244 14; 245 14; 
246 2; 247 1; 251 1; 254 3; 255 11; 
256 14; 257 19; 258 3; 259 15; 260 3; 
261 2; 263 61; 264 13; 265 5; 268 2; 
269 8; 270 4; 271 13; 272 16; 273 3; 
274 1; 284 4; 285 74; 286 31; 287 7; 
297 1; 298 2; 299 236; 300 999; 301 541; 
302 100; 303 18; 304 1; 313 7; 314 108; 
315 41; 316 24; 317 3; 327 9; 328 101; 
329 52; 330 9; 341 32; 342 67; 343 18; 
344 1; 356 1; 365 4; 367 3; 369 16; 
370 3; 383 3; 384 402; 385 113; 386 16; 
387 1; 
