Name: CB-52 di-TMS-derivative
InChIKey: XOQDGUYRUCTNBC-UHFFFAOYSA-N
Formula: C32H59NO3Si2
MW: 561
ExactMass: 561.403347
CASNO: 999543021
ID: 2933
Comment: Spectrum courtesy of Tom Gluodenis at Agilent Technologies
Num Peaks: 316
62 6; 63 4; 65 3; 66 1; 67 23; 
68 8; 69 44; 70 9; 71 9; 73 999; 
74 84; 75 112; 76 9; 77 16; 78 8; 
79 6; 80 11; 81 35; 82 14; 83 20; 
84 5; 85 6; 86 7; 88 5; 89 10; 
90 4; 91 13; 92 3; 93 8; 94 21; 
95 30; 96 9; 97 13; 98 7; 99 8; 
100 33; 101 28; 102 12; 103 12; 105 15; 
106 3; 107 8; 108 9; 109 8; 110 3; 
111 6; 112 12; 113 12; 114 38; 115 40; 
116 107; 117 23; 118 4; 119 4; 121 10; 
122 9; 123 7; 124 5; 125 2; 126 19; 
127 161; 128 118; 129 72; 130 63; 131 15; 
132 10; 133 2; 134 2; 135 9; 136 3; 
137 5; 138 4; 139 7; 140 10; 142 26; 
143 22; 144 104; 145 26; 146 2; 147 11; 
148 7; 149 24; 150 10; 151 9; 152 6; 
153 9; 154 22; 155 133; 156 705; 157 165; 
158 78; 159 11; 160 3; 161 9; 162 5; 
163 18; 164 8; 165 18; 166 9; 167 49; 
168 31; 169 21; 170 124; 171 183; 172 44; 
173 12; 174 3; 177 9; 178 6; 179 45; 
180 17; 181 33; 182 22; 184 316; 185 53; 
186 25; 187 11; 188 8; 192 6; 193 34; 
195 405; 196 77; 197 34; 198 72; 199 25; 
200 22; 201 5; 202 2; 205 8; 206 14; 
208 5; 209 38; 210 12; 211 4; 212 27; 
213 21; 214 13; 215 13; 218 7; 219 6; 
220 1; 221 24; 222 10; 223 10; 224 7; 
225 6; 226 29; 227 68; 228 208; 229 51; 
230 7; 231 5; 235 14; 236 4; 238 24; 
239 6; 240 32; 241 47; 242 25; 243 2; 
244 1; 246 2; 248 2; 249 9; 251 13; 
252 4; 253 7; 254 101; 255 17; 256 29; 
257 3; 258 7; 259 2; 261 4; 262 2; 
263 8; 264 3; 265 18; 266 13; 267 38; 
268 34; 269 27; 270 40; 271 12; 273 2; 
275 2; 276 3; 277 7; 278 4; 279 7; 
280 22; 281 4; 282 39; 283 48; 284 145; 
285 43; 286 3; 288 12; 289 8; 290 5; 
291 4; 292 2; 293 2; 294 5; 295 4; 
296 145; 297 37; 298 17; 299 2; 303 2; 
304 2; 305 9; 306 3; 307 6; 310 7; 
312 14; 313 4; 317 2; 319 20; 320 2; 
321 2; 328 2; 333 3; 334 2; 335 10; 
336 10; 337 30; 338 126; 339 72; 345 2; 
347 2; 349 2; 350 8; 351 11; 354 133; 
355 317; 356 86; 357 15; 362 4; 363 1; 
364 7; 365 3; 366 2; 372 2; 373 2; 
374 2; 376 2; 379 2; 380 1; 386 1; 
388 3; 390 12; 391 4; 393 3; 398 2; 
401 4; 402 3; 405 6; 407 8; 408 1; 
414 2; 415 3; 416 3; 418 2; 420 2; 
421 11; 422 6; 423 3; 428 2; 430 4; 
431 2; 432 3; 433 6; 435 10; 436 4; 
446 2; 448 26; 449 15; 450 6; 451 2; 
453 1; 462 4; 463 4; 464 2; 471 3; 
472 4; 473 10; 474 5; 475 4; 477 9; 
478 2; 490 43; 492 28; 493 12; 494 2; 
505 74; 506 77; 507 32; 508 15; 519 25; 
520 15; 521 7; 522 3; 533 20; 534 12; 
535 4; 545 3; 547 77; 548 36; 549 17; 
550 4; 561 25; 562 127; 563 58; 564 22; 
565 5; 
