Name: HU-308 mono-TMS-derivative
InChIKey: BBEXFAKHYLXBRU-KAVZGVEFSA-N
Formula: C30H50O3Si
MW: 486
ExactMass: 486.352922
CASNO: 999539025
ID: 2938
Comment: Spectrum courtesy of Tom Gluodenis at Agilent Technologies
Num Peaks: 316
60 4; 61 21; 65 16; 66 5; 67 34; 
69 105; 70 7; 71 175; 73 999; 74 98; 
75 282; 76 21; 77 49; 78 13; 79 94; 
80 13; 81 32; 82 6; 83 21; 85 112; 
86 9; 89 27; 91 172; 92 22; 93 56; 
94 9; 95 18; 96 4; 97 7; 99 7; 
101 5; 103 208; 104 33; 105 138; 106 25; 
107 41; 108 10; 109 15; 110 4; 111 9; 
113 8; 115 55; 116 26; 117 77; 118 27; 
119 143; 120 35; 121 49; 122 8; 123 19; 
124 11; 125 11; 126 6; 127 35; 128 49; 
129 49; 130 20; 131 161; 132 73; 133 88; 
134 67; 135 57; 136 12; 137 16; 138 11; 
139 30; 140 10; 141 54; 142 40; 143 25; 
144 18; 145 33; 146 28; 147 49; 148 77; 
149 44; 150 13; 151 71; 152 39; 153 39; 
154 19; 155 38; 156 15; 157 192; 158 47; 
159 44; 160 16; 161 42; 162 40; 163 38; 
164 21; 165 105; 166 34; 167 35; 168 19; 
169 23; 170 28; 171 32; 172 21; 173 25; 
174 12; 175 37; 176 17; 177 72; 178 61; 
179 136; 180 72; 181 47; 182 20; 183 30; 
184 17; 185 25; 186 16; 187 34; 188 19; 
189 52; 190 24; 191 90; 192 82; 193 58; 
194 29; 195 43; 196 36; 197 43; 198 23; 
199 29; 200 21; 201 36; 202 25; 203 47; 
204 21; 205 77; 206 36; 207 46; 208 33; 
209 90; 210 29; 211 33; 212 22; 213 32; 
214 31; 215 66; 216 20; 217 23; 218 16; 
219 25; 220 11; 221 29; 222 41; 223 43; 
224 21; 225 31; 226 16; 227 65; 228 22; 
229 31; 230 12; 231 30; 232 13; 233 83; 
234 66; 235 27; 236 17; 237 55; 238 26; 
239 137; 240 36; 241 37; 242 19; 243 24; 
244 11; 245 17; 246 15; 247 13; 248 8; 
249 18; 250 10; 251 21; 252 10; 253 34; 
254 19; 255 57; 256 31; 257 24; 258 8; 
259 23; 260 8; 261 9; 262 9; 263 19; 
264 15; 265 38; 266 12; 267 26; 268 34; 
269 59; 270 30; 271 16; 272 7; 273 8; 
275 12; 277 664; 278 141; 279 35; 280 12; 
281 27; 282 11; 283 34; 284 21; 285 17; 
286 7; 287 11; 288 4; 289 9; 290 16; 
291 69; 292 15; 293 10; 295 13; 296 14; 
297 45; 298 24; 299 10; 300 7; 301 16; 
302 7; 303 22; 304 8; 305 26; 306 6; 
309 7; 311 339; 312 309; 313 70; 314 12; 
315 6; 316 8; 317 4; 318 577; 319 196; 
320 32; 321 6; 325 11; 326 23; 327 26; 
328 10; 329 11; 330 15; 331 23; 332 9; 
333 29; 334 7; 335 8; 339 9; 340 29; 
341 37; 342 12; 343 13; 344 10; 345 11; 
346 4; 351 9; 353 851; 354 266; 355 50; 
356 10; 357 39; 358 44; 359 10; 365 161; 
366 48; 367 17; 369 6; 370 18; 371 7; 
372 5; 378 11; 379 6; 381 195; 382 62; 
383 343; 384 95; 385 19; 386 14; 387 6; 
391 9; 396 605; 397 191; 398 31; 401 13; 
402 10; 403 6; 404 56; 405 22; 406 7; 
413 55; 414 20; 415 9; 417 37; 418 102; 
419 33; 420 8; 429 13; 430 24; 431 7; 
441 5; 443 28; 444 84; 445 29; 455 8; 
471 72; 473 28; 487 196; 488 72; 489 21; 
490 4; 
