Name: HU-210 di-TMS-derivative
InChIKey: LVXNYMSXBNXXNH-CLJLJLNGSA-N
Formula: C31H54O3Si2
MW: 530
ExactMass: 530.36115
CASNO: 999534020
ID: 2940
Comment: Spectrum courtesy of Tom Gluodenis at Agilent Technologies
Num Peaks: 283
60 4; 61 14; 67 17; 69 40; 71 55; 
73 731; 74 74; 75 250; 76 9; 81 13; 
83 12; 85 34; 91 41; 92 5; 93 20; 
95 14; 97 4; 99 5; 107 18; 109 10; 
111 4; 117 11; 118 5; 119 24; 120 5; 
121 12; 125 4; 127 3; 131 19; 132 22; 
133 52; 134 7; 135 7; 141 12; 147 27; 
148 5; 149 9; 151 6; 152 4; 153 7; 
155 9; 159 5; 161 7; 165 16; 166 7; 
167 13; 168 3; 169 6; 171 5; 173 5; 
175 7; 177 10; 178 8; 179 22; 180 8; 
181 13; 182 5; 183 10; 185 8; 187 5; 
189 5; 191 14; 192 7; 193 26; 194 9; 
195 28; 196 10; 197 9; 199 7; 200 3; 
201 24; 203 11; 205 15; 206 7; 207 27; 
208 27; 209 30; 210 8; 211 7; 213 7; 
216 86; 217 10; 219 25; 220 7; 221 44; 
222 18; 223 42; 224 27; 225 12; 226 4; 
227 6; 229 9; 230 6; 231 12; 232 7; 
233 24; 234 8; 235 35; 236 48; 237 13; 
238 8; 239 9; 240 3; 241 9; 242 3; 
243 11; 244 5; 245 17; 246 10; 247 27; 
248 8; 249 21; 250 13; 251 15; 252 6; 
253 9; 254 4; 255 12; 256 5; 257 22; 
258 12; 259 64; 260 25; 261 25; 263 7; 
264 4; 265 9; 266 7; 267 10; 268 5; 
269 13; 270 7; 271 26; 272 12; 273 68; 
274 54; 275 42; 276 12; 277 7; 278 3; 
279 8; 280 4; 281 8; 282 4; 283 14; 
284 8; 285 26; 286 13; 287 38; 288 17; 
289 44; 290 18; 291 10; 292 3; 293 7; 
294 3; 295 11; 296 5; 297 18; 298 10; 
299 30; 300 14; 301 15; 302 7; 303 11; 
304 4; 305 5; 307 5; 308 5; 309 13; 
310 5; 311 11; 312 9; 313 56; 314 31; 
315 16; 316 5; 317 10; 318 4; 321 55; 
322 16; 323 11; 324 5; 325 13; 326 7; 
327 18; 328 13; 329 11; 330 4; 331 5; 
332 4; 333 4; 335 5; 337 4; 339 13; 
340 9; 341 48; 342 18; 343 14; 344 9; 
345 13; 346 4; 347 8; 349 3; 353 5; 
355 56; 356 125; 357 54; 358 28; 359 242; 
360 73; 361 24; 362 5; 367 4; 369 8; 
370 8; 371 17; 372 19; 373 29; 374 15; 
375 7; 383 7; 384 6; 385 15; 386 7; 
387 25; 388 8; 389 9; 393 20; 394 7; 
395 13; 396 6; 397 41; 398 17; 399 7; 
403 3; 405 4; 409 4; 411 5; 413 7; 
417 5; 418 19; 419 7; 425 57; 426 20; 
427 23; 428 7; 429 4; 431 61; 432 39; 
433 16; 434 5; 440 13; 441 14; 443 4; 
445 164; 446 999; 447 410; 448 156; 449 35; 
450 6; 458 8; 459 4; 460 122; 461 49; 
462 18; 464 4; 474 115; 475 47; 476 18; 
478 4; 488 70; 489 29; 491 10; 502 3; 
516 49; 517 22; 518 8; 531 665; 532 327; 
533 132; 534 32; 535 7; 
