Name: d-Pseudoephedrine-O-TMS Derivative
InChIKey: SMWXGVMXEZZFOK-UHFFFAOYSA-N
Formula: C13H23NOSi
MW: 237
ExactMass: 237.154891
CASNO: 0
ID: 2941
Comment: DEA SFL1 / TMSI/Py/chcl3/rt/30 min
Num Peaks: 66
39 5; 41 4; 42 14; 43 15; 44 4; 
45 22; 47 7; 50 2; 51 7; 52 1; 
55 2; 56 26; 57 10; 58 999; 59 52; 
61 3; 63 3; 65 6; 68 3; 70 2; 
72 1; 73 96; 74 12; 75 41; 76 4; 
77 23; 78 8; 79 7; 83 1; 88 43; 
89 11; 90 5; 91 28; 92 2; 94 1; 
102 1; 103 9; 104 3; 105 22; 106 9; 
115 20; 116 5; 117 28; 118 9; 130 8; 
131 12; 132 14; 133 9; 135 4; 145 1; 
146 10; 147 3; 148 11; 149 29; 150 3; 
163 29; 164 9; 165 5; 179 41; 180 7; 
191 17; 192 2; 193 8; 206 2; 222 15; 
223 2; 
