Name: Lysergol TBDMS Derivative
InChIKey: UYSQZQBCNXKMAM-UHFFFAOYSA-N
Formula: C22H32N2OSi
MW: 368
ExactMass: 368.22839
CASNO: 0
ID: 2946
Comment: DEA SFL1
Num Peaks: 208
29 8; 31 1; 39 4; 40 1; 41 20; 
42 21; 43 6; 44 27; 45 11; 46 1; 
47 5; 51 1; 53 1; 55 2; 56 9; 
57 25; 58 18; 59 42; 60 4; 61 5; 
63 1; 65 1; 67 1; 68 2; 69 1; 
70 2; 71 1; 73 160; 74 18; 75 76; 
76 7; 77 6; 78 1; 81 1; 82 4; 
83 5; 85 4; 86 1; 87 1; 88 6; 
89 35; 90 4; 91 2; 93 1; 94 3; 
96 4; 97 5; 98 2; 99 4; 100 1; 
101 4; 102 7; 103 7; 104 7; 106 1; 
107 1; 108 1; 110 32; 111 23; 113 3; 
114 3; 115 21; 116 4; 117 20; 118 16; 
120 2; 125 5; 126 13; 127 33; 128 9; 
129 4; 130 7; 131 2; 132 5; 133 8; 
137 1; 138 2; 139 17; 140 39; 141 11; 
142 7; 143 3; 144 5; 145 1; 150 5; 
151 20; 152 40; 153 35; 154 141; 155 36; 
156 19; 157 2; 162 1; 163 11; 164 25; 
165 68; 166 39; 167 130; 168 39; 169 7; 
170 2; 171 4; 172 1; 176 4; 177 9; 
178 26; 179 24; 180 124; 181 57; 182 22; 
183 5; 184 4; 185 1; 188 1; 189 1; 
190 11; 191 78; 192 408; 193 245; 194 154; 
195 48; 196 20; 197 12; 198 3; 200 2; 
202 1; 203 3; 204 41; 205 87; 206 70; 
207 102; 208 45; 209 15; 210 10; 211 4; 
212 58; 213 11; 214 3; 216 1; 217 3; 
218 8; 219 38; 220 105; 221 370; 222 116; 
223 294; 224 52; 225 6; 226 1; 232 1; 
233 13; 234 18; 235 93; 236 48; 237 20; 
238 7; 239 2; 240 2; 249 2; 250 5; 
251 5; 252 7; 253 4; 254 14; 255 4; 
256 1; 263 1; 264 1; 265 6; 266 17; 
267 5; 268 38; 269 11; 270 2; 279 2; 
280 1; 281 3; 282 1; 293 1; 295 3; 
296 4; 297 1; 308 4; 309 6; 310 12; 
311 16; 312 7; 313 1; 322 1; 323 1; 
324 21; 325 12; 326 3; 338 5; 339 1; 
351 1; 352 2; 353 29; 354 8; 355 2; 
365 2; 366 4; 367 58; 368 999; 369 315; 
370 82; 371 13; 372 1; 
