Name: MDMA TPC Derivative
InChIKey: OJUOLWHUOBUGCB-UHFFFAOYSA-N
Formula: C18H21F3N2O4
MW: 386
ExactMass: 386.145342
CASNO: 0
ID: 2947
Comment: DEA SFL1
Num Peaks: 69
39 19; 40 2; 41 45; 42 25; 43 14; 
50 10; 51 28; 53 15; 54 1; 55 16; 
56 37; 57 13; 58 487; 59 13; 63 3; 
65 9; 66 1; 67 11; 68 24; 69 88; 
70 24; 71 24; 77 69; 78 27; 79 24; 
83 1; 89 5; 91 13; 94 6; 96 63; 
97 8; 98 20; 103 23; 104 9; 105 61; 
106 6; 116 2; 121 1; 122 1; 126 3; 
128 7; 131 7; 132 5; 133 28; 134 4; 
135 135; 136 10; 137 1; 139 5; 147 18; 
148 14; 149 2; 154 7; 161 21; 162 993; 
163 184; 164 25; 165 13; 166 999; 167 78; 
191 5; 192 5; 194 61; 220 7; 251 87; 
252 9; 301 9; 386 39; 387 5; 
