Name: Methamphetamine TBDMS Derivative
Synon: (+)-Methamphetamine, N-(tert-butyldimethylsilyl)-
InChIKey: CUVVOXINMNKFIY-UHFFFAOYSA-N
Formula: C16H29NSi
MW: 263
ExactMass: 263.206926
CASNO: 0
ID: 2948
Comment: DEA SFL1
Num Peaks: 96
39 4; 41 10; 42 4; 43 7; 44 1; 
45 12; 51 2; 53 1; 55 2; 56 15; 
57 10; 58 27; 59 71; 60 5; 61 2; 
63 1; 65 10; 69 1; 70 2; 71 1; 
72 6; 73 264; 74 24; 75 10; 77 4; 
78 1; 79 1; 83 1; 84 1; 85 4; 
86 6; 87 2; 88 7; 89 3; 90 1; 
91 54; 92 4; 93 1; 95 1; 99 3; 
100 30; 101 5; 102 3; 103 3; 104 1; 
105 6; 106 1; 107 2; 114 13; 115 21; 
116 14; 117 7; 118 2; 119 4; 120 1; 
121 34; 122 4; 123 1; 130 1; 131 4; 
132 2; 133 6; 134 2; 135 12; 136 2; 
142 1; 145 4; 146 2; 147 4; 148 11; 
149 18; 150 3; 156 5; 157 1; 159 6; 
160 4; 161 1; 172 999; 173 172; 174 53; 
175 16; 176 4; 177 3; 188 2; 189 1; 
190 5; 191 1; 204 3; 206 176; 207 33; 
208 8; 209 1; 248 36; 249 8; 250 2; 
262 3; 
