Name: Morphine mono-TMS derivative
InChIKey: JONCSVGMTRIZIA-CFPBOUGYSA-N
Formula: C20H27NO3Si
MW: 357
ExactMass: 357.17602
CASNO: 0
ID: 2951
Comment: DEA SWL / location of TMS not determined
Num Peaks: 295
40 8; 41 35; 42 366; 43 77; 44 235; 
45 228; 46 13; 47 32; 50 2; 51 17; 
52 6; 53 45; 54 17; 55 75; 56 27; 
57 53; 58 62; 59 240; 60 15; 61 28; 
62 3; 63 14; 64 5; 65 33; 66 11; 
67 30; 68 30; 69 16; 70 148; 71 20; 
72 25; 73 999; 74 82; 75 349; 76 33; 
77 104; 78 23; 79 20; 80 36; 81 209; 
82 83; 83 34; 84 13; 85 4; 86 2; 
87 5; 88 4; 89 21; 90 7; 91 65; 
92 18; 93 23; 94 137; 95 33; 96 92; 
97 15; 98 5; 99 11; 100 6; 101 22; 
102 25; 103 32; 104 12; 105 36; 106 15; 
107 37; 108 35; 109 76; 110 30; 111 13; 
112 14; 113 12; 114 19; 115 156; 116 30; 
117 37; 118 25; 119 32; 120 29; 121 17; 
122 14; 123 9; 124 297; 125 24; 126 27; 
127 68; 128 94; 129 52; 130 22; 131 39; 
132 38; 133 28; 134 45; 135 28; 136 32; 
137 13; 138 4; 139 64; 140 21; 141 73; 
142 13; 143 26; 144 32; 145 23; 146 125; 
147 30; 148 21; 149 35; 150 23; 151 48; 
152 134; 153 97; 154 22; 155 35; 156 13; 
157 26; 158 14; 159 13; 160 43; 161 38; 
162 680; 163 97; 164 27; 165 120; 166 54; 
167 41; 168 34; 169 44; 170 22; 171 26; 
172 10; 173 67; 174 33; 175 56; 176 33; 
177 28; 178 37; 179 104; 180 38; 181 83; 
182 37; 183 22; 184 16; 185 30; 186 93; 
187 40; 188 13; 189 31; 190 16; 191 22; 
192 14; 193 42; 194 24; 195 29; 196 20; 
197 27; 198 22; 199 50; 200 38; 201 59; 
202 27; 203 127; 204 60; 205 71; 206 25; 
207 30; 208 19; 209 35; 210 42; 211 26; 
212 26; 213 19; 214 22; 215 30; 216 162; 
217 70; 218 39; 219 39; 220 44; 221 20; 
222 18; 223 49; 224 31; 225 27; 226 16; 
227 25; 228 20; 229 131; 230 60; 231 49; 
232 46; 233 44; 234 20; 235 19; 236 62; 
237 33; 238 21; 239 24; 240 37; 241 50; 
242 42; 243 69; 244 33; 245 40; 246 108; 
247 31; 248 24; 249 11; 250 20; 251 13; 
252 32; 253 111; 254 83; 255 69; 256 54; 
257 48; 258 34; 259 25; 260 33; 261 11; 
262 15; 263 3; 264 1; 265 10; 266 72; 
267 56; 268 31; 269 46; 270 59; 271 58; 
272 89; 273 25; 274 16; 275 11; 276 3; 
277 8; 278 6; 279 19; 280 17; 281 18; 
282 113; 283 73; 284 113; 285 72; 286 46; 
287 343; 288 108; 289 38; 290 4; 292 6; 
293 6; 294 2; 295 6; 296 15; 297 11; 
298 28; 299 32; 300 83; 301 22; 302 11; 
303 1; 307 1; 308 4; 309 5; 310 3; 
311 3; 312 19; 313 8; 314 35; 315 8; 
316 1; 322 5; 323 1; 324 214; 325 56; 
326 12; 327 5; 328 32; 329 11; 330 3; 
338 3; 339 3; 340 69; 341 19; 342 181; 
343 55; 344 14; 345 2; 354 1; 355 7; 
356 119; 357 906; 358 239; 359 67; 360 13; 
