Name: 1-(p-Fluorophenyl)piperazine
Synon: pFPP
Synon: NSC 149515
Synon: 1-(4-fluorophenyl)-piperazine
Synon: 4-FPP
Synon: para-FPP
InChIKey: AVJKDKWRVSSJPK-UHFFFAOYSA-N
Formula: C10H13FN2
MW: 180
ExactMass: 180.1062765
CASNO: 64090193
ID: 2953
Comment: Provided by www.caymanchem.com/app/template/landing%2CForensic.vm / Item #11204  Lot #0435857
Num Peaks: 81
40 4; 41 13; 42 35; 43 8; 44 5; 
45 2; 50 14; 51 14; 52 5; 53 1; 
54 10; 56 108; 57 59; 58 4; 59 1; 
61 3; 62 4; 63 9; 64 3; 65 1; 
68 7; 69 14; 70 7; 71 1; 73 1; 
74 12; 75 81; 76 10; 77 9; 78 1; 
81 7; 82 6; 83 21; 84 2; 85 1; 
89 3; 90 9; 91 5; 92 1; 93 2; 
95 184; 96 32; 97 12; 98 1; 101 3; 
102 2; 103 2; 104 1; 107 4; 108 5; 
109 64; 110 11; 111 5; 112 1; 117 4; 
118 2; 119 2; 120 1; 122 224; 123 169; 
124 55; 125 13; 126 1; 130 1; 134 1; 
135 8; 136 16; 138 999; 139 93; 140 4; 
148 5; 149 4; 150 13; 151 3; 152 1; 
163 2; 177 1; 178 3; 180 259; 181 30; 
182 1; 
