Name: Testosterone Benzoate
Synon: Testosterone 17-Benzoate
InChIKey: RZJSCADWIWNGKI-UHFFFAOYSA-N
Formula: C26H32O3
MW: 392
ExactMass: 392.235146
CASNO: 2088713
ID: 2954
Comment: DEA SWL
Num Peaks: 184
40 2; 41 27; 42 1; 43 11; 44 1; 
45 1; 50 5; 51 27; 52 3; 53 14; 
55 41; 56 2; 57 4; 63 1; 65 13; 
66 5; 67 30; 68 4; 69 7; 70 1; 
71 2; 73 1; 74 1; 75 2; 77 252; 
78 24; 79 64; 80 9; 81 29; 82 4; 
83 7; 89 1; 91 82; 92 13; 93 45; 
94 17; 95 30; 96 5; 97 8; 98 1; 
102 1; 103 8; 105 999; 106 87; 107 42; 
108 11; 109 24; 110 4; 111 9; 115 11; 
116 5; 117 22; 118 9; 119 40; 120 12; 
121 28; 122 19; 123 41; 124 136; 125 16; 
126 1; 127 3; 128 10; 129 15; 130 7; 
131 38; 132 12; 133 41; 134 31; 135 19; 
136 6; 137 10; 138 5; 139 1; 141 6; 
142 6; 143 12; 144 16; 145 32; 146 59; 
147 166; 148 38; 149 22; 150 3; 152 1; 
153 2; 154 1; 155 5; 156 3; 157 11; 
158 7; 159 21; 160 9; 161 14; 162 10; 
163 6; 164 1; 165 2; 167 1; 168 1; 
169 4; 170 3; 171 10; 172 7; 173 11; 
174 10; 175 6; 176 4; 177 4; 178 1; 
179 1; 181 1; 182 1; 183 5; 185 34; 
186 9; 187 9; 188 4; 189 4; 190 2; 
191 1; 195 2; 196 1; 197 4; 198 2; 
199 9; 200 6; 201 6; 202 2; 203 1; 
207 2; 208 1; 209 2; 210 1; 211 4; 
212 2; 213 19; 214 6; 215 4; 216 1; 
223 1; 224 2; 225 3; 226 3; 227 12; 
228 52; 229 13; 230 41; 231 8; 232 1; 
237 4; 238 1; 241 4; 242 5; 243 5; 
244 2; 245 3; 251 2; 252 8; 253 4; 
254 1; 255 9; 256 2; 259 1; 268 1; 
269 5; 270 26; 271 6; 287 5; 288 1; 
307 5; 308 3; 336 1; 349 1; 350 23; 
351 4; 364 1; 374 1; 375 1; 377 4; 
378 1; 392 46; 393 11; 394 1; 
