Name: Trimethoprim
Synon: 5-(3,4,5- trimethoxybenzyl) pyrimidine- 2,4- diamine
InChIKey: IEDVJHCEMCRBQM-UHFFFAOYSA-N
Formula: C14H18N4O3
MW: 290
ExactMass: 290.13789
CASNO: 738705
ID: 2955
Comment: DEA SWL / unverified from sample
Num Peaks: 80
41 37; 43 57; 50 25; 53 45; 54 35; 
64 15; 68 21; 73 21; 74 30; 77 54; 
80 26; 81 105; 86 36; 90 25; 92 41; 
93 46; 95 26; 103 21; 104 28; 106 36; 
110 23; 112 22; 114 21; 115 27; 116 25; 
119 44; 123 226; 125 26; 129 26; 130 51; 
133 28; 135 33; 136 24; 145 51; 146 34; 
147 26; 148 29; 155 23; 158 28; 159 23; 
160 39; 161 71; 162 24; 168 23; 171 23; 
173 22; 174 26; 176 28; 183 25; 185 22; 
187 34; 188 28; 189 93; 190 32; 199 38; 
200 99; 201 69; 202 23; 203 22; 205 27; 
206 27; 213 27; 215 78; 216 44; 217 25; 
227 37; 228 57; 242 39; 243 178; 244 25; 
257 41; 258 57; 259 330; 260 43; 275 237; 
276 67; 289 50; 290 999; 291 162; 292 45; 
