Name: Trenbolone Hexahydrobenzylcarbonate
InChIKey: GQJSFWYQKNQCIK-UHFFFAOYSA-N
Formula: C26H34O4
MW: 410
ExactMass: 410.24571
CASNO: 23454333
ID: 2956
Comment: DEA SWL
Num Peaks: 127
40 2; 41 162; 42 10; 43 56; 44 30; 
45 2; 51 2; 53 39; 54 44; 55 791; 
56 38; 57 2; 65 17; 67 80; 68 27; 
69 51; 73 14; 74 1; 75 2; 77 49; 
78 13; 79 45; 81 80; 82 5; 83 55; 
89 8; 91 82; 93 14; 95 17; 96 12; 
97 167; 98 8; 103 21; 104 1; 105 45; 
107 6; 115 74; 116 18; 117 40; 118 1; 
119 18; 127 21; 128 88; 129 81; 130 15; 
131 32; 132 1; 133 11; 135 13; 141 105; 
142 55; 143 66; 144 14; 145 31; 147 15; 
149 5; 152 42; 153 69; 154 55; 155 100; 
156 45; 157 27; 158 7; 160 1; 161 1; 
163 1; 165 76; 166 38; 167 81; 168 43; 
169 62; 170 36; 171 11; 177 6; 178 25; 
179 39; 180 16; 181 81; 182 37; 183 41; 
184 15; 185 20; 188 5; 191 8; 192 9; 
193 17; 194 13; 195 85; 196 43; 197 101; 
198 90; 199 43; 200 11; 207 11; 208 9; 
209 72; 210 110; 211 60; 212 18; 213 37; 
214 29; 223 41; 224 90; 225 40; 226 4; 
227 1; 237 137; 238 32; 242 3; 251 32; 
252 999; 253 229; 254 42; 255 11; 267 3; 
269 8; 270 33; 281 5; 282 2; 283 1; 
314 93; 315 23; 327 5; 341 1; 355 5; 
410 90; 411 27; 
