Name: O-6-Acetylmorphine TMS Derivative
Synon: O-6-Monoacetylmorphine TMS Derivative
InChIKey: HBWAMRSFAPVOKZ-UHFFFAOYSA-N
Formula: C22H29NO4Si
MW: 399
ExactMass: 399.186584
CASNO: 0
ID: 2958
Comment: DEA WRL
Num Peaks: 130
31 35; 42 278; 43 759; 44 188; 45 194; 
55 36; 58 71; 59 269; 61 21; 67 13; 
70 143; 73 999; 74 109; 75 369; 77 73; 
78 17; 81 163; 82 31; 83 21; 89 17; 
91 45; 94 122; 95 11; 96 31; 108 14; 
109 42; 115 77; 117 71; 118 31; 120 17; 
124 152; 127 29; 128 52; 129 19; 131 25; 
132 29; 133 11; 134 44; 135 9; 139 32; 
141 30; 144 50; 146 124; 147 29; 152 78; 
153 58; 154 25; 155 23; 162 161; 163 30; 
164 11; 165 89; 166 84; 167 30; 173 24; 
175 33; 177 25; 178 41; 179 73; 181 42; 
186 49; 189 24; 191 21; 193 28; 194 17; 
195 13; 199 22; 202 22; 203 70; 204 254; 
205 57; 206 16; 207 32; 209 17; 210 28; 
216 100; 217 37; 218 30; 219 24; 220 38; 
221 13; 222 15; 223 34; 224 20; 229 72; 
230 21; 231 18; 232 25; 233 37; 235 8; 
236 58; 237 20; 240 15; 241 25; 243 32; 
245 14; 246 57; 247 16; 248 9; 250 11; 
251 7; 253 68; 254 41; 255 35; 256 32; 
257 17; 266 124; 267 79; 268 33; 269 19; 
270 21; 271 13; 272 53; 280 41; 281 49; 
282 131; 283 115; 284 35; 285 23; 287 323; 
288 54; 298 33; 324 88; 340 430; 341 111; 
342 123; 356 19; 399 503; 400 126; 401 14; 
