Name: Phentermine TPC derivative
InChIKey: LCPOUGCDHUQTRF-UHFFFAOYSA-N
Formula: C17H21F3N2O2
MW: 342
ExactMass: 342.155512
CASNO: 0
ID: 2965
Comment: DEA SWL / unverified from sample
Num Peaks: 95
40 4; 41 37; 42 42; 43 12; 44 3; 
47 1; 50 2; 51 8; 52 3; 53 21; 
54 6; 55 27; 56 12; 58 361; 59 13; 
62 1; 63 6; 64 3; 65 37; 66 4; 
67 5; 68 18; 69 84; 70 47; 71 24; 
72 1; 73 3; 76 1; 77 11; 78 11; 
79 5; 80 1; 81 1; 82 1; 84 14; 
85 3; 89 11; 91 255; 92 31; 93 2; 
94 3; 96 60; 97 9; 98 31; 99 2; 
102 2; 103 6; 104 4; 105 18; 106 2; 
109 2; 110 1; 112 3; 113 2; 114 5; 
115 27; 116 14; 117 49; 118 8; 119 1; 
122 1; 124 2; 125 3; 126 12; 127 1; 
128 13; 129 3; 130 2; 131 8; 132 92; 
133 31; 134 18; 135 2; 136 1; 137 2; 
139 81; 140 4; 141 1; 146 1; 147 6; 
148 9; 149 5; 164 6; 166 999; 167 190; 
168 12; 191 2; 192 1; 194 49; 195 4; 
211 3; 251 359; 252 41; 253 3; 257 2; 
