Name: Naproxen TMS derivative
InChIKey: PPHRTNQQVJGADT-UHFFFAOYSA-N
Formula: C17H22O3Si
MW: 302
ExactMass: 302.133821
CASNO: 74793832
ID: 2966
Comment: DEA SWL
Num Peaks: 135
42 1; 43 11; 44 6; 45 53; 46 4; 
47 18; 50 1; 51 3; 52 1; 53 1; 
55 3; 57 3; 58 6; 59 10; 60 3; 
61 9; 62 2; 63 9; 64 1; 65 3; 
70 1; 71 1; 72 3; 73 470; 74 45; 
75 146; 76 15; 77 12; 78 1; 86 2; 
87 4; 88 5; 89 11; 90 1; 91 6; 
93 1; 98 1; 99 2; 100 1; 101 4; 
102 8; 103 2; 113 10; 114 21; 115 149; 
116 18; 117 3; 122 1; 125 1; 126 21; 
127 29; 128 29; 129 17; 130 3; 131 1; 
136 4; 137 2; 138 3; 139 58; 140 27; 
141 312; 142 105; 144 36; 145 4; 150 5; 
151 21; 152 86; 153 133; 154 113; 155 50; 
156 9; 157 7; 158 9; 159 2; 165 3; 
167 4; 168 8; 169 90; 170 153; 171 30; 
172 3; 181 2; 182 2; 183 25; 184 158; 
185 999; 186 158; 187 13; 188 1; 195 2; 
196 1; 197 4; 198 12; 199 5; 200 1; 
201 2; 211 6; 212 16; 213 8; 214 2; 
215 7; 216 1; 217 7; 218 1; 225 3; 
226 1; 227 15; 228 6; 229 3; 230 1; 
240 1; 241 2; 243 905; 244 216; 245 56; 
246 7; 255 2; 256 1; 257 1; 258 1; 
259 4; 260 1; 271 1; 272 9; 273 4; 
274 1; 285 1; 287 263; 288 58; 289 16; 
290 2; 302 571; 303 132; 304 36; 305 5; 
