Name: Diacetylpseudoephedrine
Synon: Pseudoephedrine diacetyl derivative
InChIKey: DISCLSGXBAXBTJ-UHFFFAOYSA-N
Formula: C14H19NO3
MW: 249
ExactMass: 249.136494
CASNO: 55133909
ID: 2969
Comment: ENFSI / NFI/Aldrich AG 04220TF, derivatised
Num Peaks: 65
39 6; 40 1; 41 4; 42 41; 43 175; 
44 12; 45 1; 50 4; 51 16; 52 4; 
53 2; 54 3; 55 3; 56 51; 57 21; 
58 999; 59 38; 60 1; 62 1; 63 5; 
64 1; 65 7; 70 1; 71 1; 73 1; 
74 4; 75 1; 76 2; 77 39; 78 9; 
79 20; 80 1; 86 4; 89 7; 90 4; 
91 27; 92 2; 99 2; 100 637; 101 40; 
102 4; 103 6; 104 3; 105 30; 106 5; 
107 19; 108 3; 115 22; 116 8; 117 33; 
118 15; 119 1; 130 6; 131 6; 132 8; 
133 11; 134 6; 135 1; 144 2; 146 10; 
147 6; 148 25; 149 3; 190 1; 192 1; 
