Name: Norpseudoephedrine TPC Derivative
InChIKey: BAIZLVOLZPKUCN-UHFFFAOYSA-N
Formula: C16H19F3N2O3
MW: 344
ExactMass: 344.134777
CASNO: 0
ID: 2976
Comment: DEA SFL1
Num Peaks: 142
36 1; 37 1; 38 2; 39 20; 40 6; 
41 57; 42 27; 43 47; 44 448; 45 13; 
46 2; 47 2; 49 1; 50 11; 51 29; 
52 9; 53 33; 54 15; 55 30; 56 10; 
57 17; 58 2; 62 1; 63 5; 64 3; 
65 6; 66 4; 67 9; 68 29; 69 127; 
70 93; 71 40; 72 3; 73 5; 74 3; 
75 2; 76 4; 77 126; 78 34; 79 100; 
80 8; 81 4; 82 5; 83 3; 84 4; 
85 3; 86 1; 87 1; 89 6; 90 4; 
91 41; 92 5; 93 3; 94 7; 95 2; 
96 75; 97 19; 98 83; 99 8; 100 2; 
102 1; 103 4; 104 3; 105 42; 106 21; 
107 56; 108 7; 109 4; 110 3; 111 3; 
112 9; 113 3; 114 4; 115 22; 116 11; 
117 25; 118 15; 119 3; 121 1; 122 1; 
123 3; 124 3; 125 4; 126 21; 127 2; 
128 11; 129 2; 130 2; 131 1; 132 3; 
133 7; 134 20; 135 3; 136 2; 137 4; 
138 6; 139 95; 140 6; 141 3; 142 7; 
143 1; 144 1; 145 1; 146 1; 147 8; 
148 9; 149 7; 150 9; 151 4; 152 1; 
159 1; 160 8; 161 1; 164 6; 165 5; 
166 999; 167 171; 168 14; 169 6; 170 1; 
175 2; 176 1; 177 2; 186 1; 192 1; 
193 9; 194 238; 195 20; 196 4; 209 2; 
210 19; 211 3; 220 3; 229 1; 237 127; 
238 629; 239 68; 240 6; 241 2; 259 8; 
260 1; 279 1; 
