Name: Valproic Acid
InChIKey: NIJJYAXOARWZEE-UHFFFAOYSA-N
Formula: C8H16O2
MW: 144
ExactMass: 144.115029
CASNO: 99661
ID: 2979
Comment: DEA SWL / unverified from sample
Num Peaks: 48
40 20; 41 231; 42 44; 43 139; 44 8; 
45 68; 46 2; 47 1; 50 5; 51 10; 
52 4; 53 29; 55 193; 56 26; 57 159; 
58 9; 59 15; 60 12; 65 6; 66 2; 
67 12; 68 7; 69 33; 70 8; 71 7; 
73 999; 74 41; 75 5; 77 3; 79 3; 
81 4; 82 2; 83 24; 84 9; 85 4; 
86 4; 87 8; 88 1; 95 2; 97 5; 
98 2; 99 3; 101 88; 102 510; 103 22; 
104 2; 115 63; 116 4; 
