Name: Olanzapine
Synon: Zyprexa
InChIKey: KVWDHTXUZHCGIO-UHFFFAOYSA-N
Formula: C17H20N4S
MW: 312
ExactMass: 312.140867
CASNO: 132539061
ID: 2989
Comment: DEA SWL / unverified from sample
Num Peaks: 178
40 6; 41 22; 42 199; 43 124; 44 37; 
45 22; 50 9; 51 24; 52 19; 53 10; 
54 18; 55 18; 56 146; 57 24; 58 43; 
59 43; 63 19; 64 13; 65 31; 66 6; 
67 1; 68 6; 69 23; 70 144; 71 33; 
72 11; 73 11; 75 16; 76 20; 77 32; 
78 21; 79 2; 80 4; 81 2; 82 46; 
83 36; 84 68; 85 22; 88 1; 89 7; 
90 19; 91 13; 92 19; 93 14; 94 4; 
95 11; 96 13; 97 22; 98 16; 99 127; 
100 13; 101 8; 102 49; 103 20; 104 9; 
105 2; 106 18; 107 9; 108 10; 109 19; 
110 8; 113 1; 114 7; 115 35; 116 14; 
117 10; 118 12; 119 24; 120 7; 121 2; 
122 9; 124 2; 125 2; 126 8; 127 24; 
128 23; 129 28; 130 4; 131 2; 132 1; 
133 10; 134 13; 135 12; 136 5; 137 4; 
139 1; 140 30; 141 10; 142 22; 143 21; 
144 4; 145 2; 146 32; 147 11; 148 1; 
149 2; 150 4; 152 20; 153 47; 154 34; 
155 25; 156 25; 157 2; 158 1; 159 4; 
160 10; 161 7; 165 1; 166 4; 167 17; 
168 31; 169 119; 170 26; 171 9; 172 4; 
173 26; 174 11; 179 75; 180 86; 181 49; 
182 26; 183 8; 184 13; 185 16; 186 72; 
187 21; 188 4; 193 8; 194 28; 195 25; 
196 17; 197 20; 198 214; 199 39; 200 23; 
201 14; 207 8; 208 26; 209 41; 210 12; 
211 63; 212 83; 213 547; 214 165; 215 56; 
216 9; 220 4; 221 2; 225 33; 226 17; 
227 22; 228 32; 229 863; 230 134; 231 47; 
232 2; 238 4; 239 23; 240 39; 241 43; 
242 999; 243 170; 244 59; 245 5; 252 4; 
253 20; 254 85; 255 65; 256 28; 257 3; 
268 17; 281 7; 282 2; 310 2; 311 19; 
312 166; 313 35; 314 7; 
