Name: Methylergonovine
Synon: Methylergometrine
Synon: Methergine
Synon: Methylergobasin
Synon: 9,10-didehydro- N-[1-(hydroxymethyl)- propyl]- D-lysergamide
InChIKey: UNBRKDKAWYKMIV-UHFFFAOYSA-N
Formula: C20H25N3O2
MW: 339
ExactMass: 339.194677
CASNO: 113428
ID: 2993
Comment: DEA SWL
Num Peaks: 100
41 80; 42 159; 43 61; 44 176; 45 66; 
51 23; 55 155; 56 64; 57 22; 58 25; 
59 42; 63 21; 69 32; 70 22; 72 129; 
73 213; 74 40; 76 19; 77 105; 78 50; 
81 44; 82 21; 88 113; 89 85; 90 126; 
95 55; 96 59; 98 23; 101 20; 103 53; 
104 103; 110 88; 111 276; 112 97; 115 55; 
125 47; 126 137; 127 207; 131 30; 133 19; 
135 79; 139 76; 140 21; 141 26; 144 123; 
147 45; 150 59; 151 171; 152 308; 153 239; 
154 331; 155 113; 156 58; 163 20; 164 75; 
165 175; 166 117; 167 372; 168 107; 177 23; 
178 336; 179 338; 180 451; 181 831; 182 191; 
183 29; 190 34; 191 189; 192 389; 193 170; 
194 173; 195 112; 196 999; 197 142; 205 271; 
206 191; 207 702; 208 235; 209 135; 219 49; 
220 107; 221 873; 222 316; 223 560; 224 132; 
225 34; 251 28; 253 52; 255 25; 265 33; 
267 20; 268 20; 281 129; 283 37; 329 38; 
331 33; 339 817; 340 206; 341 43; 343 19; 
