Name: Methylphenidate
Synon: Ritalin
Synon: Methyl phenyl(piperidin-2-yl)acetate
Synon: Concerta
Synon: Methylin
InChIKey: DUGOZIWVEXMGBE-UHFFFAOYSA-N
Formula: C14H19NO2
MW: 233
ExactMass: 233.141579
CASNO: 113451
ID: 2994
Comment: DEA SWL / SWGDRUG Monograph available
Num Peaks: 85
40 3; 41 27; 42 18; 43 4; 44 2; 
46 2; 50 7; 51 17; 52 6; 53 7; 
54 20; 55 84; 56 85; 57 7; 59 17; 
60 1; 61 1; 62 5; 63 18; 64 6; 
65 38; 66 3; 67 9; 68 9; 69 2; 
70 1; 72 1; 74 1; 75 2; 76 3; 
77 27; 78 8; 79 7; 80 5; 81 1; 
82 27; 83 28; 84 999; 85 57; 86 2; 
87 1; 89 28; 90 29; 91 233; 92 18; 
93 1; 96 1; 102 6; 103 11; 104 5; 
105 8; 106 2; 107 2; 114 1; 115 31; 
116 13; 117 27; 118 33; 119 8; 120 1; 
121 10; 122 1; 127 3; 128 9; 129 10; 
130 18; 131 5; 132 4; 133 1; 135 2; 
141 1; 142 1; 143 2; 144 8; 145 2; 
146 1; 149 2; 150 56; 151 5; 158 1; 
170 1; 172 8; 173 3; 174 4; 231 1; 
