Name: Metoprolol
Synon: Toprol
Synon: Lopressor
Synon: (RS)-1-(Isopropylamino)-3-[4-(2-methoxyethyl)phenoxy]propan-2-ol
InChIKey: IUBSYMUCCVWXPE-UHFFFAOYSA-N
Formula: C15H25NO3
MW: 267
ExactMass: 267.183443
CASNO: 37350586
ID: 2997
Comment: DEA SWL / unverified from sample
Num Peaks: 96
40 2; 41 27; 42 15; 43 39; 44 17; 
45 76; 46 1; 50 2; 51 5; 52 4; 
53 3; 54 2; 55 5; 56 51; 57 39; 
58 20; 59 2; 60 13; 62 1; 63 4; 
64 2; 65 8; 66 1; 68 2; 69 1; 
70 14; 72 999; 73 42; 74 7; 75 1; 
77 34; 78 16; 79 8; 80 1; 81 1; 
82 3; 84 6; 85 1; 86 11; 89 9; 
90 11; 91 30; 92 4; 93 1; 94 1; 
96 1; 98 7; 100 21; 101 3; 102 29; 
103 14; 104 3; 105 8; 107 81; 108 6; 
114 3; 115 2; 116 28; 117 4; 118 1; 
119 3; 120 5; 121 10; 122 1; 131 1; 
133 7; 134 1; 135 4; 145 1; 147 2; 
148 1; 149 14; 150 2; 151 1; 152 8; 
153 1; 159 9; 160 1; 161 1; 162 1; 
163 4; 165 3; 166 1; 191 4; 192 1; 
194 1; 207 1; 223 64; 224 9; 234 1; 
249 1; 252 23; 253 3; 266 3; 267 4; 
268 1; 
