Name: Metronidazole
Synon: Flagyl
Synon: 2-(2-methyl-5-nitro-1H-imidazol-1-yl)ethanol
InChIKey: VAOCPAMSLUNLGC-UHFFFAOYSA-N
Formula: C6H9N3O3
MW: 171
ExactMass: 171.064391
CASNO: 443481
ID: 2998
Comment: DEA SWL / unverified from smaple
Num Peaks: 69
40 75; 41 68; 42 289; 43 219; 44 56; 
45 311; 46 15; 47 5; 51 35; 52 351; 
53 668; 54 766; 55 108; 56 40; 57 6; 
58 4; 60 16; 63 1; 64 3; 65 5; 
66 25; 67 123; 68 44; 69 44; 70 16; 
71 4; 72 40; 73 1; 77 4; 78 1; 
79 16; 80 231; 81 950; 82 114; 83 72; 
84 16; 85 12; 86 7; 93 7; 94 31; 
95 33; 96 65; 97 23; 98 9; 99 2; 
100 12; 106 3; 107 8; 108 30; 109 20; 
110 12; 111 33; 112 101; 113 4; 121 2; 
122 1; 123 55; 124 999; 125 430; 126 33; 
127 8; 128 20; 138 2; 140 4; 141 5; 
154 74; 155 10; 171 202; 172 15; 
