Name: Mexiletine
Synon: Mexitil
Synon: 2-(2-aminopropoxy)-1,3-dimethylbenzene
Synon: (RS)-1-(2,6-dimethylphenoxy)propan-2-amine
InChIKey: VLPIATFUUWWMKC-UHFFFAOYSA-N
Formula: C11H17NO
MW: 179
ExactMass: 179.131014
CASNO: 31828714
ID: 2999
Comment: DEA SWL
Num Peaks: 72
40 8; 41 127; 42 78; 43 53; 44 999; 
45 27; 50 11; 51 37; 52 18; 53 30; 
54 4; 55 2; 56 17; 57 29; 58 646; 
59 24; 61 1; 62 5; 63 23; 64 6; 
65 49; 66 7; 67 3; 74 3; 75 3; 
76 4; 77 179; 78 51; 79 55; 80 4; 
86 1; 87 1; 89 11; 90 3; 91 169; 
92 29; 93 10; 94 2; 101 1; 102 8; 
103 44; 104 14; 105 71; 106 8; 107 47; 
108 4; 115 2; 117 3; 118 6; 119 4; 
120 8; 121 64; 122 35; 123 3; 131 1; 
132 1; 133 3; 134 2; 135 8; 136 9; 
137 1; 145 1; 146 1; 147 4; 148 6; 
149 1; 162 2; 163 2; 164 3; 178 1; 
179 8; 180 2; 
