Name: Meprobamate
Synon: Miltown
Synon: Equagesic
Synon: Equanil
Synon: [2-(carbamoyloxymethyl)-2-methyl-pentyl] carbamate
InChIKey: NPPQSCRMBWNHMW-UHFFFAOYSA-N
Formula: C9H18N2O4
MW: 218
ExactMass: 218.1266575
CASNO: 57534
ID: 3001
Comment: DEA SWL
Num Peaks: 56
40 28; 41 523; 42 165; 43 675; 44 566; 
45 269; 46 56; 50 5; 51 11; 52 9; 
53 82; 54 48; 55 924; 56 432; 57 213; 
58 50; 59 145; 60 5; 61 5; 62 429; 
63 7; 65 11; 66 6; 67 70; 68 44; 
69 146; 70 33; 71 500; 72 116; 73 18; 
74 22; 75 241; 76 16; 77 11; 79 22; 
81 181; 82 36; 83 999; 84 318; 85 62; 
86 32; 92 33; 95 12; 96 288; 97 28; 
99 35; 100 27; 101 105; 102 8; 104 5; 
114 179; 115 34; 132 5; 135 9; 144 176; 
145 20; 
