Name: N,N-Methylisopropyltryptamine
Synon: MIPT
Synon: TIHKAL #47
InChIKey: KTQJVAJLJZIKKD-UHFFFAOYSA-N
Formula: C14H20N2
MW: 216
ExactMass: 216.162648
CASNO: 96096525
ID: 3002
Comment: DEA SWL
Num Peaks: 68
40 1; 41 17; 42 25; 43 32; 44 299; 
45 7; 50 2; 51 7; 52 3; 53 1; 
54 1; 55 2; 56 20; 57 2; 58 3; 
62 2; 63 7; 64 2; 65 4; 70 10; 
71 9; 72 5; 74 2; 75 5; 76 7; 
77 39; 78 4; 84 4; 86 999; 87 56; 
88 3; 89 11; 90 6; 91 6; 92 1; 
101 7; 102 19; 103 28; 104 4; 113 2; 
114 3; 115 34; 116 9; 117 17; 118 3; 
127 4; 128 15; 129 12; 130 102; 131 13; 
132 4; 140 2; 141 2; 142 10; 143 29; 
144 52; 145 5; 155 1; 156 1; 157 2; 
158 2; 171 1; 172 1; 173 1; 185 1; 
199 2; 216 13; 217 2; 
