Name: Morphine
Synon: Avinza
Synon: Kadina
Synon: Oramorph
Synon: MS Contin
Synon: MSIR
Synon: Roxanol
Synon: Kapanol
Synon: (5.alpha.,6.alpha.)-7,8-didehydro-4,5-epoxy-17-methylmorphinan-3,6-diol
InChIKey: BQJCRHHNABKAKU-UHFFFAOYSA-N
Formula: C17H19NO3
MW: 285
ExactMass: 285.136494
CASNO: 57272
ID: 3004
Comment: DEA SWL
Num Peaks: 206
38 12; 39 146; 40 15; 41 85; 42 754; 
43 94; 44 405; 45 15; 50 28; 51 112; 
52 39; 53 116; 54 31; 55 149; 56 54; 
57 108; 58 108; 59 214; 60 22; 62 18; 
63 95; 64 34; 65 114; 66 36; 67 56; 
68 50; 69 26; 70 264; 71 34; 72 18; 
73 3; 74 16; 75 34; 76 40; 77 199; 
78 72; 79 43; 80 60; 81 225; 82 147; 
83 56; 84 30; 86 10; 87 19; 88 18; 
89 83; 90 31; 91 163; 92 37; 93 24; 
94 199; 95 42; 96 114; 97 26; 99 15; 
100 10; 101 52; 102 70; 103 111; 104 48; 
105 64; 106 28; 107 55; 108 91; 109 115; 
110 36; 111 9; 112 42; 113 26; 115 450; 
116 83; 117 86; 118 54; 119 25; 120 37; 
121 25; 122 25; 123 35; 124 334; 125 35; 
126 47; 127 175; 128 210; 129 69; 130 38; 
131 165; 132 90; 133 32; 134 47; 135 21; 
136 39; 137 13; 138 14; 139 107; 140 41; 
141 126; 142 47; 143 54; 144 129; 145 87; 
146 137; 147 116; 148 53; 149 17; 150 19; 
151 62; 152 222; 153 148; 154 36; 155 57; 
156 42; 157 71; 158 32; 159 23; 160 85; 
161 124; 162 789; 163 109; 164 114; 165 136; 
166 34; 167 48; 168 61; 169 66; 170 47; 
171 131; 172 51; 173 143; 174 292; 175 99; 
176 71; 177 22; 178 26; 179 24; 180 26; 
181 125; 182 47; 183 26; 184 54; 185 69; 
186 42; 187 34; 188 33; 189 12; 190 21; 
191 11; 192 16; 193 16; 194 15; 195 18; 
196 35; 197 81; 198 50; 199 77; 200 112; 
201 30; 202 46; 203 31; 204 16; 205 17; 
207 14; 208 13; 209 38; 210 30; 211 58; 
212 25; 213 44; 214 136; 215 363; 216 135; 
217 13; 222 8; 223 19; 224 21; 225 21; 
226 46; 227 47; 228 84; 229 22; 236 10; 
237 11; 238 9; 239 9; 240 33; 241 19; 
242 56; 243 14; 252 20; 253 8; 254 15; 
255 10; 256 79; 257 28; 266 117; 267 96; 
268 143; 269 31; 270 40; 271 8; 281 9; 
282 9; 283 15; 284 161; 285 999; 286 199; 
287 20; 
