Name: Flecainide
Synon: N-(2-Piperidylmethyl)-2,5-bis(2,2,2-trifluoroethoxy)benzamide
Synon: Tambocor
InChIKey: DJBNUMBKLMJRSA-UHFFFAOYSA-N
Formula: C17H20F6N2O3
MW: 414
ExactMass: 414.137812
CASNO: 54143554
ID: 3006
Comment: AAFS
Num Peaks: 61
42 10; 43 2; 44 2; 51 5; 52 2; 
53 7; 54 7; 55 18; 56 71; 57 7; 
63 7; 64 7; 65 3; 67 8; 68 9; 
69 10; 70 2; 76 4; 77 5; 78 2; 
79 16; 80 5; 81 3; 82 19; 84 999; 
85 62; 91 2; 92 13; 93 2; 94 3; 
95 4; 96 30; 97 125; 98 14; 99 2; 
107 26; 108 5; 111 16; 112 4; 127 5; 
135 24; 136 3; 175 4; 190 4; 202 2; 
203 3; 209 20; 218 21; 219 12; 220 2; 
231 3; 237 5; 253 2; 301 64; 302 8; 
330 4; 355 9; 356 2; 378 2; 395 2; 
413 2; 
