Name: N-Acetyl-2-chloro-4,5-Methylenedioxyamphetamine
Synon: N-acetyl-2-chloro-4,5-MDA
InChIKey: ZDFSPPMIYCRBHA-UHFFFAOYSA-N
Formula: C12H14ClNO3
MW: 255
ExactMass: 255.066221
CASNO: 0
ID: 3007
Comment: DEA NCL (contributed by TAD) / Acetyl derivative of 2-Cl-4,5-MDA
Num Peaks: 154
36 1; 37 1; 38 4; 39 15; 40 3; 
41 10; 42 60; 43 231; 44 999; 45 124; 
46 2; 49 2; 50 43; 51 60; 52 11; 
53 21; 54 3; 55 3; 56 6; 57 9; 
58 4; 59 1; 60 2; 61 10; 62 17; 
63 32; 64 8; 65 12; 66 3; 67 2; 
68 1; 69 2; 70 1; 72 2; 73 10; 
74 26; 75 185; 76 54; 77 177; 78 33; 
79 11; 80 3; 81 1; 84 6; 85 20; 
86 349; 87 59; 88 5; 89 18; 90 6; 
91 13; 92 4; 93 2; 94 1; 96 1; 
97 8; 98 3; 99 16; 100 4; 101 12; 
102 26; 103 71; 104 25; 105 20; 106 5; 
107 3; 108 1; 109 1; 110 4; 111 103; 
112 21; 113 57; 114 8; 115 10; 116 3; 
117 6; 118 12; 119 4; 120 2; 121 2; 
122 1; 123 3; 124 1; 125 5; 126 1; 
127 2; 128 1; 129 1; 130 4; 131 82; 
132 33; 133 11; 134 4; 135 30; 136 7; 
137 7; 138 10; 139 30; 140 10; 141 11; 
142 2; 143 1; 145 1; 146 13; 147 5; 
148 2; 149 2; 150 1; 151 3; 152 1; 
153 1; 154 1; 155 6; 156 7; 157 2; 
158 2; 159 2; 160 7; 161 12; 162 19; 
163 6; 164 2; 165 11; 166 4; 167 5; 
168 4; 169 240; 170 69; 171 82; 172 22; 
173 2; 174 3; 175 2; 176 3; 177 5; 
178 5; 179 2; 181 4; 182 2; 183 2; 
184 1; 195 10; 196 579; 197 70; 198 191; 
199 22; 200 3; 202 1; 212 4; 214 1; 
255 42; 256 11; 257 14; 258 3; 
