Name: N-acetyl-2-chloro-4,5-methylenedioxymethamphetamine
Synon: N-acetyl-2-chloro-4,5-MDMA
InChIKey: ISDXMJOOHZNYRU-UHFFFAOYSA-N
Formula: C13H15ClNO3
MW: 268
ExactMass: 268.074045
CASNO: 0
ID: 3008
Comment: ENFSI / NFI/ 06/98 AP (98.06.25.046)
Num Peaks: 124
38 2; 39 7; 40 2; 41 5; 42 42; 
43 112; 44 8; 45 1; 49 1; 50 14; 
51 26; 52 4; 53 11; 54 5; 55 4; 
56 66; 57 17; 58 999; 59 39; 61 4; 
62 8; 63 18; 64 2; 65 5; 66 1; 
67 1; 68 1; 71 3; 72 2; 73 4; 
74 10; 75 78; 76 25; 77 80; 78 14; 
79 3; 84 2; 85 7; 86 3; 87 6; 
88 1; 89 12; 90 2; 91 6; 92 2; 
97 5; 98 1; 99 9; 100 340; 101 29; 
102 16; 103 32; 104 8; 105 7; 106 2; 
107 1; 110 1; 111 35; 112 6; 113 17; 
114 3; 115 3; 116 2; 117 3; 118 6; 
119 2; 121 1; 123 2; 125 3; 127 1; 
129 1; 130 3; 131 23; 132 4; 133 2; 
134 1; 135 10; 137 2; 138 2; 139 12; 
140 1; 141 2; 142 1; 146 9; 147 2; 
148 1; 149 1; 155 2; 157 1; 160 5; 
161 4; 162 3; 163 1; 165 4; 166 1; 
167 2; 169 64; 170 7; 171 22; 172 3; 
174 1; 175 2; 176 11; 177 2; 181 3; 
182 1; 188 1; 189 2; 190 2; 191 3; 
192 1; 194 1; 195 3; 196 182; 197 24; 
198 55; 199 7; 212 3; 214 1; 226 2; 
228 1; 269 6; 270 1; 271 2; 
