Name: Nalidixic Acid
Synon: WIN 18,320
Synon: 1-ethyl-7-methyl-4-oxo-[1,8]naphthyridine-3-carboxylic acid
InChIKey: MHWLWQUZZRMNGJ-UHFFFAOYSA-N
Formula: C12H12N2O3
MW: 232
ExactMass: 232.084792
CASNO: 389082
ID: 3011
Comment: AAFS / Probability Based Matching Data Base Entry
Num Peaks: 127
40 4; 41 13; 42 10; 43 14; 44 7; 
45 14; 50 7; 51 17; 52 15; 53 38; 
54 6; 55 14; 57 13; 60 7; 61 4; 
62 12; 63 32; 64 27; 65 29; 66 14; 
67 16; 68 9; 69 19; 70 8; 71 18; 
73 10; 74 8; 75 17; 76 37; 77 69; 
78 37; 79 22; 80 13; 81 11; 82 6; 
83 14; 84 5; 85 13; 86 5; 87 11; 
88 12; 89 36; 90 30; 91 33; 92 59; 
93 32; 94 9; 95 12; 96 8; 97 16; 
98 7; 99 9; 100 4; 101 10; 102 24; 
103 32; 104 94; 105 38; 106 11; 107 20; 
108 5; 109 9; 110 5; 111 13; 112 5; 
113 6; 114 6; 115 20; 116 24; 117 35; 
118 23; 119 23; 120 23; 121 7; 123 6; 
125 7; 127 8; 128 10; 129 31; 130 32; 
131 167; 132 244; 133 40; 134 6; 135 11; 
137 5; 139 13; 140 6; 141 11; 142 7; 
143 20; 144 11; 145 127; 146 22; 147 13; 
148 4; 149 39; 150 5; 151 6; 155 8; 
156 5; 157 16; 158 16; 159 128; 160 310; 
161 47; 162 6; 163 4; 165 4; 167 5; 
168 10; 169 9; 171 10; 173 133; 174 21; 
175 5; 184 4; 185 12; 186 7; 187 89; 
188 999; 189 148; 190 12; 203 7; 215 9; 
232 74; 233 13; 
