Name: Mephentermine
Synon: N-Methylphentermine
Synon: N,.alpha.,.alpha.-Trimethylbenzeneethanamine
InChIKey: RXQCGGRTAILOIN-UHFFFAOYSA-N
Formula: C11H17N
MW: 163
ExactMass: 163.1361
CASNO: 100925
ID: 3013
Comment: DEA SWL
Num Peaks: 55
40 2; 41 19; 42 27; 43 4; 44 8; 
50 4; 51 13; 52 4; 53 3; 54 4; 
55 7; 56 50; 57 23; 58 2; 62 3; 
63 12; 64 3; 65 43; 66 3; 70 27; 
71 3; 72 999; 73 48; 74 4; 75 1; 
76 1; 77 11; 78 5; 79 3; 89 12; 
90 5; 91 113; 92 10; 102 2; 103 4; 
104 2; 105 4; 106 1; 115 22; 116 6; 
117 20; 118 3; 127 1; 128 2; 129 1; 
130 3; 131 3; 132 7; 133 14; 134 1; 
144 1; 146 4; 147 2; 148 53; 149 6; 
