Name: Naproxen
Synon: Naprosyn
Synon: Aleve
Synon: (+)-(S)-2-(6-methoxynaphthalen-2-yl)propanoic acid
InChIKey: CMWTZPSULFXXJA-UHFFFAOYSA-N
Formula: C14H14O3
MW: 230
ExactMass: 230.094295
CASNO: 22204531
ID: 3015
Comment: DEA SWL
Num Peaks: 110
40 1; 41 3; 43 7; 44 1; 45 61; 
46 1; 50 10; 51 18; 52 3; 53 2; 
55 4; 58 3; 61 1; 62 11; 63 34; 
64 7; 65 10; 66 1; 67 1; 69 4; 
70 6; 71 2; 74 14; 75 14; 76 17; 
77 17; 78 5; 79 1; 84 1; 85 1; 
86 8; 87 13; 88 11; 89 24; 90 3; 
91 10; 93 14; 94 1; 98 6; 99 5; 
100 3; 101 8; 102 16; 103 5; 105 1; 
109 1; 110 1; 111 3; 112 1; 113 20; 
114 41; 115 254; 116 43; 117 4; 118 1; 
125 2; 126 32; 127 51; 128 71; 129 26; 
130 3; 131 8; 132 1; 135 1; 137 3; 
138 3; 139 87; 140 30; 141 288; 142 128; 
143 24; 144 32; 145 12; 146 2; 150 7; 
151 26; 152 83; 153 147; 154 117; 155 59; 
156 11; 157 7; 158 19; 159 14; 160 1; 
165 1; 167 1; 168 6; 169 52; 170 180; 
171 43; 172 3; 173 1; 181 1; 182 1; 
183 13; 184 37; 185 999; 186 146; 187 19; 
188 2; 199 3; 211 1; 214 1; 215 13; 
216 1; 228 1; 230 350; 231 51; 232 6; 
