Name: Gabapentin
Synon: Neurontin
Synon: 2-[1-(aminomethyl)cyclohexyl]acetic acid
InChIKey: UGJMXCAKCUNAIE-UHFFFAOYSA-N
Formula: C9H17NO2
MW: 171
ExactMass: 171.125929
CASNO: 60142963
ID: 3017
Comment: DEA SWL
Num Peaks: 82
40 101; 41 454; 42 103; 43 88; 44 40; 
45 3; 46 1; 50 29; 51 77; 52 51; 
53 236; 54 306; 55 337; 56 87; 57 15; 
58 24; 59 40; 60 72; 61 2; 62 5; 
63 22; 64 3; 65 85; 66 70; 67 684; 
68 365; 69 39; 70 11; 71 10; 72 20; 
73 87; 74 14; 75 2; 76 6; 77 125; 
78 25; 79 204; 80 77; 81 999; 82 142; 
83 32; 84 17; 85 2; 89 4; 90 1; 
91 49; 92 6; 93 45; 94 166; 95 154; 
96 335; 97 66; 98 37; 99 11; 104 1; 
105 3; 107 12; 108 14; 109 20; 110 361; 
111 272; 112 24; 113 1; 117 2; 119 1; 
121 3; 122 6; 123 88; 124 72; 125 31; 
126 1; 134 1; 136 22; 137 1; 138 53; 
139 5; 150 1; 151 2; 152 484; 153 930; 
154 100; 155 3; 
