Name: Niacinamide
Synon: Nicotinamide
Synon: Nicotinic acid amide
Synon: Pyridine-3-carboxamide
InChIKey: DFPAKSUCGFBDDF-UHFFFAOYSA-N
Formula: C6H6N2O
MW: 122
ExactMass: 122.0480127
CASNO: 98920
ID: 3021
Comment: DEA SWL
Num Peaks: 41
40 8; 41 7; 42 2; 43 6; 44 118; 
45 3; 48 4; 49 40; 50 216; 51 409; 
52 161; 53 48; 54 3; 61 2; 62 3; 
63 3; 64 5; 65 4; 66 8; 67 6; 
68 1; 70 1; 74 4; 75 31; 76 47; 
77 87; 78 762; 79 82; 80 3; 93 6; 
94 42; 95 3; 103 2; 104 31; 105 70; 
106 631; 107 43; 108 2; 122 999; 123 72; 
124 4; 
