Name: Nitrazepam
Synon: 9-nitro-6-phenyl-2,5-diazabicyclo[5.4.0]undeca-5,8,10,12-tetraen-3-one
InChIKey: KJONHKAYOJNZEC-UHFFFAOYSA-N
Formula: C15H11N3O3
MW: 281
ExactMass: 281.080042
CASNO: 146225
ID: 3025
Comment: DEA SWL
Num Peaks: 154
40 11; 41 16; 42 15; 43 4; 44 16; 
50 69; 51 189; 52 85; 53 21; 54 6; 
55 6; 56 7; 57 4; 61 9; 62 64; 
63 156; 64 49; 65 66; 66 12; 70 17; 
73 12; 74 72; 75 128; 76 206; 77 369; 
78 89; 79 9; 80 17; 82 21; 83 19; 
84 18; 85 8; 86 33; 87 48; 88 59; 
89 139; 90 90; 91 98; 92 17; 93 4; 
96 31; 97 13; 98 26; 99 32; 100 25; 
101 33; 102 115; 103 240; 104 114; 105 15; 
106 8; 109 37; 110 12; 111 24; 112 9; 
113 55; 114 52; 115 56; 116 62; 117 63; 
119 6; 120 10; 121 4; 122 6; 123 9; 
124 8; 125 30; 126 106; 127 76; 128 50; 
129 43; 130 40; 131 6; 132 15; 133 4; 
135 4; 137 19; 138 24; 139 92; 140 65; 
141 27; 142 10; 143 6; 144 13; 148 6; 
149 25; 150 134; 151 281; 152 264; 153 89; 
154 25; 155 6; 157 5; 158 6; 161 8; 
162 12; 163 73; 164 78; 165 77; 166 75; 
167 80; 168 22; 169 6; 175 14; 176 44; 
177 176; 178 260; 179 329; 180 94; 181 16; 
188 5; 189 7; 190 55; 191 47; 192 56; 
193 70; 194 95; 195 38; 196 8; 203 20; 
205 651; 206 887; 207 365; 208 62; 209 17; 
216 6; 220 9; 221 33; 222 82; 223 24; 
224 7; 225 64; 226 6; 234 710; 235 191; 
236 67; 237 18; 238 12; 239 5; 248 4; 
250 11; 252 706; 253 983; 254 670; 255 99; 
256 7; 257 4; 264 414; 265 76; 266 13; 
280 999; 281 569; 282 94; 283 10; 
