Name: Normephedrone
Synon: NSC 60487
Synon: Mephedrone metabolite
Synon: 2-amino-1-(4-methylphenyl)-1-propanone
InChIKey: OHULHWHSUJEYIT-UHFFFAOYSA-N
Formula: C10H13NO
MW: 163
ExactMass: 163.099714
CASNO: 6941179
ID: 3027
Comment: Provided by www.caymanchem.com/app/template/landing%2CForensic.vm / Item #9000940  Lot #0432425
Num Peaks: 53
40 8; 41 21; 42 57; 44 999; 45 27; 
50 18; 51 28; 52 9; 53 5; 55 2; 
61 4; 62 19; 63 53; 64 17; 65 154; 
66 9; 73 1; 74 7; 75 5; 76 4; 
77 12; 78 3; 79 1; 85 1; 86 4; 
87 4; 89 53; 90 23; 91 215; 92 26; 
93 8; 102 1; 103 2; 104 1; 105 4; 
106 1; 115 3; 116 1; 117 3; 119 126; 
120 26; 121 2; 130 2; 132 1; 133 3; 
134 1; 144 1; 145 1; 146 1; 147 3; 
148 10; 149 1; 163 1; 
