Name: Orphenadrine
Synon: Norflex
Synon: Norgesic
Synon: N,N-dimethyl-2-[(2-methylphenyl)- phenyl-methoxy]-ethanamine
InChIKey: QVYRGXJJSLMXQH-UHFFFAOYSA-N
Formula: C18H23NO
MW: 269
ExactMass: 269.177965
CASNO: 83987
ID: 3030
Comment: DEA SWL
Num Peaks: 71
41 3; 42 37; 43 10; 44 19; 45 67; 
46 25; 50 2; 51 8; 52 2; 53 2; 
55 1; 56 12; 57 14; 58 999; 59 33; 
63 5; 64 1; 65 8; 70 4; 71 4; 
72 10; 73 162; 74 13; 75 2; 76 3; 
77 16; 78 4; 79 1; 86 3; 87 1; 
88 4; 89 8; 90 2; 91 13; 92 1; 
102 2; 103 4; 104 2; 105 4; 113 1; 
115 11; 116 1; 119 3; 126 1; 127 3; 
128 4; 129 1; 139 5; 141 5; 142 1; 
146 1; 150 1; 151 4; 152 13; 153 7; 
154 2; 163 3; 164 5; 165 90; 166 51; 
167 8; 176 5; 177 4; 178 31; 179 28; 
180 13; 181 26; 182 5; 195 1; 196 3; 
197 1; 
