Name: Oxytetracycline
Synon: (4S,4aR,5S,5aR,6S,12aS)-4-(dimethylamino)-3,5,6,10,11,12a-hexahydroxy-6-methyl-1,12-dioxo-1,4,4a,5,5a,6,12,12a-octahydrotetracene-2-carboxamide
InChIKey: IWVCMVBTMGNXQD-UHFFFAOYSA-N
Formula: C22H24N2O9
MW: 460
ExactMass: 460.14818
CASNO: 79572
ID: 3034
Comment: AAFS / Probability Based Matching Data Base Entry
Num Peaks: 314
41 46; 42 213; 43 231; 44 405; 45 117; 
46 377; 47 16; 50 19; 51 30; 52 20; 
53 49; 54 22; 55 167; 56 65; 57 143; 
58 476; 59 25; 60 19; 61 8; 62 8; 
63 24; 64 12; 65 65; 66 25; 67 69; 
68 81; 69 190; 70 166; 71 230; 72 158; 
73 37; 74 36; 75 23; 76 19; 77 108; 
78 34; 79 75; 80 30; 81 58; 82 176; 
83 73; 84 145; 85 155; 86 72; 87 45; 
88 12; 89 51; 90 21; 91 124; 92 32; 
93 57; 94 44; 95 64; 96 47; 97 61; 
98 800; 99 98; 100 999; 101 87; 102 64; 
103 48; 104 18; 105 45; 107 80; 108 40; 
109 37; 110 39; 111 41; 112 25; 113 30; 
114 26; 115 164; 116 54; 117 44; 118 30; 
119 39; 120 25; 121 108; 122 29; 123 66; 
124 57; 125 34; 126 75; 127 170; 128 86; 
129 101; 130 60; 131 18; 133 26; 134 23; 
135 23; 137 41; 138 51; 140 32; 141 48; 
143 35; 144 86; 146 85; 148 30; 149 31; 
150 76; 151 183; 153 112; 154 59; 155 85; 
157 31; 158 17; 159 37; 160 33; 161 48; 
162 24; 163 324; 164 66; 165 40; 167 110; 
168 99; 169 245; 171 64; 172 40; 173 95; 
174 114; 175 55; 176 43; 177 20; 178 20; 
179 52; 181 46; 182 22; 183 14; 184 25; 
185 35; 186 21; 187 44; 188 30; 190 20; 
191 20; 192 10; 193 37; 194 62; 195 112; 
196 60; 198 20; 199 48; 200 513; 202 133; 
203 62; 204 27; 206 13; 207 20; 208 15; 
209 25; 211 38; 212 199; 213 43; 215 36; 
216 39; 217 44; 219 32; 220 13; 221 13; 
222 19; 224 26; 225 31; 227 33; 228 135; 
229 95; 231 64; 232 22; 233 7; 234 18; 
235 15; 236 11; 237 16; 239 41; 240 38; 
241 62; 242 30; 243 17; 244 11; 246 18; 
247 19; 248 7; 249 18; 251 16; 252 22; 
254 25; 255 36; 256 43; 258 23; 259 11; 
260 17; 261 13; 262 78; 263 20; 264 17; 
265 34; 267 25; 268 29; 269 29; 271 25; 
272 113; 273 28; 274 32; 275 29; 276 7; 
277 17; 278 30; 280 60; 281 34; 282 29; 
283 19; 284 31; 286 12; 288 24; 289 14; 
290 8; 291 11; 292 11; 293 10; 294 16; 
295 13; 296 19; 297 16; 298 26; 299 19; 
300 29; 301 7; 304 8; 305 16; 306 23; 
308 23; 309 19; 310 15; 311 23; 312 35; 
313 17; 314 11; 315 7; 317 7; 318 19; 
319 12; 320 16; 321 21; 322 8; 323 11; 
324 25; 325 64; 326 16; 328 15; 329 21; 
330 11; 331 7; 332 37; 333 15; 334 38; 
335 36; 336 74; 338 20; 339 8; 340 10; 
341 10; 342 8; 343 9; 346 87; 347 237; 
348 48; 349 16; 350 7; 351 14; 352 49; 
354 30; 355 8; 358 11; 359 7; 362 77; 
363 32; 364 160; 366 14; 368 16; 369 29; 
370 43; 371 16; 377 7; 379 36; 380 112; 
382 37; 389 6; 392 6; 397 79; 400 21; 
401 10; 407 39; 408 19; 410 13; 414 12; 
415 46; 416 15; 417 35; 418 9; 424 18; 
425 57; 426 129; 427 38; 428 24; 441 7; 
442 139; 443 118; 444 37; 445 41; 446 11; 
459 13; 460 358; 461 92; 462 17; 
