Name: Pemoline
Synon: Cylert
Synon: (RS)-2-amino-5-phenyl-1,3-oxazol-4(5H)-one
InChIKey: NRNCYVBFPDDJNE-UHFFFAOYSA-N
Formula: C9H8N2O2
MW: 176
ExactMass: 176.058578
CASNO: 2152343
ID: 3035
Comment: DEA SWL
Num Peaks: 46
40 29; 41 43; 42 414; 43 68; 44 101; 
49 26; 50 191; 51 362; 52 100; 53 13; 
61 37; 62 107; 63 284; 64 101; 65 14; 
69 111; 70 392; 71 115; 73 14; 74 58; 
75 47; 76 51; 77 735; 78 204; 79 441; 
80 17; 85 12; 86 16; 87 21; 89 727; 
90 689; 91 65; 92 15; 104 167; 105 584; 
106 123; 107 999; 108 100; 118 18; 120 58; 
132 27; 133 27; 147 94; 148 46; 176 823; 
177 109; 
