Name: Thiopental
Synon: Pentothal
Synon: (RS)-[5-ethyl-4,6-dioxo-5-(pentan-2-yl)-1,4,5,6-tetrahydropyrimidin-2-yl]sulfanide
InChIKey: IUJDSEJGGMCXSG-UHFFFAOYSA-N
Formula: C11H18N2O2S
MW: 242
ExactMass: 242.108899
CASNO: 76755
ID: 3039
Comment: DEA SWL
Num Peaks: 114
40 36; 41 484; 42 65; 43 645; 44 71; 
45 12; 46 4; 47 3; 50 4; 51 13; 
52 13; 53 85; 54 33; 55 209; 56 49; 
57 14; 58 9; 59 30; 60 43; 61 6; 
62 3; 63 2; 65 15; 66 15; 67 55; 
68 27; 69 239; 70 46; 71 90; 72 12; 
73 6; 74 4; 76 1; 77 20; 78 3; 
79 13; 80 16; 81 15; 82 9; 83 29; 
84 16; 85 34; 86 36; 87 2; 88 4; 
89 4; 91 3; 93 4; 94 14; 95 35; 
96 15; 97 157; 98 110; 99 11; 100 3; 
101 5; 102 8; 103 10; 108 2; 109 8; 
110 10; 111 22; 112 59; 113 8; 114 26; 
115 3; 121 1; 122 2; 123 6; 124 5; 
125 24; 126 8; 127 1; 128 4; 129 98; 
130 6; 131 10; 132 4; 137 3; 138 8; 
139 15; 140 19; 141 8; 142 2; 143 9; 
144 13; 145 6; 154 3; 155 3; 156 14; 
157 999; 158 70; 159 53; 160 1; 166 3; 
167 4; 169 5; 170 2; 171 79; 172 967; 
173 595; 174 93; 175 29; 176 1; 181 8; 
183 1; 197 1; 199 2; 209 1; 213 19; 
214 5; 242 53; 243 7; 244 3; 
