Name: Phenazopyridine
Synon: 3-phenyldiazenylpyridine-2,6-diamine
InChIKey: QPFYXYFORQJZEC-FOCLMDBBSA-N
Formula: C11H11N5
MW: 213
ExactMass: 213.101445
CASNO: 94780
ID: 3041
Comment: AAFS / Probability Based Matching Data Base Entry
Num Peaks: 96
37 5; 38 18; 39 46; 40 7; 41 8; 
42 10; 43 68; 44 3; 45 1; 46 1; 
50 13; 51 74; 52 60; 53 55; 54 221; 
55 19; 61 2; 62 5; 63 18; 64 41; 
65 71; 66 71; 67 10; 68 11; 69 5; 
74 6; 75 4; 77 240; 78 23; 79 48; 
80 54; 81 721; 82 48; 83 2; 88 2; 
89 5; 90 5; 91 20; 92 51; 93 12; 
94 3; 95 2; 101 1; 102 2; 103 2; 
104 5; 105 11; 106 24; 108 804; 109 64; 
110 1; 113 2; 114 6; 115 16; 116 6; 
117 4; 118 2; 119 1; 121 3; 122 4; 
128 2; 129 2; 130 8; 131 2; 133 1; 
134 2; 136 303; 137 24; 139 1; 140 18; 
141 8; 142 5; 143 6; 144 3; 145 1; 
155 1; 156 2; 157 7; 158 5; 159 1; 
166 1; 167 17; 168 10; 169 2; 170 5; 
172 1; 183 4; 184 82; 185 34; 186 4; 
195 3; 196 1; 211 2; 213 999; 214 148; 
215 11; 
