Name: Phendimetrazine
Synon: Bontril
Synon: 3,4-dimethyl-2-phenylmorpholine
InChIKey: MFOCDFTXLCYLKU-UHFFFAOYSA-N
Formula: C12H17NO
MW: 191
ExactMass: 191.131014
CASNO: 634037
ID: 3042
Comment: DEA SWL
Num Peaks: 84
40 5; 41 25; 42 557; 43 25; 44 13; 
45 1; 50 17; 51 55; 52 16; 53 5; 
54 19; 55 16; 56 231; 57 999; 58 48; 
59 1; 62 4; 63 16; 64 4; 65 17; 
66 2; 67 1; 68 3; 69 3; 70 106; 
71 8; 72 2; 74 4; 75 5; 76 7; 
77 100; 78 27; 79 13; 80 1; 82 2; 
84 5; 85 687; 86 41; 87 2; 88 1; 
89 22; 90 9; 91 66; 92 6; 96 4; 
98 1; 100 5; 101 1; 102 7; 103 15; 
104 5; 105 85; 106 12; 107 1; 112 1; 
113 1; 115 55; 116 14; 117 68; 118 24; 
119 4; 128 1; 129 1; 130 5; 131 4; 
132 2; 133 1; 143 1; 144 8; 145 2; 
146 4; 147 1; 158 4; 159 1; 160 2; 
174 1; 175 3; 176 8; 177 1; 189 1; 
190 5; 191 93; 192 12; 193 1; 
