Name: Phenelzine
Synon: Nardil
Synon: 2-phenylethylhydrazine
InChIKey: RMUCZJUITONUFY-UHFFFAOYSA-N
Formula: C8H12N2
MW: 136
ExactMass: 136.100048
CASNO: 51718
ID: 3043
Comment: DEA SWL
Num Peaks: 44
40 4; 41 8; 42 2; 43 12; 44 24; 
45 999; 46 18; 50 20; 51 50; 52 13; 
53 5; 57 4; 58 1; 61 2; 62 9; 
63 28; 64 6; 65 70; 66 5; 74 6; 
75 4; 76 5; 77 54; 78 24; 79 23; 
80 2; 86 1; 87 1; 89 19; 90 8; 
91 122; 92 31; 93 2; 102 4; 103 26; 
104 15; 105 20; 106 3; 116 1; 117 5; 
118 7; 119 2; 136 21; 137 2; 
