Name: Phenmetrazine
Synon: Preludin
Synon: 3-methyl-2-phenylmorpholine
InChIKey: OOBHFESNSZDWIU-UHFFFAOYSA-N
Formula: C11H15NO
MW: 177
ExactMass: 177.115364
CASNO: 134496
ID: 3045
Comment: DEA SWL
Num Peaks: 64
40 7; 41 33; 42 556; 43 392; 44 66; 
45 2; 50 26; 51 86; 52 25; 53 8; 
54 15; 55 8; 56 487; 57 25; 58 3; 
61 1; 62 8; 63 27; 64 8; 65 23; 
66 3; 68 8; 69 12; 70 59; 71 999; 
72 50; 73 2; 74 7; 75 6; 76 10; 
77 144; 78 34; 79 27; 80 2; 86 3; 
87 2; 89 38; 90 18; 91 73; 92 8; 
98 1; 101 1; 102 7; 103 16; 104 8; 
105 114; 106 19; 107 4; 115 55; 116 13; 
117 73; 118 22; 119 7; 120 1; 130 7; 
131 3; 132 3; 133 2; 144 4; 146 2; 
161 1; 176 1; 177 99; 178 13; 
