Name: Phenylacetic Acid
Synon: PAA
Synon: .alpha.-toluic acid
Synon: Benzeneacetic acid
Synon: 2-Phenylacetic acid
InChIKey: WLJVXDMOQOGPHL-UHFFFAOYSA-N
Formula: C8H8O2
MW: 136
ExactMass: 136.052429
CASNO: 103822
ID: 3047
Comment: DEA SWL / Aldrich lot 03217TC
Num Peaks: 46
40 8; 41 16; 42 3; 43 7; 44 4; 
45 34; 49 3; 50 33; 51 54; 52 14; 
53 8; 54 1; 55 2; 60 2; 61 10; 
62 27; 63 72; 64 17; 65 160; 66 11; 
73 2; 74 7; 75 4; 76 3; 77 21; 
78 4; 79 7; 80 1; 85 3; 86 5; 
87 4; 88 1; 89 59; 90 32; 91 999; 
92 182; 93 10; 94 4; 105 1; 107 3; 
108 1; 118 9; 119 2; 136 290; 137 26; 
138 2; 
