Name: Prednisolone (or breakdown product)
Synon: (11.beta.)-11,17,21-trihydroxypregna-1,4-diene-3,20-dione
InChIKey: OIGNJSKKLXVSLS-UHFFFAOYSA-N
Formula: C21H28O5
MW: 360
ExactMass: 360.193674
CASNO: 50248
ID: 3053
Comment: DEA SWL
Num Peaks: 156
40 20; 41 134; 42 7; 43 132; 44 18; 
45 24; 51 19; 52 10; 53 63; 55 132; 
56 11; 57 44; 58 13; 59 1; 63 5; 
65 56; 66 12; 67 61; 68 8; 69 42; 
71 19; 73 21; 75 1; 77 143; 78 38; 
79 94; 80 7; 81 47; 82 3; 83 25; 
84 8; 85 12; 89 11; 90 4; 91 271; 
92 50; 93 72; 94 12; 95 63; 96 10; 
97 19; 98 2; 99 3; 102 2; 103 40; 
104 18; 105 92; 106 26; 107 134; 108 47; 
109 52; 110 4; 111 12; 112 2; 115 81; 
116 28; 117 67; 118 22; 119 65; 120 52; 
121 506; 122 999; 123 120; 124 17; 125 18; 
126 3; 127 24; 128 60; 129 36; 130 15; 
131 56; 132 25; 133 58; 134 99; 135 133; 
136 70; 137 13; 138 2; 139 6; 141 30; 
142 15; 143 25; 144 11; 145 68; 146 40; 
147 106; 148 13; 149 37; 150 2; 152 10; 
153 25; 154 3; 155 15; 156 5; 157 21; 
158 18; 159 51; 160 26; 161 32; 162 5; 
163 29; 164 7; 165 20; 166 3; 167 16; 
168 2; 169 10; 170 2; 171 22; 172 2; 
173 33; 174 11; 175 10; 176 5; 177 26; 
178 13; 179 8; 181 8; 184 6; 185 7; 
187 3; 188 4; 189 2; 191 16; 193 7; 
194 3; 195 75; 196 7; 197 11; 198 2; 
199 6; 201 2; 207 1; 208 3; 209 56; 
210 20; 211 9; 213 9; 221 5; 223 17; 
224 5; 225 25; 226 5; 227 12; 238 2; 
239 18; 240 20; 253 13; 255 2; 265 3; 
269 3; 282 4; 312 3; 330 10; 331 6; 
341 4; 
