Name: Propafenone
Synon: Rythmol
Synon: 1-{2-[2-hydroxy-3-(propylamino)propoxy]phenyl}-3-phenylpropan-1-one
InChIKey: JWHAUXFOSRPERK-UHFFFAOYSA-N
Formula: C21H27NO3
MW: 341
ExactMass: 341.199093
CASNO: 54063535
ID: 3056
Comment: DEA SWL
Num Peaks: 93
40 1; 41 34; 42 32; 43 73; 44 46; 
45 2; 50 3; 51 10; 52 2; 53 3; 
54 1; 55 3; 56 23; 57 5; 58 7; 
59 1; 60 6; 62 1; 63 6; 64 6; 
65 28; 66 3; 68 8; 69 1; 70 16; 
71 5; 72 999; 73 46; 74 3; 75 1; 
76 6; 77 38; 78 14; 79 15; 80 1; 
82 1; 84 1; 86 29; 87 1; 89 5; 
90 3; 91 127; 92 31; 93 10; 94 4; 
96 2; 98 54; 99 3; 100 2; 102 24; 
103 19; 104 34; 105 30; 106 3; 107 10; 
114 6; 115 4; 116 3; 117 1; 118 3; 
119 2; 120 10; 121 71; 122 5; 129 1; 
131 8; 132 1; 133 3; 134 5; 135 12; 
136 1; 145 1; 147 4; 148 1; 152 2; 
153 1; 163 2; 165 5; 177 1; 178 4; 
179 2; 181 1; 207 9; 208 7; 209 2; 
223 1; 226 4; 227 1; 294 1; 297 13; 
298 2; 312 9; 313 2; 
