Name: Triamterene
Synon: Dyrenium
Synon: 6-phenylpteridine-2,4,7-triamine
InChIKey: FNYLWPVRPXGIIP-UHFFFAOYSA-N
Formula: C12H11N7
MW: 253
ExactMass: 253.107594
CASNO: 396010
ID: 3066
Comment: DEA SWL
Num Peaks: 62
42 34; 43 226; 44 3; 50 5; 51 47; 
52 4; 53 36; 63 39; 64 12; 65 18; 
66 64; 67 25; 68 62; 73 13; 75 4; 
76 43; 77 94; 78 10; 79 5; 80 41; 
81 4; 88 21; 89 85; 90 5; 92 6; 
96 10; 103 66; 104 193; 105 10; 109 28; 
114 26; 115 47; 116 56; 117 12; 122 6; 
123 53; 127 19; 129 18; 131 15; 141 43; 
142 39; 143 29; 156 10; 157 5; 168 37; 
183 25; 184 37; 185 17; 193 10; 194 10; 
195 5; 208 4; 209 39; 210 72; 212 47; 
225 5; 226 36; 235 172; 236 22; 252 957; 
253 999; 254 156; 
