Name: Tripelennamine
Synon: Pyribenzamine
Synon: N,N-dimethyl-N-(phenylmethyl)-N-pyridin-2-ylethane-1,2-diamine
InChIKey: UFLGIAIHIAPJJC-UHFFFAOYSA-N
Formula: C16H21N3
MW: 255
ExactMass: 255.173548
CASNO: 91816
ID: 3067
Comment: DEA SWL
Num Peaks: 98
40 2; 41 8; 42 51; 43 14; 44 8; 
45 4; 50 4; 51 28; 52 23; 53 5; 
54 2; 55 2; 56 22; 57 19; 58 773; 
59 29; 62 1; 63 11; 64 5; 65 86; 
66 7; 67 3; 70 9; 71 189; 72 214; 
73 11; 74 1; 75 1; 76 2; 77 9; 
78 74; 79 89; 80 10; 89 20; 91 999; 
92 80; 93 12; 94 3; 95 1; 102 1; 
103 3; 104 4; 105 11; 106 40; 107 28; 
108 2; 115 3; 116 1; 117 4; 118 17; 
119 52; 120 8; 121 6; 127 3; 128 2; 
129 1; 130 1; 131 2; 132 1; 133 3; 
134 2; 135 1; 139 1; 140 1; 141 1; 
146 1; 148 1; 153 1; 154 4; 155 1; 
156 2; 161 1; 162 4; 163 3; 164 1; 
166 2; 167 9; 168 9; 169 2; 180 4; 
181 11; 182 3; 183 98; 184 122; 185 187; 
186 24; 187 1; 194 1; 195 12; 197 271; 
198 40; 199 3; 209 3; 210 1; 211 10; 
212 1; 255 28; 256 6; 
