Name: Triprolidine
Synon: Actidil
Synon: Myidil
Synon: 2-[(E)-1-(4-methylphenyl)-3-pyrrolidin-1-yl-prop-1-enyl]pyridine
InChIKey: CBEQULMOCCWAQT-WQRHYEAKSA-N
Formula: C19H22N2
MW: 278
ExactMass: 278.178299
CASNO: 486124
ID: 3068
Comment: DEA SWL
Num Peaks: 182
40 6; 41 52; 42 95; 43 15; 44 1; 
50 8; 51 37; 52 20; 53 16; 54 20; 
55 78; 56 13; 57 3; 59 1; 62 4; 
63 25; 64 7; 65 28; 66 4; 67 4; 
68 15; 69 10; 70 30; 71 2; 72 1; 
74 4; 75 10; 76 12; 77 34; 78 67; 
79 31; 80 18; 81 4; 82 13; 83 60; 
84 138; 85 8; 86 2; 87 5; 88 8; 
89 46; 90 31; 91 36; 92 13; 93 74; 
94 10; 96 161; 98 2; 99 1; 100 1; 
102 21; 103 31; 104 33; 105 30; 106 17; 
107 2; 108 4; 109 1; 110 17; 111 7; 
113 6; 114 8; 115 71; 116 37; 117 127; 
118 96; 119 16; 120 5; 124 7; 125 3; 
126 10; 127 31; 128 54; 129 32; 130 27; 
131 27; 132 10; 133 7; 134 1; 137 1; 
138 7; 139 23; 140 16; 141 17; 142 9; 
143 9; 144 16; 145 19; 146 3; 147 1; 
150 5; 151 16; 152 38; 153 16; 154 16; 
155 5; 156 7; 157 13; 158 10; 159 9; 
160 4; 161 1; 163 11; 164 14; 165 43; 
166 27; 167 86; 168 19; 169 3; 170 8; 
171 3; 172 20; 173 51; 174 8; 175 1; 
176 8; 177 10; 178 29; 179 20; 180 112; 
181 154; 182 65; 183 35; 184 11; 185 14; 
186 17; 187 11; 188 2; 189 3; 190 21; 
191 103; 192 140; 193 247; 194 213; 195 32; 
196 99; 197 15; 198 7; 199 1; 200 116; 
201 19; 202 4; 203 7; 204 59; 205 39; 
206 206; 207 273; 208 999; 209 707; 210 105; 
211 8; 216 1; 217 3; 218 7; 219 13; 
220 25; 221 115; 222 31; 223 6; 231 1; 
232 6; 233 4; 234 8; 235 10; 236 3; 
237 1; 246 1; 247 4; 248 2; 249 6; 
250 2; 260 1; 261 1; 262 1; 263 6; 
264 1; 275 3; 276 11; 277 26; 278 257; 
279 54; 280 5; 
