Name: 4-Methyl-5-thiazoleethanol
Synon: Thiamine breakdown product
InChIKey: BKAWJIRCKVUVED-UHFFFAOYSA-N
Formula: C6H9NOS
MW: 143
ExactMass: 143.040485
CASNO: 137008
ID: 3069
Comment: DEA SWL
Num Peaks: 59
40 5; 41 46; 42 22; 43 16; 44 5; 
45 219; 46 7; 47 16; 49 2; 50 20; 
51 45; 52 28; 53 57; 54 16; 55 29; 
56 2; 57 12; 58 53; 59 95; 60 7; 
61 7; 62 3; 63 4; 64 1; 65 5; 
66 3; 68 24; 69 43; 70 19; 71 68; 
72 38; 73 8; 74 1; 78 1; 80 9; 
81 5; 82 3; 83 6; 84 13; 85 260; 
86 42; 87 19; 88 6; 96 1; 97 13; 
98 19; 99 13; 100 12; 111 1; 112 999; 
113 399; 114 70; 115 19; 124 5; 125 14; 
126 1; 143 341; 144 26; 145 17; 
