Name: 1-Phenyl-1,2-propanedione
Synon: Acetylbenzoyl
Synon: Benzoyl methyl ketone
Synon: Benzoylacetyl
Synon: Methylphenylglyoxal
Synon: Phenylmethyldiketone
Synon: Pyruvophenone
Synon: 3-Phenyl-2,3-propanedione
Synon: Methyl phenyl diketone
InChIKey: BVQVLAIMHVDZEL-UHFFFAOYSA-N
Formula: C9H8O2
MW: 148
ExactMass: 148.052429
CASNO: 579077
ID: 3070
Comment: DEA SFL1 / Aldrich
Num Peaks: 37
37 3; 38 7; 39 9; 41 1; 42 7; 
43 70; 44 1; 49 5; 50 68; 51 180; 
52 10; 53 4; 61 3; 62 6; 63 6; 
65 1; 73 6; 74 31; 75 18; 76 26; 
77 644; 78 50; 79 1; 85 1; 86 1; 
87 1; 89 2; 91 1; 102 1; 103 1; 
105 999; 106 84; 107 5; 115 1; 116 1; 
148 40; 149 4; 
