Name: Mannitol
InChIKey: FBPFZTCFMRRESA-UHFFFAOYSA-N
Formula: C6H14O6
MW: 182
ExactMass: 182.079039
CASNO: 69658
ID: 3107
Comment: Broward Sheriff Office Drug Library / Sigma lot 127H09602
Num Peaks: 79
38 11; 39 44; 40 53; 41 81; 42 99; 
43 571; 44 456; 45 335; 46 24; 47 29; 
49 10; 50 17; 51 17; 52 11; 53 15; 
54 16; 55 130; 56 309; 57 264; 58 28; 
59 32; 60 220; 61 864; 62 35; 63 10; 
65 7; 68 10; 69 51; 70 8; 71 90; 
72 21; 73 999; 74 465; 75 67; 76 7; 
77 54; 78 30; 79 8; 81 14; 84 9; 
85 139; 86 29; 87 21; 89 20; 91 91; 
92 19; 95 9; 97 19; 101 23; 102 8; 
103 726; 104 59; 105 17; 109 19; 110 15; 
115 44; 116 18; 117 63; 118 15; 119 34; 
120 10; 121 14; 122 10; 124 41; 129 31; 
130 12; 131 41; 132 17; 133 198; 134 13; 
137 31; 138 9; 139 7; 145 9; 146 23; 
147 10; 159 16; 161 12; 173 9; 
