Name: 3-Fluoromethcathinone HFBA Derivative
Synon: 3-FMC HFBA Derivative
InChIKey: GPVMVHRMAUMGJZ-UHFFFAOYSA-N
Formula: C14H11F8NO2
MW: 377
ExactMass: 377.066204
CASNO: 0
ID: 3111
Comment: Broward Sheriff Office Drug Library
Num Peaks: 113
38 1; 39 5; 40 2; 41 6; 42 292; 
43 10; 44 2; 45 1; 47 10; 49 1; 
50 22; 51 20; 52 2; 53 2; 54 10; 
55 31; 56 153; 57 105; 58 21; 59 1; 
60 1; 61 1; 62 3; 63 6; 64 1; 
68 11; 69 178; 70 8; 71 1; 73 1; 
74 17; 75 142; 76 13; 77 12; 78 10; 
80 1; 81 5; 82 1; 83 3; 84 5; 
86 1; 87 1; 88 2; 89 1; 90 1; 
91 1; 92 5; 93 6; 94 22; 95 344; 
96 31; 97 5; 98 1; 100 20; 101 8; 
102 2; 103 19; 104 4; 105 1; 106 1; 
107 10; 108 2; 109 23; 110 2; 113 1; 
115 1; 119 23; 120 4; 121 6; 122 7; 
123 389; 124 31; 125 2; 128 1; 131 8; 
132 1; 133 7; 134 3; 135 5; 136 3; 
137 1; 142 1; 148 4; 149 28; 150 7; 
151 12; 152 9; 159 1; 160 3; 162 3; 
163 2; 164 55; 165 10; 166 2; 169 141; 
170 5; 178 2; 180 8; 192 2; 198 1; 
206 1; 207 2; 208 12; 210 353; 211 20; 
220 4; 226 1; 235 2; 252 3; 254 999; 
255 83; 256 5; 377 2; 
