Name: 4-Fluoromethcathinone HFBA Derivative
Synon: 4-FMC HFBA Derivative
InChIKey: VFUQMGGXXAZSEH-UHFFFAOYSA-N
Formula: C14H11F8NO2
MW: 377
ExactMass: 377.066204
CASNO: 0
ID: 3112
Comment: Broward Sheriff Office Drug Library
Num Peaks: 116
38 2; 39 4; 40 2; 41 5; 42 304; 
43 10; 44 3; 45 2; 47 12; 49 1; 
50 27; 51 31; 52 3; 53 3; 54 12; 
55 28; 56 163; 57 116; 58 33; 59 2; 
60 2; 61 2; 62 3; 63 7; 64 1; 
65 1; 68 10; 69 213; 70 10; 71 1; 
74 18; 75 149; 76 14; 77 12; 78 10; 
80 1; 81 8; 82 1; 83 4; 84 4; 
86 1; 87 1; 88 1; 89 1; 90 1; 
91 2; 92 5; 93 5; 94 35; 95 425; 
96 36; 97 7; 100 21; 101 10; 102 4; 
103 24; 104 4; 105 1; 106 1; 107 11; 
108 3; 109 24; 110 2; 112 1; 114 1; 
115 2; 118 1; 119 23; 120 4; 121 8; 
122 12; 123 999; 124 79; 125 4; 128 2; 
131 12; 132 1; 133 8; 134 2; 135 7; 
136 2; 146 2; 148 5; 149 27; 150 8; 
151 12; 152 13; 153 1; 159 1; 160 3; 
162 6; 163 3; 164 64; 165 13; 166 1; 
169 140; 170 5; 178 3; 179 1; 180 6; 
192 2; 206 1; 207 5; 208 12; 210 307; 
211 19; 212 1; 220 3; 226 1; 235 1; 
252 3; 254 888; 255 75; 256 6; 358 1; 
377 5; 
