Name: Phentermine HFBA Derivative
InChIKey: AMORFCAPHKNTTL-UHFFFAOYSA-N
Formula: C14H14F7NO
MW: 345
ExactMass: 345.096361
CASNO: 0
ID: 3119
Comment: Broward Sheriff Office Drug Library
Num Peaks: 104
38 4; 39 69; 40 20; 41 128; 42 180; 
43 11; 44 22; 45 1; 50 13; 51 36; 
52 11; 53 10; 54 6; 55 24; 56 16; 
57 24; 58 5; 59 332; 60 11; 61 8; 
62 6; 63 32; 64 12; 65 125; 66 13; 
69 142; 70 2; 71 1; 74 3; 75 3; 
76 4; 77 27; 78 20; 79 9; 80 1; 
81 2; 84 24; 85 2; 86 1; 87 3; 
88 3; 89 41; 90 16; 91 482; 92 78; 
93 6; 95 1; 96 2; 100 20; 101 1; 
102 7; 103 15; 104 19; 105 24; 106 6; 
107 4; 108 1; 109 17; 113 1; 114 1; 
115 100; 116 41; 117 146; 118 17; 119 33; 
120 2; 122 1; 126 1; 127 3; 128 9; 
129 9; 130 8; 131 32; 132 262; 133 118; 
134 15; 135 7; 144 1; 146 9; 147 1; 
150 2; 156 1; 159 2; 160 3; 165 1; 
166 18; 169 73; 170 3; 178 3; 194 18; 
196 8; 206 6; 210 1; 214 62; 215 3; 
226 1; 235 3; 252 3; 253 4; 254 999; 
255 79; 256 5; 330 13; 331 2; 
