Name: Cathinone HFBA Derivative
InChIKey: KYZSGNKBNZDXSR-UHFFFAOYSA-N
Formula: C13H10F7NO2
MW: 345
ExactMass: 345.059977
CASNO: 0
ID: 3121
Comment: Broward Sheriff Office Drug Library
Num Peaks: 55
38 1; 39 4; 40 1; 41 2; 42 13; 
43 11; 44 3; 45 8; 47 6; 50 16; 
51 65; 52 6; 53 1; 55 3; 62 1; 
63 2; 65 1; 69 46; 70 4; 74 4; 
75 4; 76 10; 77 265; 78 24; 79 5; 
81 1; 88 1; 89 1; 91 1; 92 3; 
93 1; 100 7; 102 1; 103 4; 104 6; 
105 999; 106 79; 107 5; 109 3; 115 1; 
117 3; 119 8; 121 1; 130 1; 131 2; 
132 27; 133 9; 134 1; 142 2; 146 1; 
169 24; 170 1; 192 3; 240 25; 241 1; 
