Name: Cathine HFBA Derivative
InChIKey: OINPQUMGOWGPTB-UHFFFAOYSA-N
Formula: C13H12F7NO2
MW: 347
ExactMass: 347.075626
CASNO: 0
ID: 3122
Comment: Broward Sheriff Office Drug Library
Num Peaks: 110
38 3; 39 27; 40 7; 41 10; 42 39; 
43 53; 44 79; 45 29; 46 1; 47 19; 
50 27; 51 89; 52 30; 53 24; 54 6; 
55 13; 56 4; 57 21; 59 2; 62 5; 
63 15; 64 5; 65 10; 66 6; 67 1; 
69 137; 70 15; 71 2; 72 140; 73 8; 
74 22; 75 6; 76 11; 77 348; 78 73; 
79 602; 80 42; 81 3; 82 7; 83 2; 
86 1; 87 1; 88 1; 89 15; 90 11; 
91 51; 92 15; 93 6; 94 1; 100 23; 
101 1; 102 10; 103 10; 104 7; 105 152; 
106 27; 107 999; 108 77; 109 21; 114 1; 
115 38; 116 19; 117 72; 118 15; 119 36; 
120 3; 121 3; 122 253; 123 13; 124 1; 
128 1; 130 4; 131 9; 132 4; 133 16; 
134 31; 135 5; 136 1; 142 7; 143 2; 
144 3; 145 1; 146 1; 148 1; 150 2; 
152 3; 159 3; 160 11; 161 1; 162 1; 
166 3; 169 83; 170 2; 192 9; 193 2; 
194 2; 196 2; 222 2; 223 3; 226 9; 
227 3; 240 65; 241 567; 242 42; 243 3; 
255 1; 262 1; 290 3; 310 1; 347 3; 
