Name: Benzylpiperazine HFBA Derivative
Synon: BZP HFBA Derivative
InChIKey: YBUNEDWAHOWAET-UHFFFAOYSA-N
Formula: C15H15F7N2O
MW: 372
ExactMass: 372.10726
CASNO: 0
ID: 3123
Comment: Broward Sheriff Office Drug Library
Num Peaks: 126
38 1; 39 20; 40 3; 41 19; 42 69; 
43 7; 44 6; 50 4; 51 17; 52 4; 
53 2; 54 19; 55 33; 56 104; 57 13; 
58 6; 59 1; 62 3; 63 22; 64 5; 
65 118; 66 8; 67 2; 68 7; 69 89; 
70 18; 71 3; 72 30; 73 2; 74 1; 
75 3; 76 2; 77 13; 78 11; 79 5; 
80 1; 81 7; 82 2; 83 15; 84 21; 
85 1; 87 4; 89 32; 90 19; 91 999; 
92 194; 93 11; 95 1; 96 1; 97 4; 
98 4; 100 11; 101 2; 102 1; 103 5; 
104 24; 105 15; 106 3; 109 5; 111 1; 
112 2; 115 2; 116 1; 117 16; 118 41; 
119 20; 120 5; 128 2; 129 1; 130 5; 
131 7; 132 91; 133 14; 134 17; 135 1; 
144 6; 145 9; 146 130; 147 17; 148 1; 
150 1; 158 2; 159 1; 160 8; 161 3; 
169 36; 173 7; 174 2; 175 169; 176 26; 
177 2; 178 1; 185 2; 203 3; 204 1; 
206 2; 207 6; 208 1; 209 1; 210 4; 
226 6; 237 2; 239 1; 240 3; 241 1; 
251 1; 252 1; 253 1; 254 19; 255 2; 
261 1; 266 5; 267 2; 279 2; 281 144; 
282 15; 283 1; 295 74; 296 8; 330 1; 
333 1; 353 2; 370 3; 371 36; 372 126; 
373 22; 
