Name: 4-Fluoromethamphetamine HFBA Derivative
Synon: 4-FMA HFBA Derivative
InChIKey: ZRNLMJRWALTGDM-UHFFFAOYSA-N
Formula: C14H13F8NO
MW: 363
ExactMass: 363.086939
CASNO: 0
ID: 3127
Comment: Broward Sheriff Office Drug Library
Num Peaks: 128
38 2; 39 35; 40 4; 41 32; 42 361; 
43 11; 44 2; 47 12; 50 10; 51 15; 
52 4; 53 1; 54 6; 55 12; 56 167; 
57 155; 58 33; 59 15; 60 2; 61 1; 
62 7; 63 25; 64 4; 65 4; 67 1; 
68 3; 69 181; 70 13; 71 2; 74 6; 
75 21; 76 4; 77 8; 78 10; 79 2; 
80 2; 81 15; 82 5; 83 115; 84 10; 
85 1; 86 1; 87 2; 88 3; 89 17; 
90 2; 91 4; 92 4; 93 3; 94 5; 
95 9; 96 21; 97 11; 98 1; 99 1; 
100 21; 101 22; 102 4; 103 4; 104 2; 
105 1; 106 1; 107 40; 108 17; 109 518; 
110 44; 111 2; 112 1; 114 1; 115 38; 
116 8; 117 3; 118 1; 119 24; 120 10; 
121 19; 122 13; 123 3; 127 1; 128 2; 
131 7; 132 1; 133 45; 134 17; 135 123; 
136 400; 137 114; 138 10; 139 1; 142 1; 
146 1; 147 1; 148 4; 149 5; 150 9; 
151 14; 152 1; 159 2; 160 3; 162 1; 
164 4; 165 7; 166 10; 167 1; 169 149; 
170 6; 172 1; 176 1; 178 3; 180 4; 
192 5; 194 9; 195 1; 198 1; 206 2; 
208 3; 210 391; 211 25; 220 4; 226 1; 
228 1; 235 2; 236 1; 252 4; 254 999; 
255 81; 256 5; 348 1; 
