Name: Butylone HFBA Derivative
Synon: bk-MBDB HFBA Derivative
InChIKey: GNSZKUSVECWACU-UHFFFAOYSA-N
Formula: C16H14F7NO4
MW: 417
ExactMass: 417.081106
CASNO: 0
ID: 3130
Comment: Broward Sheriff Office Drug Library
Num Peaks: 107
37 1; 38 2; 39 15; 40 2; 41 49; 
42 122; 43 5; 44 3; 50 3; 51 14; 
52 1; 53 9; 54 3; 55 5; 56 9; 
57 1; 58 14; 61 3; 62 15; 63 50; 
64 7; 65 99; 66 7; 67 1; 68 5; 
69 62; 70 25; 71 38; 72 3; 74 1; 
75 2; 76 2; 77 6; 78 2; 79 5; 
81 1; 82 1; 89 2; 90 2; 91 30; 
92 6; 93 1; 98 2; 100 6; 101 2; 
102 1; 103 4; 104 1; 105 4; 106 1; 
109 4; 115 1; 118 1; 119 20; 120 12; 
121 117; 122 11; 123 2; 128 1; 131 6; 
132 1; 133 2; 134 2; 135 7; 136 1; 
145 1; 146 2; 147 3; 149 999; 150 91; 
151 11; 159 1; 160 3; 161 3; 162 2; 
163 4; 169 29; 174 10; 175 4; 176 1; 
177 1; 180 3; 188 1; 189 1; 190 1; 
191 6; 192 2; 204 7; 205 1; 209 1; 
210 68; 211 4; 212 1; 220 2; 226 1; 
228 1; 232 2; 240 8; 241 1; 247 2; 
248 1; 252 2; 266 1; 268 158; 269 13; 
417 16; 418 3; 
