Name: WIN 54,461
Synon: [(6-Bromo-2-methyl-1-[2-(4-morpholinyl)ethyl]-1H-indol-3-yl](4-methoxyphenyl)-methanone
Synon: 6-Bromopravadoline
InChIKey: DUYGSAPQVOBOCS-UHFFFAOYSA-N
Formula: C23H25BrN2O3
MW: 456
ExactMass: 456.104855
CASNO: 166599639
ID: 3132
Comment: Provided by www.caymanchem.com/app/template/landing%2CForensic.vm / Item #9001204  Lot #0435768
Num Peaks: 154
41 4; 42 14; 43 2; 44 5; 45 1; 
51 1; 54 4; 55 9; 56 51; 57 3; 
63 3; 64 4; 65 1; 68 1; 70 23; 
71 3; 72 9; 75 1; 76 4; 77 27; 
78 3; 79 1; 82 1; 83 1; 84 1; 
85 1; 86 1; 87 1; 88 1; 89 2; 
92 17; 93 1; 98 11; 100 999; 101 64; 
102 6; 104 2; 105 1; 107 16; 108 2; 
112 2; 113 3; 114 7; 115 11; 116 3; 
117 1; 119 1; 121 5; 126 1; 127 3; 
128 5; 129 2; 133 2; 135 160; 136 14; 
137 1; 138 1; 139 1; 140 3; 141 5; 
142 4; 143 2; 145 1; 150 2; 151 3; 
152 2; 153 1; 154 4; 155 2; 156 1; 
163 3; 164 1; 165 2; 166 1; 176 2; 
177 1; 178 2; 179 1; 180 1; 182 1; 
189 2; 190 4; 191 6; 192 3; 193 2; 
194 1; 195 2; 202 1; 203 2; 204 6; 
205 3; 206 3; 207 2; 208 1; 209 2; 
216 1; 217 2; 218 2; 219 3; 220 4; 
221 2; 222 3; 223 1; 230 1; 232 2; 
233 3; 234 4; 235 2; 236 1; 237 1; 
245 1; 246 2; 247 2; 248 3; 249 2; 
250 1; 258 1; 260 1; 261 1; 262 3; 
263 1; 264 1; 276 2; 277 1; 278 1; 
282 1; 284 1; 289 1; 290 1; 291 1; 
292 1; 298 1; 312 1; 314 1; 316 1; 
326 1; 327 1; 340 1; 342 1; 356 5; 
357 1; 358 5; 359 1; 377 1; 425 1; 
426 2; 427 2; 428 2; 438 1; 440 1; 
456 9; 457 3; 458 10; 459 2; 
