Name: JWH-145
Synon: 1-naphthalenyl(1-pentyl-5-phenyl-1H-pyrrol-3-yl)-methanone
InChIKey: JLXYYSHMURZHKI-UHFFFAOYSA-N
Formula: C26H25NO
MW: 367
ExactMass: 367.193615
CASNO: 914458198
ID: 3135
Comment: Provided by www.caymanchem.com/app/template/landing%2CForensic.vm / Item #10825  Lot #0432772
Num Peaks: 238
41 72; 43 138; 44 5; 50 4; 51 11; 
52 10; 53 9; 54 2; 55 19; 56 2; 
62 2; 63 9; 64 2; 65 7; 66 2; 
67 1; 69 3; 71 4; 74 5; 75 13; 
76 10; 77 67; 78 12; 79 2; 80 1; 
84 1; 86 13; 87 6; 88 9; 89 16; 
90 4; 91 17; 92 2; 93 1; 94 1; 
96 1; 98 2; 99 3; 100 3; 101 30; 
102 14; 103 18; 104 81; 105 14; 106 3; 
107 1; 112 2; 113 22; 114 40; 115 199; 
116 27; 117 10; 118 10; 119 9; 122 1; 
126 99; 127 634; 128 130; 129 41; 130 10; 
131 4; 132 11; 134 11; 137 2; 139 32; 
140 51; 141 90; 142 74; 143 23; 144 6; 
146 9; 147 6; 148 6; 149 5; 150 6; 
151 11; 152 17; 155 981; 156 244; 157 26; 
158 4; 160 1; 161 3; 162 4; 163 34; 
164 42; 165 97; 166 21; 167 20; 168 13; 
169 42; 170 292; 171 36; 172 4; 174 29; 
175 6; 176 8; 177 5; 178 9; 179 9; 
180 10; 181 7; 182 40; 183 8; 184 8; 
185 1; 186 3; 187 4; 188 4; 189 7; 
190 27; 191 12; 192 8; 193 24; 194 32; 
195 6; 196 16; 197 3; 198 6; 199 1; 
200 5; 201 4; 202 9; 203 4; 204 7; 
205 10; 206 11; 207 11; 208 5; 209 2; 
210 6; 212 72; 213 18; 214 5; 215 8; 
216 3; 217 2; 218 5; 219 18; 220 36; 
221 6; 222 1; 224 4; 225 3; 226 14; 
227 5; 228 4; 229 1; 230 1; 232 8; 
233 5; 234 7; 235 4; 236 4; 237 16; 
238 14; 239 92; 240 325; 241 75; 242 10; 
243 2; 244 1; 246 2; 247 1; 248 3; 
249 3; 250 19; 251 13; 252 55; 253 36; 
254 14; 255 6; 256 2; 257 1; 260 1; 
261 1; 262 3; 263 4; 264 13; 265 28; 
266 36; 267 61; 268 45; 269 24; 270 11; 
271 2; 274 1; 276 12; 277 11; 278 16; 
279 10; 280 50; 281 98; 282 160; 283 45; 
284 10; 288 1; 290 81; 291 23; 292 17; 
293 22; 294 43; 296 502; 297 133; 298 18; 
299 1; 304 1; 305 1; 306 4; 307 5; 
308 17; 310 387; 311 150; 312 29; 313 3; 
320 1; 322 7; 323 3; 324 28; 325 8; 
326 1; 336 2; 338 14; 339 9; 340 2; 
341 1; 350 59; 351 16; 352 5; 353 1; 
354 1; 355 1; 364 2; 366 487; 367 999; 
368 266; 369 36; 370 3; 
