Name: AM1235
Synon: [1-(5-fluoropentyl)-6-nitro-1H-indol-3-yl]-1-naphthalenyl-methanone
InChIKey: LNGVQORPSNNMSZ-UHFFFAOYSA-N
Formula: C24H21FN2O3
MW: 404
ExactMass: 404.153622
CASNO: 335161278
ID: 3138
Comment: Provided by www.caymanchem.com/app/template/landing%2CForensic.vm / Item #9001094  Lot #0437423
Num Peaks: 259
41 204; 42 12; 43 105; 44 6; 45 3; 
47 69; 50 6; 51 19; 52 4; 53 12; 
54 2; 55 19; 59 19; 61 14; 62 10; 
63 19; 64 6; 65 7; 67 9; 69 65; 
70 4; 74 16; 75 42; 76 22; 77 77; 
78 12; 86 2; 87 26; 88 30; 89 15; 
90 3; 94 5; 98 2; 99 6; 100 27; 
101 86; 102 35; 103 11; 104 10; 105 4; 
107 18; 113 54; 114 79; 115 110; 116 24; 
117 13; 118 4; 119 4; 120 6; 121 27; 
125 13; 126 168; 127 988; 128 185; 129 36; 
130 13; 131 29; 132 8; 133 9; 134 8; 
135 12; 137 7; 138 4; 139 31; 141 104; 
142 64; 143 398; 144 52; 145 9; 146 5; 
147 3; 148 6; 149 7; 150 27; 151 26; 
152 22; 153 12; 155 457; 156 80; 157 19; 
158 8; 159 11; 160 4; 161 5; 162 10; 
163 30; 164 80; 165 27; 167 552; 168 84; 
169 40; 170 13; 171 9; 172 53; 173 21; 
174 16; 175 17; 176 26; 177 13; 178 4; 
179 5; 180 6; 181 19; 182 5; 183 11; 
184 6; 185 6; 186 7; 187 31; 188 36; 
189 269; 190 35; 191 10; 192 3; 193 4; 
194 2; 195 3; 198 6; 199 7; 200 26; 
201 22; 202 36; 203 19; 204 5; 205 5; 
208 2; 209 4; 210 3; 211 29; 212 38; 
213 212; 214 109; 215 73; 216 17; 217 7; 
218 5; 219 6; 220 2; 222 3; 223 4; 
224 25; 225 27; 226 80; 227 51; 228 46; 
229 27; 230 23; 231 118; 232 21; 233 3; 
236 7; 237 8; 238 57; 239 39; 240 274; 
241 235; 242 67; 243 30; 244 10; 245 3; 
247 4; 249 5; 250 6; 251 22; 252 41; 
253 111; 254 269; 255 121; 256 57; 257 57; 
258 13; 259 4; 261 4; 264 9; 265 19; 
266 27; 267 38; 268 99; 269 289; 270 107; 
271 25; 272 6; 274 3; 275 4; 277 683; 
278 114; 279 20; 280 16; 281 18; 282 94; 
283 113; 284 42; 285 16; 286 8; 287 16; 
288 3; 292 3; 293 2; 294 10; 295 10; 
296 11; 297 11; 298 42; 299 58; 300 27; 
301 63; 302 17; 303 4; 307 4; 308 4; 
309 7; 311 17; 312 29; 313 32; 315 109; 
316 24; 317 9; 318 4; 321 2; 325 22; 
326 5; 327 20; 329 532; 330 131; 331 26; 
332 5; 337 4; 339 6; 341 45; 342 14; 
343 21; 344 6; 346 2; 347 3; 354 2; 
355 5; 357 62; 358 37; 359 12; 360 4; 
367 13; 369 4; 371 4; 373 3; 374 14; 
375 10; 376 18; 377 3; 383 19; 384 43; 
385 45; 387 651; 388 205; 389 32; 403 603; 
404 999; 405 247; 406 34; 407 2; 
