Name: Epiandrosterone
Synon: Isoandrosterone
Synon: 3.beta.-hydroxy-5.alpha.-Androstan-17-one
Formula: C19H30O2
MW: 290
ExactMass: 290.22458
CASNO: 481298
ID: 314
Comment: DEA SWL
Num Peaks: 211
40 42; 41 493; 42 63; 43 209; 44 55; 
45 14; 50 4; 51 25; 52 19; 53 227; 
54 72; 55 563; 56 59; 57 290; 58 22; 
59 10; 63 6; 65 137; 66 68; 67 717; 
68 143; 69 197; 70 68; 71 29; 72 5; 
73 4; 74 5; 75 5; 77 357; 78 96; 
79 773; 80 162; 81 526; 82 113; 83 118; 
84 25; 85 18; 86 4; 87 4; 88 3; 
89 5; 91 675; 92 148; 93 745; 94 225; 
95 396; 96 94; 97 325; 98 26; 99 6; 
100 2; 101 10; 102 10; 103 44; 104 38; 
105 504; 106 253; 107 999; 108 806; 109 362; 
110 237; 111 78; 112 10; 113 1; 114 3; 
115 82; 116 30; 117 121; 118 65; 119 338; 
120 244; 121 290; 122 240; 123 193; 124 356; 
125 67; 126 10; 127 9; 128 41; 129 72; 
130 29; 131 181; 132 75; 133 284; 134 192; 
135 180; 136 178; 137 90; 138 43; 139 9; 
140 1; 141 21; 142 17; 143 56; 144 45; 
145 225; 146 143; 147 441; 148 190; 149 167; 
150 68; 151 114; 152 38; 153 8; 154 4; 
155 11; 156 8; 157 51; 158 44; 159 168; 
160 115; 161 194; 162 92; 163 83; 164 173; 
165 190; 166 66; 167 14; 168 4; 169 9; 
170 6; 171 42; 172 36; 173 133; 174 73; 
175 112; 176 80; 177 59; 178 39; 179 13; 
180 1; 181 2; 182 2; 183 16; 184 5; 
185 30; 186 17; 187 78; 188 44; 189 62; 
190 206; 191 76; 192 20; 193 8; 194 5; 
195 2; 196 2; 197 25; 198 12; 199 50; 
200 24; 201 237; 202 52; 203 25; 204 21; 
205 15; 206 9; 207 6; 208 1; 209 2; 
211 10; 213 175; 214 46; 215 217; 216 211; 
217 74; 218 38; 219 93; 220 21; 221 3; 
225 3; 226 3; 228 73; 229 60; 230 32; 
231 116; 232 37; 233 105; 234 80; 235 13; 
237 1; 239 195; 240 35; 241 7; 242 1; 
243 12; 244 13; 246 372; 247 92; 248 29; 
249 4; 254 106; 255 22; 257 187; 258 42; 
259 5; 261 1; 262 11; 263 3; 270 1; 
272 117; 273 21; 275 156; 276 29; 277 2; 
281 2; 288 4; 290 938; 291 220; 292 24; 
293 3; 
