Name: JWH-457
Synon: 1-pentyl-3-(8-chloro-1-naphthoyl)indole
InChIKey: LZLCJWHUCAXUOX-UHFFFAOYSA-N
Formula: C24H22ClNO
MW: 375
ExactMass: 375.138992
CASNO: 0
ID: 3153
Comment: ForensicDB entry 3112
Num Peaks: 173
40 1; 41 23; 42 2; 43 52; 44 1; 
50 1; 51 3; 52 1; 53 1; 55 7; 
62 2; 63 4; 65 1; 69 1; 71 1; 
73 1; 74 3; 75 9; 76 5; 77 4; 
78 2; 87 2; 88 5; 89 15; 90 2; 
94 1; 98 1; 99 5; 100 3; 101 9; 
102 13; 103 5; 106 2; 107 3; 112 2; 
113 13; 114 8; 115 18; 116 37; 117 4; 
119 1; 120 1; 121 4; 125 14; 126 58; 
127 36; 128 13; 129 13; 130 8; 131 1; 
133 1; 134 2; 135 3; 139 2; 140 2; 
141 1; 142 48; 143 7; 144 87; 145 10; 
146 3; 147 1; 148 1; 149 2; 150 1; 
151 2; 152 1; 154 3; 155 3; 156 4; 
157 1; 158 1; 159 1; 160 4; 161 61; 
162 9; 163 23; 164 3; 165 1; 167 2; 
168 1; 170 7; 171 1; 174 3; 175 2; 
176 1; 184 1; 185 1; 186 1; 187 7; 
188 5; 189 38; 190 5; 191 10; 192 1; 
193 1; 199 1; 200 2; 201 2; 202 1; 
207 2; 211 5; 212 5; 213 24; 214 76; 
215 22; 216 3; 223 1; 224 5; 225 4; 
226 14; 227 5; 228 2; 237 1; 238 9; 
239 6; 240 41; 241 47; 242 13; 243 4; 
249 3; 250 1; 251 6; 252 7; 253 13; 
254 42; 255 19; 256 4; 264 1; 265 2; 
266 6; 267 5; 268 17; 269 109; 270 382; 
271 78; 272 9; 275 1; 276 2; 277 1; 
278 1; 280 2; 281 4; 282 36; 283 18; 
284 11; 285 2; 290 2; 294 2; 295 1; 
296 10; 297 2; 304 5; 305 1; 306 2; 
310 4; 311 1; 318 8; 319 2; 320 3; 
322 2; 324 1; 338 6; 339 1; 340 999; 
341 264; 342 37; 343 3; 375 105; 376 28; 
377 37; 378 9; 379 1; 
