Name: JWH-247
Synon: (2'S)-1-methoxy-3-(2'-methoxyheptyl)-delta-8-tetrahydrocannabinol
InChIKey: IFMKKQWPOCDYSN-IOMROCGXSA-N
Formula: C25H38O2
MW: 370
ExactMass: 370.28718
CASNO: 0
ID: 3156
Comment: ForensicDB entry 3096
Num Peaks: 247
40 1; 41 64; 42 3; 43 54; 44 5; 
45 1; 51 3; 52 1; 53 12; 55 44; 
56 6; 57 73; 58 4; 59 2; 63 1; 
64 1; 65 11; 66 1; 67 21; 68 3; 
69 23; 70 2; 71 17; 72 1; 73 1; 
77 37; 78 9; 79 29; 80 3; 81 14; 
82 1; 83 2; 89 3; 90 1; 91 68; 
92 6; 93 26; 94 5; 95 6; 97 2; 
98 2; 101 1; 102 2; 103 12; 104 2; 
105 30; 106 7; 107 54; 108 6; 109 12; 
110 1; 111 1; 113 1; 114 1; 115 35; 
116 8; 117 17; 118 3; 119 57; 120 10; 
121 28; 122 21; 123 7; 125 1; 126 1; 
127 8; 128 37; 129 24; 130 3; 131 16; 
132 5; 133 32; 134 26; 135 24; 136 5; 
137 70; 138 32; 139 6; 140 1; 141 16; 
142 10; 143 15; 144 7; 145 27; 146 8; 
147 16; 148 5; 149 9; 150 27; 151 34; 
152 21; 153 18; 154 6; 155 13; 156 4; 
157 12; 158 11; 159 20; 160 12; 161 30; 
162 7; 163 17; 164 14; 165 34; 166 10; 
167 11; 168 6; 169 8; 170 4; 171 12; 
172 11; 173 19; 174 38; 175 33; 176 5; 
177 25; 178 11; 179 11; 180 5; 181 19; 
182 10; 183 9; 184 6; 185 12; 186 9; 
187 18; 188 132; 189 69; 190 10; 191 20; 
192 10; 193 3; 194 2; 195 25; 196 8; 
197 21; 198 10; 199 15; 200 11; 201 34; 
202 18; 203 84; 204 20; 205 6; 206 1; 
207 14; 208 4; 209 11; 210 2; 211 8; 
212 7; 213 27; 214 14; 215 70; 216 15; 
217 17; 218 1; 219 3; 221 2; 222 1; 
223 4; 224 3; 225 8; 226 3; 227 10; 
228 11; 229 34; 230 8; 231 7; 233 1; 
235 2; 236 1; 237 4; 238 1; 239 4; 
240 3; 241 9; 242 3; 243 8; 244 3; 
245 2; 246 1; 247 4; 249 169; 250 26; 
251 2; 252 1; 253 1; 254 2; 255 6; 
256 9; 257 31; 258 4; 259 8; 260 1; 
262 3; 263 4; 267 1; 269 3; 270 1; 
271 28; 272 999; 273 200; 274 25; 275 2; 
277 1; 281 6; 282 2; 283 2; 285 36; 
286 2; 287 897; 288 184; 289 21; 290 2; 
297 1; 299 75; 300 24; 301 26; 302 73; 
303 10; 309 1; 311 1; 313 19; 314 67; 
315 100; 316 17; 317 1; 325 3; 327 168; 
328 46; 329 4; 339 5; 341 3; 342 3; 
351 7; 352 2; 353 5; 355 49; 356 11; 
357 1; 368 2; 369 2; 370 601; 371 166; 
372 14; 373 1; 
