Name: AM2233 azepane isomer
Synon: (2-iodophenyl)(1-(1-methylazepan-3-yl)-1H-indol-3-yl)-methanone
InChIKey: GSXZMBIYSUZVEW-UHFFFAOYSA-N
Formula: C22H23IN2O
MW: 458
ExactMass: 458.08551
CASNO: 0
ID: 3159
Comment: Provided by www.caymanchem.com/app/template/landing%2CForensic.vm / Item #11584  Lot #0438011
Num Peaks: 264
41 161; 42 473; 43 130; 44 151; 45 15; 
46 2; 49 1; 50 31; 51 30; 52 4; 
53 21; 54 14; 55 66; 57 601; 58 869; 
59 43; 61 2; 62 9; 63 28; 64 3; 
65 20; 66 5; 67 45; 68 38; 69 27; 
70 240; 71 122; 72 26; 73 4; 74 20; 
75 50; 76 130; 77 61; 78 7; 79 16; 
80 10; 81 25; 82 147; 83 63; 84 999; 
85 147; 86 9; 87 12; 88 43; 89 66; 
90 13; 91 10; 92 4; 94 17; 95 13; 
96 132; 98 376; 99 32; 100 7; 101 57; 
102 23; 103 10; 104 13; 105 38; 106 6; 
108 25; 110 109; 111 416; 112 581; 113 61; 
114 43; 115 211; 116 85; 117 20; 118 7; 
119 1; 120 1; 121 1; 122 2; 123 3; 
124 1; 125 9; 126 9; 127 59; 128 63; 
129 33; 130 125; 131 16; 132 6; 134 1; 
135 2; 136 1; 137 7; 138 11; 139 21; 
140 30; 141 22; 142 26; 143 46; 144 143; 
145 15; 146 5; 147 1; 149 4; 150 21; 
151 33; 152 26; 153 10; 154 51; 155 24; 
156 63; 157 9; 158 6; 161 4; 163 114; 
164 120; 165 109; 166 21; 167 44; 168 68; 
170 370; 171 47; 172 4; 174 6; 175 14; 
176 72; 177 42; 178 24; 179 10; 180 9; 
181 7; 182 24; 184 479; 185 76; 186 8; 
187 5; 188 13; 189 54; 190 107; 191 41; 
192 14; 193 9; 194 5; 196 16; 197 8; 
198 7; 199 4; 200 8; 201 14; 203 238; 
204 92; 205 20; 206 9; 207 7; 208 4; 
209 4; 210 3; 211 5; 212 35; 213 8; 
214 14; 215 19; 216 83; 217 111; 218 60; 
219 52; 220 75; 221 18; 222 4; 223 3; 
224 2; 225 29; 226 14; 227 114; 228 43; 
229 150; 231 356; 232 91; 233 44; 234 43; 
235 9; 236 2; 239 2; 240 3; 241 8; 
242 14; 243 11; 244 32; 245 30; 246 83; 
247 17; 248 4; 249 1; 254 6; 255 9; 
256 9; 257 6; 258 36; 259 25; 260 149; 
261 28; 262 5; 265 1; 268 3; 269 6; 
270 12; 271 7; 272 21; 273 12; 274 12; 
275 1; 276 2; 281 1; 282 3; 283 3; 
284 4; 285 5; 286 20; 287 18; 288 29; 
289 6; 290 1; 291 1; 296 1; 298 1; 
300 1; 301 1; 313 1; 325 1; 329 2; 
330 6; 331 3; 332 3; 333 1; 339 1; 
341 2; 343 1; 344 1; 346 1; 347 2; 
348 1; 355 1; 360 8; 361 76; 362 16; 
363 1; 370 2; 371 1; 372 1; 373 3; 
374 6; 385 2; 387 27; 388 8; 389 1; 
390 1; 398 2; 399 6; 400 52; 401 10; 
413 1; 414 1; 415 4; 432 1; 441 1; 
456 3; 458 146; 459 44; 460 3; 
