Name: JWH 398 3-chloronaphthyl isomer
Synon: (3-chloronaphthalen-1-yl)(1-pentyl-1H-indol-3-yl)methanone
InChIKey: VKNIMOHMAKMHOE-UHFFFAOYSA-N
Formula: C24H22ClNO
MW: 375
ExactMass: 375.138992
CASNO: 0
ID: 3164
Comment: Provided by www.caymanchem.com/app/template/landing%2CForensic.vm / Item #9001024  Lot #0438708
Num Peaks: 229
40 14; 41 110; 43 269; 44 3; 45 2; 
50 6; 51 25; 52 8; 53 9; 54 3; 
55 35; 56 6; 60 4; 62 4; 63 18; 
65 13; 68 3; 69 4; 71 13; 73 6; 
74 10; 75 26; 76 38; 77 18; 78 14; 
79 2; 83 4; 85 4; 86 8; 87 17; 
88 22; 89 53; 90 7; 92 5; 93 8; 
96 5; 98 3; 99 17; 100 15; 101 37; 
102 84; 103 27; 104 3; 105 6; 107 33; 
109 3; 111 3; 112 13; 113 29; 114 27; 
115 107; 116 159; 117 58; 118 13; 119 3; 
120 16; 123 5; 125 60; 126 302; 127 136; 
128 106; 129 80; 130 139; 131 13; 132 7; 
134 11; 135 1; 136 7; 137 5; 139 7; 
140 10; 142 111; 143 35; 144 477; 145 54; 
147 14; 148 7; 149 10; 150 11; 151 9; 
152 10; 153 6; 156 25; 157 16; 158 13; 
159 15; 160 29; 161 324; 162 46; 163 137; 
164 23; 165 8; 167 2; 168 4; 169 3; 
170 32; 171 4; 172 4; 173 10; 174 12; 
175 22; 176 6; 178 5; 181 6; 182 7; 
183 4; 184 11; 185 8; 186 95; 187 26; 
188 28; 189 258; 190 52; 191 66; 192 15; 
193 17; 195 5; 197 7; 198 2; 199 9; 
200 11; 201 90; 202 15; 203 32; 204 3; 
205 3; 210 4; 211 20; 212 33; 213 105; 
214 999; 215 157; 216 31; 217 5; 220 3; 
222 8; 223 1; 224 13; 225 19; 226 41; 
227 14; 228 14; 229 3; 236 3; 237 2; 
238 25; 239 19; 240 86; 241 132; 242 43; 
243 8; 245 5; 247 2; 249 18; 250 4; 
251 6; 252 20; 253 56; 254 138; 255 61; 
256 17; 257 3; 261 4; 264 9; 265 5; 
266 8; 267 12; 268 24; 269 114; 270 50; 
271 2; 273 7; 274 7; 275 15; 276 12; 
277 7; 278 7; 279 6; 281 4; 282 18; 
283 10; 284 14; 285 6; 286 4; 288 36; 
289 12; 290 59; 291 17; 292 12; 293 4; 
296 5; 300 6; 301 17; 302 18; 303 29; 
304 73; 305 33; 306 36; 307 12; 311 4; 
312 6; 314 6; 316 17; 318 276; 319 88; 
320 127; 321 19; 322 5; 327 2; 334 3; 
340 12; 341 3; 342 4; 346 4; 347 4; 
349 3; 355 2; 356 3; 358 134; 359 36; 
360 35; 361 9; 362 6; 371 3; 374 100; 
375 260; 376 99; 377 101; 378 29; 
