Name: 2-Methyl-.alpha.-pyrrolidinopropiophenone
Synon: 2-MeMPPP
Synon: 2-(pyrrolidin-1-yl)-1-(o-tolyl)propan-1-one
InChIKey: ITKKRQLIQITCHA-UHFFFAOYSA-N
Formula: C14H19NO
MW: 217
ExactMass: 217.146665
CASNO: 0
ID: 3167
Comment: Provided by www.caymanchem.com/app/template/landing%2CForensic.vm / Item #11484  Lot #0438731
Num Peaks: 75
40 3; 41 30; 42 23; 43 5; 44 17; 
50 3; 51 8; 52 3; 53 6; 54 24; 
55 40; 56 118; 57 6; 62 3; 63 15; 
64 5; 65 59; 66 4; 67 2; 68 10; 
69 32; 70 17; 71 1; 74 1; 75 1; 
76 1; 77 7; 78 2; 79 1; 80 1; 
81 1; 82 1; 87 1; 89 21; 90 10; 
91 94; 92 8; 93 1; 94 2; 96 28; 
98 999; 99 75; 100 2; 102 1; 103 4; 
104 2; 105 3; 115 9; 116 3; 117 5; 
118 2; 119 27; 120 3; 127 1; 128 3; 
129 2; 130 1; 131 4; 132 1; 144 2; 
145 2; 146 2; 158 1; 172 2; 173 1; 
174 1; 186 5; 187 2; 200 7; 201 1; 
202 1; 214 1; 215 2; 216 1; 217 1; 
