Name: AM281
Synon: N-(morpholin-4-yl)-1-(2,4-dichlorophenyl)-5-(4-iodophenyl)-4-methyl-1H-pyrazole-3-carboxamide
InChIKey: AJFFBPZYXRNAIC-UHFFFAOYSA-N
Formula: C21H19Cl2IN4O2
MW: 556
ExactMass: 555.99298
CASNO: 202463681
ID: 3169
Comment: Provided by www.caymanchem.com/app/template/landing%2CForensic.vm / Item #10006972  Lot #0438508
Num Peaks: 394
41 21; 42 120; 43 117; 44 72; 45 86; 
46 4; 47 1; 49 2; 50 39; 51 33; 
52 12; 53 3; 54 38; 55 115; 56 119; 
57 220; 58 19; 59 7; 60 2; 61 2; 
62 20; 63 38; 64 12; 65 10; 66 3; 
67 5; 68 4; 69 5; 70 7; 71 32; 
72 7; 73 16; 74 52; 75 105; 76 198; 
77 67; 78 23; 79 7; 81 2; 83 2; 
84 33; 85 197; 86 636; 87 56; 88 41; 
89 28; 90 9; 91 7; 94 7; 95 1; 
96 1; 97 6; 98 11; 99 29; 101 467; 
102 178; 103 73; 104 11; 105 7; 106 2; 
107 4; 109 144; 110 61; 111 67; 112 24; 
113 49; 114 69; 115 77; 116 7; 117 4; 
118 4; 119 21; 120 5; 121 4; 122 3; 
123 8; 124 31; 125 17; 126 43; 127 89; 
128 166; 129 302; 130 47; 131 3; 132 14; 
133 31; 135 19; 136 26; 137 23; 138 20; 
139 17; 140 177; 141 49; 142 9; 143 3; 
144 20; 145 148; 147 130; 148 21; 149 39; 
150 38; 151 37; 152 23; 153 6; 154 11; 
155 28; 156 12; 157 4; 159 10; 160 87; 
161 17; 162 79; 163 29; 164 48; 165 22; 
166 8; 167 2; 168 2; 169 2; 170 4; 
171 47; 172 36; 173 41; 174 47; 175 43; 
176 58; 177 169; 178 33; 179 11; 180 3; 
181 5; 182 10; 183 7; 184 8; 185 12; 
186 19; 187 21; 188 27; 189 40; 190 16; 
191 16; 192 4; 193 2; 195 4; 196 13; 
197 6; 198 26; 199 16; 200 37; 201 61; 
202 79; 203 133; 204 55; 205 13; 206 3; 
208 1; 209 1; 210 8; 211 30; 212 35; 
213 42; 214 27; 215 33; 216 14; 217 13; 
218 4; 219 3; 220 7; 222 8; 223 53; 
224 21; 225 46; 226 18; 227 38; 228 54; 
229 285; 230 165; 231 50; 232 3; 233 5; 
234 3; 235 6; 236 18; 237 30; 238 117; 
239 48; 240 45; 241 21; 242 14; 243 2; 
244 2; 245 3; 247 188; 248 64; 249 129; 
250 66; 251 35; 252 19; 253 11; 254 12; 
256 168; 257 24; 258 10; 259 7; 260 5; 
261 4; 263 240; 264 217; 265 229; 266 110; 
267 74; 268 24; 269 6; 271 7; 272 25; 
273 17; 274 31; 275 13; 276 6; 277 3; 
278 6; 279 1; 280 6; 281 7; 282 5; 
283 4; 284 3; 285 1; 286 3; 287 3; 
288 1; 289 3; 290 18; 291 35; 292 221; 
293 85; 294 95; 295 24; 296 4; 297 6; 
299 134; 300 240; 301 135; 302 141; 303 47; 
304 32; 305 7; 306 5; 307 2; 308 4; 
309 7; 310 4; 311 4; 312 1; 313 1; 
315 1; 316 4; 324 1; 326 7; 327 56; 
328 327; 329 118; 330 209; 331 55; 332 40; 
333 9; 334 2; 338 1; 340 9; 341 1; 
342 4; 343 6; 344 2; 345 7; 346 3; 
347 9; 349 3; 353 2; 354 1; 356 6; 
357 4; 358 12; 359 2; 365 3; 366 3; 
367 5; 368 4; 369 3; 370 1; 372 1; 
374 240; 375 39; 376 151; 377 28; 378 34; 
379 9; 380 4; 384 3; 385 2; 387 2; 
389 2; 391 115; 392 41; 393 83; 394 20; 
395 13; 396 2; 398 1; 400 7; 401 6; 
402 6; 403 1; 404 2; 405 1; 406 2; 
407 1; 409 3; 412 5; 413 2; 414 2; 
415 1; 417 2; 419 150; 420 51; 421 58; 
422 18; 423 4; 424 2; 426 158; 427 167; 
428 116; 429 130; 430 41; 431 26; 432 4; 
433 3; 435 3; 436 5; 437 2; 438 5; 
439 3; 441 4; 442 4; 443 4; 444 3; 
445 3; 452 2; 454 648; 455 999; 456 594; 
457 621; 458 191; 459 119; 460 20; 461 1; 
462 2; 468 2; 471 187; 472 129; 473 139; 
474 79; 475 31; 476 17; 477 2; 478 2; 
480 1; 481 1; 482 1; 484 3; 485 1; 
486 3; 496 4; 497 2; 499 1; 500 1; 
501 1; 512 3; 513 1; 514 3; 515 1; 
516 2; 525 7; 527 11; 528 1; 529 2; 
530 4; 539 1; 540 1; 556 86; 557 30; 
558 52; 559 18; 560 13; 561 4; 
