Name: 4-Methyl-N-Methylbuphedrone
Synon: 4-Methyl-.alpha.-methylaminobutiophenone
Synon: 2-(dimethylamino)-1-(p-tolyl)butan-1-one
InChIKey: UKVFBTRCNFUOFU-UHFFFAOYSA-N
Formula: C13H19NO
MW: 205
ExactMass: 205.146665
CASNO: 0
ID: 3173
Comment: Provided by www.caymanchem.com/app/template/landing%2CForensic.vm / Item #11667  Lot #0438612
Num Peaks: 72
40 2; 41 15; 42 61; 43 11; 44 21; 
45 1; 50 4; 51 7; 52 2; 53 2; 
54 2; 55 6; 56 36; 57 3; 58 15; 
62 4; 63 16; 64 5; 65 59; 66 4; 
68 7; 69 5; 70 33; 71 112; 72 6; 
74 1; 75 1; 76 1; 77 5; 78 2; 
79 1; 82 1; 84 31; 86 999; 87 62; 
88 2; 89 21; 90 11; 91 96; 92 8; 
102 1; 103 3; 105 8; 106 1; 115 5; 
116 2; 117 3; 119 42; 120 4; 127 1; 
128 2; 129 1; 130 1; 131 2; 132 2; 
133 1; 144 1; 145 2; 146 2; 147 3; 
148 6; 158 1; 160 5; 161 3; 162 1; 
174 7; 175 1; 176 9; 177 1; 188 1; 
203 1; 205 1; 
