Name: JWH-387
Synon: 1-pentyl-3-(4-bromo-1-naphthoyl)indole
InChIKey: GRWSWDKSCZKGSY-UHFFFAOYSA-N
Formula: C24H22BrNO
MW: 419
ExactMass: 419.088476
CASNO: 207227494
ID: 3177
Comment: ForensicDB entry 3131
Num Peaks: 278
40 2; 41 99; 42 10; 43 194; 44 3; 
50 5; 51 13; 52 5; 53 7; 55 28; 
56 1; 62 7; 63 18; 64 3; 65 4; 
67 1; 69 6; 71 4; 73 7; 74 17; 
75 31; 76 37; 77 26; 78 9; 79 5; 
80 6; 81 5; 82 7; 86 4; 87 16; 
88 21; 89 60; 90 7; 91 1; 93 1; 
94 4; 95 1; 97 1; 98 5; 99 14; 
100 18; 101 38; 102 75; 103 30; 104 4; 
105 1; 106 9; 107 12; 108 1; 111 1; 
112 11; 113 48; 114 33; 115 79; 116 134; 
117 45; 118 8; 119 8; 120 10; 121 21; 
124 2; 125 35; 126 439; 127 162; 128 115; 
129 80; 130 97; 131 16; 132 15; 133 9; 
134 9; 135 15; 136 1; 137 1; 138 3; 
139 11; 140 11; 141 6; 142 130; 143 34; 
144 462; 145 50; 146 5; 147 2; 148 5; 
149 27; 150 9; 151 4; 152 4; 153 32; 
154 29; 155 19; 156 20; 157 9; 158 14; 
161 5; 162 5; 163 10; 164 4; 165 2; 
166 4; 167 11; 168 10; 169 3; 170 39; 
171 7; 172 1; 174 7; 175 5; 176 4; 
177 3; 178 3; 179 1; 180 5; 181 10; 
182 12; 183 1; 184 9; 185 6; 186 60; 
187 27; 188 11; 189 8; 190 2; 192 1; 
193 2; 195 1; 196 1; 198 4; 199 2; 
200 9; 201 5; 202 4; 203 1; 204 4; 
205 146; 206 25; 207 143; 208 21; 209 3; 
210 12; 211 26; 212 27; 213 116; 214 999; 
215 180; 216 17; 217 7; 219 14; 221 6; 
222 3; 223 5; 224 20; 225 16; 226 47; 
227 19; 228 11; 229 4; 233 181; 234 27; 
235 179; 236 25; 237 6; 238 36; 239 29; 
240 151; 241 174; 242 48; 243 9; 245 81; 
246 10; 247 82; 248 12; 249 4; 250 3; 
251 17; 252 24; 253 55; 254 195; 255 74; 
256 18; 257 2; 264 5; 265 11; 266 17; 
267 17; 268 36; 269 222; 270 91; 271 16; 
278 2; 279 1; 280 4; 281 10; 282 37; 
283 70; 284 43; 285 11; 292 1; 293 2; 
294 5; 295 5; 296 3; 297 3; 298 1; 
311 2; 312 2; 317 1; 318 1; 319 9; 
320 7; 321 10; 322 19; 323 11; 324 10; 
325 4; 327 3; 331 2; 332 37; 333 18; 
334 76; 335 22; 336 38; 337 9; 338 1; 
339 4; 340 117; 341 46; 342 10; 343 2; 
344 8; 345 20; 346 30; 347 36; 348 112; 
349 41; 350 93; 351 24; 352 6; 355 1; 
356 1; 358 8; 359 1; 360 16; 361 10; 
362 464; 363 124; 364 446; 365 112; 366 15; 
372 2; 374 5; 376 11; 377 1; 378 7; 
388 2; 390 11; 391 9; 392 12; 393 8; 
400 15; 401 8; 402 330; 403 93; 404 321; 
405 86; 406 19; 407 1; 415 1; 416 1; 
417 4; 418 271; 419 822; 420 462; 421 825; 
422 207; 423 27; 424 1; 
