Name: 1-Phenyl-1-propanamine
Synon: .alpha.-Ethylbenzylamine
InChIKey: AQFLVLHRZFLDDV-UHFFFAOYSA-N
Formula: C9H13N
MW: 135
ExactMass: 135.104799
CASNO: 2941200
ID: 3179
Comment: ENFSI / impurity in amphetamine originating from phenyl-1-propanone; also Microgram, Vol.XXVIII,No.1, 12:26 (1995)
Num Peaks: 59
37 1; 38 3; 39 19; 40 2; 41 14; 
42 10; 43 3; 44 32; 45 1; 49 1; 
50 19; 51 49; 52 20; 53 18; 54 7; 
55 1; 56 19; 57 4; 58 19; 60 1; 
61 1; 62 4; 63 11; 64 3; 65 14; 
66 2; 67 1; 74 5; 75 4; 76 7; 
77 119; 78 33; 79 219; 80 16; 83 1; 
85 1; 86 1; 87 1; 89 7; 90 3; 
91 39; 92 6; 93 2; 102 3; 103 8; 
104 59; 106 999; 107 85; 108 3; 115 18; 
116 4; 117 14; 118 11; 119 4; 120 3; 
130 1; 132 3; 134 9; 135 1; 
