Name: Thienoamphetamine TFA Derivative
Synon: N-Trifluoroacetyl-Thienoamphetamine
InChIKey: LNTFRQJYFKWNJM-UHFFFAOYSA-N
Formula: C9H10F3NOS
MW: 237
ExactMass: 237.04352
CASNO: 0
ID: 3181
Comment: ENFSI / ICP Prague, Czech Republic
Num Peaks: 104
26 1; 27 12; 28 38; 29 1; 31 1; 
32 1; 37 1; 38 6; 39 36; 40 4; 
41 15; 42 22; 43 11; 44 14; 45 106; 
46 4; 47 28; 50 10; 51 16; 52 6; 
53 56; 54 4; 55 1; 56 1; 57 7; 
58 15; 59 4; 60 1; 61 2; 62 5; 
63 16; 64 3; 65 13; 66 17; 67 1; 
68 1; 69 144; 70 49; 71 15; 72 2; 
73 1; 74 4; 75 1; 76 1; 77 11; 
78 11; 79 14; 80 4; 81 4; 82 6; 
83 2; 84 11; 85 5; 86 1; 89 1; 
90 3; 91 22; 92 49; 93 28; 94 3; 
95 9; 96 20; 97 753; 98 102; 99 40; 
100 4; 102 1; 104 1; 106 1; 108 3; 
109 10; 110 10; 111 3; 112 1; 113 16; 
114 2; 120 2; 121 8; 122 6; 123 93; 
124 999; 125 147; 126 54; 127 6; 133 1; 
134 1; 135 1; 136 1; 138 2; 139 3; 
140 602; 141 29; 142 1; 147 5; 150 1; 
152 2; 153 1; 155 2; 161 1; 168 2; 
170 2; 198 1; 222 1; 237 2; 
