Name: 4-Methoxypropylamphetamine TFA Derivative
Synon: TFA PMPA
Synon: N-trifluoroacetyl-N-propyl-4-methoxyamphetamine
Synon: N-trifluoroacetyl-4-methoxypropylamphetamine
InChIKey: AFSPXHQOPZCGCC-UHFFFAOYSA-N
Formula: C15H20F3NO2
MW: 303
ExactMass: 303.144613
CASNO: 0
ID: 3182
Comment: ENFSI / ISA Warsaw, Poland/ In-house synthesis
Num Peaks: 114
40 5; 41 102; 42 23; 43 232; 44 13; 
45 13; 47 4; 50 5; 51 18; 52 13; 
53 9; 54 5; 55 9; 56 55; 57 5; 
58 1; 62 1; 63 11; 64 6; 65 25; 
66 5; 67 2; 68 2; 69 38; 70 33; 
71 2; 74 2; 75 2; 76 4; 77 78; 
78 80; 79 18; 80 2; 81 1; 82 1; 
84 8; 85 1; 86 1; 89 18; 90 13; 
91 79; 92 20; 93 11; 94 5; 96 4; 
97 4; 98 1; 101 1; 102 4; 103 14; 
104 7; 105 15; 106 11; 107 9; 108 6; 
109 5; 110 2; 112 2; 113 5; 114 1; 
115 23; 116 8; 117 25; 118 5; 119 12; 
120 4; 121 667; 122 83; 123 6; 126 7; 
127 1; 130 1; 131 6; 132 6; 133 21; 
134 11; 135 3; 137 7; 138 1; 139 1; 
140 806; 141 37; 142 2; 145 1; 146 4; 
147 64; 148 999; 149 154; 150 13; 152 1; 
154 1; 160 1; 161 5; 162 2; 163 2; 
166 1; 176 2; 179 1; 180 1; 181 1; 
182 979; 183 76; 184 4; 190 1; 191 1; 
204 1; 205 2; 206 1; 216 2; 236 1; 
245 1; 274 1; 303 11; 304 2; 
