Name: JWH-412
Synon: 1-Pentyl-3-(4-fluoro-1-naphthoyl)indole
InChIKey: HDWMKVHXWFNFQW-UHFFFAOYSA-N
Formula: C24H22FNO
MW: 359
ExactMass: 359.168543
CASNO: 0
ID: 3183
Comment: ENFSI / Uniklinik Freiburg, Germany; confirmed by NMR
Num Peaks: 264
50 4; 51 9; 52 3; 53 7; 54 2; 
55 31; 56 2; 57 1; 61 1; 62 5; 
63 12; 64 2; 65 4; 67 1; 68 1; 
69 4; 70 2; 71 7; 72 1; 73 5; 
74 8; 75 35; 76 19; 77 18; 78 7; 
79 1; 81 2; 86 2; 87 6; 88 13; 
89 46; 90 7; 91 2; 92 1; 93 3; 
94 6; 95 6; 96 1; 97 1; 98 4; 
99 26; 100 5; 101 32; 102 84; 103 29; 
104 5; 105 3; 106 3; 107 2; 109 1; 
110 4; 111 1; 112 2; 113 4; 114 17; 
115 62; 116 103; 117 39; 118 9; 119 5; 
120 4; 121 2; 122 9; 123 7; 124 3; 
125 172; 126 28; 127 13; 128 88; 129 81; 
130 77; 131 10; 132 9; 133 5; 134 1; 
135 3; 136 17; 137 18; 138 13; 139 2; 
140 3; 141 4; 142 5; 143 31; 144 330; 
145 528; 146 75; 147 7; 148 1; 149 2; 
151 28; 153 1; 154 9; 155 4; 156 17; 
157 21; 158 12; 159 21; 160 3; 161 1; 
162 1; 163 2; 165 1; 166 1; 167 2; 
168 6; 169 6; 170 24; 171 6; 172 7; 
173 408; 174 53; 175 4; 176 1; 177 1; 
180 7; 181 8; 182 5; 183 4; 184 7; 
185 92; 186 55; 187 11; 188 2; 189 1; 
191 1; 192 2; 193 2; 194 5; 195 2; 
196 1; 197 1; 198 2; 199 3; 200 3; 
202 1; 203 1; 204 3; 205 13; 206 9; 
207 20; 208 5; 209 2; 210 1; 211 6; 
212 7; 213 13; 214 414; 215 65; 216 6; 
217 2; 218 7; 219 4; 220 7; 221 2; 
222 1; 223 1; 224 5; 225 2; 226 7; 
227 4; 228 2; 229 7; 230 7; 231 69; 
232 49; 233 74; 234 15; 235 3; 236 1; 
237 1; 238 8; 239 5; 240 20; 241 9; 
242 8; 243 7; 244 33; 245 16; 246 16; 
247 6; 248 2; 249 1; 250 1; 251 3; 
252 3; 253 8; 254 33; 255 11; 256 13; 
257 18; 258 79; 259 215; 260 106; 261 29; 
262 5; 263 1; 264 1; 265 1; 266 1; 
267 1; 268 2; 269 12; 270 14; 271 25; 
272 133; 273 62; 274 80; 275 17; 276 2; 
281 4; 282 6; 283 9; 284 31; 285 40; 
286 43; 287 89; 288 357; 289 77; 290 14; 
291 2; 296 2; 297 1; 298 10; 299 5; 
300 25; 301 21; 302 650; 303 163; 304 18; 
305 1; 310 1; 311 1; 312 6; 313 2; 
314 5; 315 2; 316 11; 317 3; 325 1; 
326 1; 327 1; 328 2; 329 2; 330 15; 
331 13; 332 3; 333 1; 339 1; 340 23; 
341 11; 342 366; 343 96; 344 24; 345 4; 
346 1; 355 1; 356 1; 357 2; 358 333; 
359 999; 360 249; 361 33; 362 2; 
