Name: JWH-022
Synon: 1-(4-Pentene-yl)-3-(1-naphtoyl)indole
Synon: Naphtalen-1-yl(2-(pent-4-enyl)-1H-indol-3-yl)methanone
Synon: AM2201 N-(4-pentenyl) analog
InChIKey: IVVCMEGHVSDGFJ-UHFFFAOYSA-N
Formula: C24H21NO
MW: 339
ExactMass: 339.162313
CASNO: 209414164
ID: 3184
Comment: ENFSI / NFP United Kingdom / SWGDRUG Monograph available
Num Peaks: 236
41 118; 42 2; 43 3; 49 1; 50 3; 
51 8; 52 3; 53 6; 54 2; 55 4; 
59 1; 61 1; 62 3; 63 9; 64 2; 
65 5; 67 6; 68 1; 69 13; 70 2; 
73 7; 74 7; 75 23; 76 15; 77 43; 
78 4; 79 2; 83 2; 85 1; 86 1; 
87 3; 88 9; 89 29; 90 4; 91 1; 
94 3; 96 1; 97 1; 98 1; 99 2; 
100 5; 101 34; 102 35; 103 12; 107 5; 
109 1; 111 1; 112 4; 113 18; 114 17; 
115 46; 116 68; 117 15; 118 2; 119 2; 
121 15; 122 1; 125 7; 126 76; 127 398; 
128 104; 129 39; 130 69; 131 8; 133 5; 
134 7; 135 10; 136 3; 137 1; 138 1; 
139 12; 140 7; 141 73; 143 36; 144 143; 
145 13; 146 2; 147 5; 148 3; 150 5; 
151 7; 152 5; 153 4; 155 501; 156 71; 
157 9; 158 15; 159 2; 160 2; 161 1; 
162 2; 163 6; 164 4; 165 6; 167 58; 
168 14; 169 4; 170 40; 171 6; 172 1; 
174 2; 175 2; 176 4; 178 1; 179 1; 
180 4; 181 3; 182 8; 183 6; 184 111; 
185 16; 186 5; 187 8; 188 5; 189 12; 
190 2; 191 3; 192 1; 193 2; 195 3; 
196 2; 197 4; 198 7; 199 3; 200 5; 
201 2; 202 6; 203 2; 204 1; 205 1; 
207 18; 208 2; 209 9; 210 4; 211 12; 
212 308; 213 106; 214 47; 215 33; 216 9; 
217 1; 218 2; 221 2; 222 4; 223 1; 
224 8; 225 7; 226 21; 227 14; 228 15; 
229 5; 230 1; 237 3; 238 11; 239 16; 
240 58; 241 103; 242 40; 243 10; 244 2; 
245 1; 249 1; 251 9; 252 9; 253 42; 
254 114; 255 62; 256 68; 257 14; 258 3; 
259 1; 264 3; 265 5; 266 30; 267 38; 
268 66; 269 97; 270 149; 271 30; 272 3; 
273 1; 277 1; 278 4; 279 2; 280 30; 
281 28; 282 62; 283 60; 284 394; 285 132; 
286 23; 287 2; 291 2; 292 2; 293 2; 
294 8; 295 5; 296 177; 297 50; 298 21; 
299 6; 305 1; 306 2; 307 1; 308 19; 
309 16; 310 36; 311 10; 312 3; 313 3; 
314 1; 316 1; 318 1; 319 1; 320 11; 
322 183; 323 60; 324 20; 325 7; 326 3; 
327 12; 329 5; 330 1; 331 7; 332 1; 
333 2; 336 3; 337 3; 338 320; 339 999; 
340 249; 341 62; 342 16; 343 11; 344 3; 
345 1; 
