Name: Camfetamine
Synon: N-methyl-2-phenylbicyclo[2.2.1]heptan-3-amine
InChIKey: CTVMYAZECFXZLN-UHFFFAOYSA-N
Formula: C14H19N
MW: 201
ExactMass: 201.15175
CASNO: 92499199
ID: 3186
Comment: ENFSI / LNPS Lyon, France
Num Peaks: 134
30 26; 32 4; 38 3; 39 57; 40 10; 
41 66; 42 187; 43 15; 44 214; 45 6; 
50 11; 51 43; 52 14; 53 25; 54 16; 
55 19; 56 28; 57 98; 58 9; 59 3; 
61 1; 62 6; 63 29; 64 8; 65 71; 
66 15; 67 71; 68 71; 69 14; 70 392; 
71 47; 72 2; 74 5; 75 9; 76 13; 
77 87; 78 40; 79 38; 80 18; 81 12; 
82 54; 83 75; 84 691; 85 40; 86 5; 
87 6; 88 3; 89 38; 90 19; 91 302; 
92 41; 93 8; 94 18; 95 10; 96 88; 
97 14; 98 2; 99 1; 101 4; 102 27; 
103 40; 104 57; 105 22; 106 7; 107 3; 
108 16; 109 122; 110 167; 111 12; 113 2; 
114 3; 115 175; 116 66; 117 106; 118 44; 
119 31; 120 12; 121 1; 122 5; 123 15; 
124 17; 125 1; 126 5; 127 29; 128 89; 
129 72; 130 57; 131 32; 132 76; 133 116; 
134 40; 135 6; 139 6; 140 2; 141 64; 
142 79; 143 48; 144 56; 145 14; 146 107; 
147 16; 148 1; 151 2; 152 10; 153 11; 
154 9; 155 26; 156 19; 157 15; 158 147; 
159 25; 160 20; 161 2; 165 4; 166 1; 
167 4; 168 2; 169 12; 170 128; 171 22; 
172 341; 173 195; 174 22; 175 1; 184 2; 
185 1; 186 49; 187 7; 198 2; 199 3; 
200 82; 201 999; 202 165; 203 11; 
