Name: 4-Methoxypropylamphetamine
Synon: PMPA
Synon: N-Propyl-4-methoxyamphetamine
InChIKey: JWELTLIBENGORQ-UHFFFAOYSA-N
Formula: C13H21NO
MW: 207
ExactMass: 207.162314
CASNO: 0
ID: 3205
Comment: ENFSI / ISA Warsaw, Poland/ In-house synthesis
Num Peaks: 76
41 28; 42 14; 43 29; 44 207; 45 5; 
50 2; 51 9; 52 7; 53 4; 54 2; 
55 2; 56 21; 57 10; 58 5; 62 1; 
63 5; 64 2; 65 11; 66 1; 67 1; 
68 1; 70 12; 71 1; 75 1; 76 1; 
77 30; 78 31; 79 8; 80 1; 84 8; 
85 2; 86 999; 87 61; 88 1; 89 11; 
90 4; 91 28; 92 4; 93 1; 94 2; 
102 1; 103 5; 104 2; 105 4; 106 4; 
107 5; 108 3; 109 2; 115 7; 116 2; 
117 5; 118 3; 119 4; 120 1; 121 95; 
122 15; 123 1; 130 1; 131 2; 132 2; 
133 3; 134 5; 135 3; 146 1; 147 4; 
148 4; 149 25; 150 3; 162 1; 164 1; 
176 1; 178 3; 192 6; 193 1; 206 4; 
207 1; 
