Name: JWH-180
Synon: (1-propyl-1H-indol-3-yl)(4-propyl-1-naphthalenyl)methanone
InChIKey: BMOMWXXAVVSIRU-UHFFFAOYSA-N
Formula: C25H25NO
MW: 355
ExactMass: 355.193615
CASNO: 824959877
ID: 3216
Comment: DEA SFL1 / Cayman lot 0436603-7
Num Peaks: 228
29 29; 30 1; 38 1; 39 17; 40 2; 
41 111; 42 7; 43 138; 44 5; 50 2; 
51 8; 52 2; 53 2; 58 1; 62 3; 
63 12; 64 2; 65 5; 74 3; 75 10; 
76 10; 77 19; 78 5; 79 1; 86 1; 
87 5; 88 11; 89 71; 90 10; 91 7; 
94 2; 98 1; 99 2; 100 4; 101 27; 
102 49; 103 18; 104 4; 105 1; 107 5; 
108 3; 112 2; 113 23; 114 28; 115 90; 
116 199; 117 34; 118 6; 119 13; 121 18; 
125 5; 126 29; 127 73; 128 111; 129 88; 
130 46; 131 5; 132 12; 134 38; 137 3; 
138 6; 139 239; 140 162; 141 152; 142 31; 
143 25; 144 476; 145 57; 146 11; 147 2; 
149 93; 150 10; 151 32; 152 114; 153 75; 
154 41; 155 13; 156 18; 157 12; 158 10; 
159 4; 160 1; 161 1; 163 14; 164 12; 
165 59; 166 17; 167 32; 168 18; 169 7; 
170 10; 171 1; 172 1; 174 1; 175 2; 
176 5; 177 3; 178 4; 179 4; 180 8; 
181 28; 182 4; 183 6; 184 10; 185 3; 
186 712; 187 100; 188 11; 189 9; 190 3; 
191 2; 192 1; 193 2; 194 2; 195 18; 
196 6; 197 87; 198 15; 199 3; 200 10; 
201 8; 202 15; 203 4; 204 1; 205 1; 
207 5; 208 1; 209 189; 210 31; 211 6; 
212 3; 213 18; 214 14; 215 17; 216 7; 
217 4; 218 1; 222 1; 223 5; 224 11; 
225 12; 226 63; 227 34; 228 37; 229 14; 
230 7; 231 1; 236 1; 237 8; 238 9; 
239 30; 240 39; 241 82; 242 32; 243 8; 
244 1; 249 1; 250 5; 251 14; 252 26; 
253 49; 254 246; 255 97; 256 53; 257 11; 
258 1; 262 1; 263 3; 264 9; 265 14; 
266 39; 267 68; 268 88; 269 85; 270 145; 
271 28; 272 3; 277 3; 278 12; 279 8; 
280 26; 281 14; 282 57; 283 102; 284 45; 
285 9; 286 1; 290 1; 291 2; 292 3; 
293 3; 294 36; 295 15; 296 44; 297 33; 
298 273; 299 66; 300 7; 307 1; 308 11; 
309 30; 310 14; 311 12; 312 418; 313 104; 
314 14; 315 1; 322 4; 323 3; 324 8; 
325 19; 326 458; 327 126; 328 18; 329 2; 
336 25; 337 9; 338 615; 339 178; 340 31; 
341 5; 352 2; 353 3; 354 472; 355 999; 
356 264; 357 36; 358 3; 
