Name: 4-Methoxypropylamphetamine PFP Derivative
Synon: N-Pentafluoropropionyl-N-propyl-4-methoxyamphetamine
Synon: N-Pentafluoropropionyl-4-methoxypropylamphetamine
Synon: PMPA PFP Derivative
InChIKey: BECWOVKRFYSYSV-UHFFFAOYSA-N
Formula: C16H20F5NO2
MW: 353
ExactMass: 353.14142
CASNO: 0
ID: 3225
Comment: ENFSI / ISA Warsaw, Poland/ In-house synthesis
Num Peaks: 116
41 99; 42 25; 43 277; 44 17; 45 20; 
47 2; 50 5; 51 16; 52 12; 53 7; 
54 5; 55 8; 56 62; 57 7; 58 1; 
59 1; 62 1; 63 9; 64 5; 65 21; 
66 4; 67 3; 68 3; 69 15; 70 19; 
71 1; 74 1; 75 1; 76 3; 77 74; 
78 74; 79 19; 80 2; 81 1; 82 1; 
84 9; 85 1; 86 1; 89 18; 90 13; 
91 75; 92 19; 93 5; 94 5; 95 1; 
96 1; 98 1; 100 2; 101 1; 102 3; 
103 14; 104 6; 105 13; 106 10; 107 9; 
108 6; 109 8; 112 3; 115 23; 116 9; 
117 23; 118 5; 119 70; 120 4; 121 624; 
122 75; 123 5; 128 2; 129 1; 130 2; 
131 5; 132 6; 133 20; 134 12; 135 3; 
142 5; 143 4; 144 1; 145 1; 146 8; 
147 67; 148 994; 149 210; 150 18; 151 1; 
160 3; 161 5; 162 10; 163 5; 164 1; 
172 7; 173 1; 174 1; 176 9; 184 1; 
188 1; 189 1; 190 907; 191 54; 192 3; 
202 1; 204 2; 205 1; 206 1; 207 1; 
216 2; 218 2; 230 1; 231 1; 232 999; 
233 91; 234 6; 295 1; 324 1; 353 10; 
354 2; 
