Name: JWH-082
Synon: 1-hexyl-3-(4-methoxy-1-naphthoyl)indole
InChIKey: MDSOBORAMUELLW-UHFFFAOYSA-N
Formula: C26H27NO2
MW: 385
ExactMass: 385.20418
CASNO: 0
ID: 3233
Comment: ForensicDB Entry 3115
Num Peaks: 237
41 64; 42 1; 43 135; 44 7; 50 1; 
51 3; 52 1; 53 3; 55 18; 56 2; 
57 12; 62 2; 63 7; 64 2; 65 2; 
67 1; 69 1; 73 2; 74 2; 75 7; 
76 8; 77 11; 78 4; 79 1; 83 1; 
85 1; 86 1; 87 4; 88 19; 89 24; 
90 4; 91 1; 94 1; 95 5; 96 1; 
98 1; 99 1; 100 5; 101 18; 102 35; 
103 12; 104 2; 105 1; 107 15; 108 3; 
109 8; 113 25; 114 134; 115 52; 116 64; 
117 14; 118 2; 121 30; 125 3; 126 24; 
127 82; 128 75; 129 50; 130 31; 131 6; 
132 7; 133 2; 134 1; 135 2; 136 19; 
138 1; 139 5; 140 4; 142 61; 143 30; 
144 226; 145 23; 146 2; 147 1; 150 20; 
152 3; 153 3; 154 8; 155 10; 157 127; 
158 30; 159 4; 161 1; 162 1; 163 3; 
164 2; 165 1; 166 1; 167 3; 168 3; 
169 9; 170 24; 171 26; 172 5; 174 3; 
175 3; 176 5; 177 2; 179 6; 180 1; 
182 4; 183 15; 184 16; 185 339; 186 46; 
187 9; 188 4; 189 6; 190 2; 191 1; 
193 23; 195 1; 197 161; 198 30; 199 7; 
200 40; 201 29; 202 40; 203 13; 204 3; 
205 1; 207 8; 208 2; 209 1; 210 2; 
211 7; 212 4; 213 18; 214 14; 215 17; 
216 6; 217 5; 218 1; 224 2; 225 4; 
226 15; 227 26; 228 394; 229 86; 230 36; 
231 8; 232 1; 238 4; 239 5; 240 34; 
241 96; 242 47; 243 18; 244 7; 245 2; 
251 2; 252 3; 253 7; 254 42; 255 20; 
256 40; 257 55; 258 22; 259 4; 260 1; 
265 1; 266 3; 267 3; 268 6; 269 32; 
270 64; 271 34; 272 29; 273 7; 274 2; 
280 1; 281 7; 282 25; 283 22; 284 47; 
285 103; 286 59; 287 14; 288 5; 289 1; 
293 1; 294 2; 295 2; 296 10; 297 17; 
298 48; 299 40; 300 150; 301 37; 302 13; 
303 2; 308 1; 309 1; 310 7; 311 5; 
312 12; 314 480; 315 122; 316 17; 317 1; 
324 4; 325 4; 326 5; 327 2; 328 22; 
329 6; 330 1; 336 8; 337 2; 338 1; 
339 1; 340 4; 341 4; 342 47; 343 12; 
344 2; 352 3; 353 8; 354 53; 355 16; 
356 16; 357 14; 358 4; 366 24; 367 2; 
368 465; 369 144; 370 180; 371 47; 372 7; 
382 1; 383 1; 384 419; 385 999; 386 275; 
387 41; 388 4; 
