Name: JWH-080
Synon: 1-butyl-3-(4-methoxy-1-naphthoyl)indole
InChIKey: PGOAKRPGOLHODL-UHFFFAOYSA-N
Formula: C24H23NO2
MW: 357
ExactMass: 357.172878
CASNO: 0
ID: 3234
Comment: ForensicDB Entry 3114
Num Peaks: 230
41 55; 42 2; 43 2; 44 1; 50 2; 
51 5; 52 2; 53 2; 55 8; 56 1; 
57 23; 58 1; 62 4; 63 11; 64 3; 
65 2; 73 4; 74 4; 75 11; 76 10; 
77 13; 78 4; 79 1; 81 1; 82 1; 
86 2; 87 7; 88 26; 89 34; 90 5; 
91 2; 94 5; 95 3; 96 1; 98 1; 
99 2; 100 7; 101 22; 102 34; 103 11; 
104 2; 105 1; 106 2; 107 16; 108 11; 
109 4; 112 2; 113 31; 114 144; 115 52; 
116 82; 117 14; 118 2; 119 2; 120 4; 
121 31; 122 3; 123 1; 125 4; 126 26; 
127 76; 128 68; 129 43; 130 23; 131 4; 
132 5; 133 1; 134 2; 135 9; 136 18; 
137 1; 138 1; 139 5; 140 4; 141 2; 
142 54; 143 32; 144 236; 145 24; 146 2; 
147 1; 148 1; 149 2; 150 20; 151 5; 
152 3; 153 3; 154 6; 155 8; 157 97; 
158 22; 159 5; 160 2; 161 2; 162 1; 
163 4; 165 8; 166 2; 167 3; 168 2; 
169 9; 170 17; 171 23; 172 13; 173 3; 
174 4; 175 5; 176 7; 177 2; 179 20; 
182 3; 183 12; 184 10; 185 200; 186 29; 
187 8; 188 4; 189 7; 190 3; 191 2; 
193 1; 195 1; 197 168; 198 33; 199 9; 
200 396; 201 86; 202 52; 203 16; 204 5; 
205 1; 207 9; 208 3; 209 1; 210 1; 
211 9; 212 4; 213 20; 214 14; 215 16; 
216 6; 217 5; 218 1; 224 2; 225 4; 
226 11; 227 27; 228 80; 229 34; 230 35; 
231 9; 232 1; 238 6; 239 5; 240 34; 
241 92; 242 44; 243 17; 244 7; 245 2; 
249 1; 250 1; 251 3; 252 4; 253 7; 
254 40; 255 20; 256 41; 257 52; 258 20; 
259 5; 265 1; 266 2; 267 3; 268 6; 
269 31; 270 58; 271 33; 272 28; 273 6; 
274 1; 280 1; 281 5; 282 25; 283 22; 
284 39; 285 94; 286 58; 287 13; 288 5; 
294 1; 295 2; 296 10; 297 21; 298 44; 
299 42; 300 129; 301 32; 302 7; 308 9; 
309 2; 310 7; 311 4; 312 12; 313 3; 
314 449; 315 110; 316 15; 317 1; 324 4; 
325 13; 326 56; 327 15; 328 23; 329 15; 
330 3; 338 24; 339 7; 340 458; 341 133; 
342 167; 343 40; 344 6; 354 2; 355 3; 
356 434; 357 999; 358 253; 359 34; 360 3; 
