Name: JWH-045
Synon: 1-ethyl-3-(1-naphthoyl)pyrrole
InChIKey: KVBKPNPHCRDMJQ-UHFFFAOYSA-N
Formula: C17H15NO
MW: 249
ExactMass: 249.115364
CASNO: 0
ID: 3235
Comment: ForensicDB Entry 3316
Num Peaks: 142
40 3; 41 10; 42 4; 44 14; 50 13; 
51 34; 52 26; 53 9; 54 4; 55 2; 
56 11; 57 2; 62 6; 63 20; 64 5; 
65 20; 66 105; 67 23; 68 4; 69 1; 
70 3; 73 2; 74 21; 75 39; 76 21; 
77 60; 78 15; 79 19; 80 4; 81 5; 
82 8; 83 3; 84 3; 85 1; 86 7; 
87 15; 88 12; 89 10; 91 1; 92 8; 
93 22; 94 227; 95 17; 96 7; 97 7; 
98 9; 99 9; 100 6; 101 39; 102 16; 
103 1; 106 3; 107 19; 108 3; 109 2; 
110 11; 111 10; 112 1; 113 6; 114 2; 
115 10; 116 1; 117 7; 120 11; 122 914; 
123 77; 124 6; 125 13; 126 100; 127 259; 
128 36; 129 2; 135 1; 137 7; 138 4; 
139 21; 140 6; 141 3; 147 1; 149 2; 
150 12; 151 16; 152 17; 153 7; 154 6; 
155 41; 156 6; 161 2; 162 10; 163 69; 
164 60; 165 133; 166 26; 167 18; 168 3; 
174 3; 175 4; 176 23; 177 13; 178 27; 
179 15; 180 5; 181 2; 187 1; 188 4; 
189 11; 190 33; 191 64; 192 42; 193 32; 
194 43; 195 7; 201 2; 202 8; 203 11; 
204 40; 205 123; 206 118; 207 33; 208 7; 
209 2; 215 1; 216 7; 217 18; 218 8; 
219 67; 220 308; 221 87; 222 12; 230 5; 
231 4; 232 176; 233 58; 234 92; 235 18; 
236 1; 246 5; 247 1; 248 776; 249 999; 
250 167; 251 17; 
