Name: JWH-033
Synon: 1-butyl-3-(1-naphthoyl)pyrrole
InChIKey: XOECPZKGCKIMAA-UHFFFAOYSA-N
Formula: C19H19NO
MW: 277
ExactMass: 277.146664
CASNO: 0
ID: 3236
Comment: ForensicDB Entry 3313
Num Peaks: 168
40 2; 41 69; 42 5; 43 3; 50 8; 
51 26; 52 40; 53 15; 54 5; 55 13; 
56 3; 57 26; 58 1; 62 3; 63 11; 
64 2; 65 15; 66 64; 67 9; 68 2; 
69 2; 70 1; 71 1; 72 17; 73 1; 
74 11; 75 26; 76 17; 77 52; 78 32; 
79 27; 80 16; 81 3; 82 5; 83 2; 
84 13; 85 1; 86 4; 87 9; 88 8; 
89 13; 90 2; 91 3; 92 4; 93 17; 
94 357; 95 22; 96 4; 97 6; 98 5; 
99 6; 100 5; 101 36; 103 27; 104 37; 
105 1; 106 31; 107 16; 108 9; 109 3; 
110 4; 111 3; 112 1; 113 4; 114 2; 
115 8; 117 17; 118 14; 119 1; 120 18; 
121 4; 122 26; 123 3; 124 1; 125 8; 
126 94; 127 400; 128 57; 129 11; 130 1; 
134 3; 135 1; 137 3; 138 4; 139 19; 
140 5; 141 12; 142 2; 148 6; 150 596; 
151 79; 152 23; 153 7; 154 3; 155 255; 
156 32; 157 3; 161 2; 162 7; 163 56; 
164 53; 165 128; 166 24; 167 39; 168 7; 
169 1; 174 2; 175 4; 176 26; 177 14; 
178 33; 179 24; 180 9; 181 5; 182 1; 
187 1; 188 3; 189 12; 190 29; 191 60; 
192 35; 193 23; 194 50; 195 9; 196 1; 
201 2; 202 6; 203 10; 204 55; 205 107; 
206 174; 207 57; 208 12; 209 1; 215 1; 
216 20; 217 24; 218 21; 219 44; 220 340; 
221 72; 222 10; 223 1; 230 3; 231 5; 
232 22; 233 23; 234 281; 235 147; 236 23; 
237 1; 244 1; 246 6; 247 3; 248 51; 
249 17; 250 2; 258 3; 260 121; 261 26; 
262 13; 263 3; 274 3; 276 695; 277 999; 
278 196; 279 20; 280 1; 
