Name: JWH-032
Synon: 1-propyl-3-(1-naphthoyl)pyrrole
InChIKey: ANVCANCAZRKUGF-UHFFFAOYSA-N
Formula: C18H17NO
MW: 263
ExactMass: 263.131014
CASNO: 0
ID: 3237
Comment: ForensicDB Entry 3312
Num Peaks: 134
40 2; 41 63; 42 5; 43 50; 44 3; 
50 10; 51 31; 52 40; 53 10; 54 2; 
55 1; 58 13; 62 3; 63 13; 64 2; 
65 10; 66 79; 67 9; 68 1; 70 5; 
74 10; 75 27; 76 10; 77 58; 78 25; 
79 21; 80 8; 81 1; 82 2; 83 1; 
86 3; 87 6; 88 9; 89 9; 92 1; 
93 2; 94 261; 95 19; 96 2; 98 3; 
99 4; 100 3; 101 39; 102 10; 106 17; 
107 5; 108 6; 109 1; 110 2; 111 1; 
113 2; 114 1; 115 8; 117 10; 120 5; 
122 1; 125 4; 126 85; 127 340; 128 46; 
129 2; 134 6; 136 712; 137 68; 138 5; 
139 12; 140 2; 141 7; 150 6; 151 10; 
152 15; 153 4; 154 2; 155 69; 156 10; 
161 2; 162 5; 163 53; 164 49; 165 130; 
166 21; 167 36; 168 4; 169 1; 174 2; 
175 2; 176 17; 177 9; 178 21; 179 17; 
180 4; 181 1; 188 1; 189 6; 190 25; 
191 60; 192 32; 193 21; 194 30; 195 4; 
201 1; 202 4; 203 7; 204 52; 205 78; 
206 102; 207 35; 208 8; 209 1; 216 9; 
217 17; 218 10; 219 39; 220 252; 221 45; 
222 5; 230 1; 231 2; 232 11; 233 18; 
234 260; 235 77; 236 9; 244 2; 245 1; 
246 124; 247 25; 248 15; 249 2; 260 2; 
262 736; 263 999; 264 186; 265 19; 
