Name: JWH-205
Synon: 1-(2-methyl-1-pentylindol-3-yl)-2-phenylethanone
InChIKey: BVRXLMVNOFBNCJ-UHFFFAOYSA-N
Formula: C22H25NO
MW: 319
ExactMass: 319.193615
CASNO: 0
ID: 3242
Comment: ForensicDB Entry 3809
Num Peaks: 97
41 10; 42 1; 43 18; 44 1; 51 2; 
52 1; 55 3; 63 3; 64 1; 65 12; 
69 1; 73 1; 75 2; 76 2; 77 8; 
78 1; 87 1; 88 1; 89 8; 90 2; 
91 41; 92 4; 101 3; 102 9; 103 17; 
104 3; 111 1; 114 1; 115 26; 116 6; 
117 4; 118 1; 127 3; 128 13; 129 11; 
130 32; 131 3; 140 2; 141 2; 142 10; 
143 16; 144 12; 145 1; 151 1; 154 4; 
155 1; 156 4; 157 15; 158 139; 159 16; 
160 1; 163 1; 167 1; 168 3; 170 4; 
171 6; 172 2; 176 2; 177 1; 178 2; 
179 1; 184 6; 185 2; 189 2; 190 1; 
191 1; 198 4; 199 1; 200 2; 202 1; 
203 1; 204 3; 205 1; 206 1; 207 2; 
212 4; 216 1; 217 4; 218 4; 220 1; 
226 4; 228 999; 229 171; 230 17; 231 2; 
232 1; 234 1; 246 1; 249 1; 262 5; 
263 1; 281 1; 290 1; 303 1; 319 52; 
320 11; 321 1; 
