Name: JWH-197
Synon: 2-methyl-1-pentyl-1H-indol-3-yl-(4-methoxy-1-naphthyl)methane
InChIKey: LQTHQCODNGKGQN-UHFFFAOYSA-N
Formula: C26H29NO
MW: 371
ExactMass: 371.224915
CASNO: 0
ID: 3246
Comment: ForensicDB Entry 3730
Num Peaks: 172
51 1; 53 1; 55 4; 63 1; 65 1; 
69 1; 75 2; 76 2; 77 10; 78 1; 
88 1; 89 3; 90 1; 91 4; 95 1; 
101 8; 102 8; 103 4; 104 1; 105 1; 
106 1; 107 1; 108 2; 113 6; 114 16; 
115 36; 116 6; 117 7; 118 10; 119 2; 
120 2; 121 9; 122 1; 126 4; 127 22; 
128 69; 129 17; 130 11; 131 2; 132 1; 
134 13; 135 9; 136 5; 139 11; 140 5; 
141 9; 142 27; 143 54; 144 101; 145 12; 
149 5; 150 4; 152 5; 153 2; 154 8; 
155 6; 156 40; 157 64; 158 22; 159 2; 
163 1; 165 5; 166 2; 167 6; 168 8; 
169 16; 170 8; 171 165; 172 22; 173 1; 
178 5; 180 4; 181 3; 182 3; 183 3; 
184 7; 186 44; 187 1; 188 2; 189 7; 
190 1; 194 1; 195 1; 197 1; 198 32; 
199 4; 200 9; 201 3; 202 6; 203 1; 
212 3; 213 18; 214 176; 215 52; 216 10; 
217 3; 218 1; 224 2; 225 2; 226 15; 
227 8; 228 10; 229 3; 230 4; 231 2; 
237 1; 238 1; 239 8; 240 9; 241 24; 
242 17; 243 11; 244 5; 245 1; 251 2; 
252 5; 253 11; 254 59; 255 26; 256 27; 
257 9; 258 3; 264 1; 265 3; 266 9; 
267 28; 268 44; 269 25; 270 49; 271 16; 
272 2; 278 1; 280 4; 281 5; 282 24; 
283 22; 284 60; 285 28; 286 9; 287 1; 
296 4; 297 2; 298 16; 299 7; 300 27; 
301 6; 312 4; 313 1; 314 230; 315 56; 
316 6; 324 6; 325 1; 326 3; 327 1; 
328 1; 338 3; 340 108; 341 40; 342 7; 
354 5; 355 2; 356 474; 357 134; 358 15; 
359 1; 369 1; 370 85; 371 999; 372 316; 
373 47; 374 3; 
