Name: JWH-059
Synon: 3-(1-S-methylheptyl)-delta-8-tetrahydrocannabinol
InChIKey: SOOAIMVOTCSILP-DFQSSKMNSA-N
Formula: C24H36O2
MW: 356
ExactMass: 356.27153
CASNO: 0
ID: 3248
Comment: ForensicDB Entry 3725
Num Peaks: 255
40 4; 41 89; 42 10; 43 139; 44 7; 
50 1; 51 4; 52 2; 53 20; 54 3; 
55 62; 56 9; 57 51; 58 2; 59 1; 
63 1; 64 1; 65 15; 66 5; 67 32; 
68 8; 69 42; 70 4; 71 34; 72 2; 
73 2; 75 1; 77 40; 78 9; 79 43; 
80 8; 81 27; 82 3; 83 7; 84 1; 
85 2; 87 2; 88 1; 89 4; 90 2; 
91 72; 92 12; 93 45; 94 10; 95 17; 
96 2; 97 3; 98 1; 99 1; 100 2; 
101 2; 102 3; 103 14; 104 5; 105 47; 
106 10; 107 76; 108 14; 109 26; 110 3; 
111 2; 112 1; 113 3; 114 2; 115 35; 
116 11; 117 18; 118 5; 119 64; 120 13; 
121 48; 122 40; 123 36; 124 4; 125 1; 
127 11; 128 33; 129 22; 130 5; 131 18; 
132 6; 133 29; 134 35; 135 32; 136 9; 
137 35; 138 18; 139 4; 140 1; 141 18; 
142 12; 143 10; 144 9; 145 17; 146 5; 
147 24; 148 5; 149 35; 150 42; 151 19; 
152 17; 153 15; 154 7; 155 12; 156 4; 
157 14; 158 8; 159 19; 160 21; 161 40; 
162 8; 163 29; 164 15; 165 30; 166 14; 
167 8; 168 8; 169 10; 170 6; 171 17; 
172 6; 173 27; 174 26; 175 30; 176 9; 
177 13; 178 15; 179 10; 180 4; 181 12; 
182 7; 183 25; 184 8; 185 14; 186 9; 
187 123; 188 102; 189 66; 190 18; 191 14; 
192 13; 193 7; 194 5; 195 20; 196 6; 
197 11; 198 5; 199 18; 200 11; 201 155; 
202 39; 203 101; 204 44; 205 9; 206 3; 
207 12; 208 3; 209 7; 210 5; 211 17; 
212 5; 213 28; 214 12; 215 33; 216 27; 
217 20; 218 4; 219 3; 220 1; 221 2; 
222 2; 223 5; 224 2; 225 7; 226 3; 
227 24; 228 20; 229 59; 230 13; 231 12; 
232 3; 233 7; 234 4; 235 121; 236 21; 
237 5; 238 1; 239 7; 240 3; 241 9; 
242 3; 243 17; 244 4; 245 9; 246 4; 
247 1; 248 2; 249 7; 251 2; 253 5; 
254 3; 255 9; 256 7; 257 33; 258 18; 
259 10; 260 3; 261 1; 263 1; 267 1; 
269 4; 270 2; 271 138; 272 999; 273 913; 
274 168; 275 41; 276 6; 277 1; 281 2; 
283 1; 285 49; 286 54; 287 62; 288 62; 
289 12; 290 1; 295 4; 297 2; 298 1; 
299 32; 300 154; 301 84; 302 15; 303 1; 
311 2; 313 125; 314 140; 315 31; 316 4; 
325 2; 327 7; 328 3; 337 1; 339 6; 
340 2; 341 45; 342 12; 343 2; 354 2; 
355 6; 356 591; 357 162; 358 23; 359 2; 
