Name: Fluorophenylpropylamine
InChIKey: BWZFVQWUKNCKQL-UHFFFAOYSA-N
Formula: C9H12FN
MW: 153
ExactMass: 153.095378
CASNO: 0
ID: 3251
Comment: DEA SWL / from sample, unconfirmed / unknown location of fluoro on ring
Num Peaks: 80
38 1; 39 9; 40 1; 41 11; 42 9; 
43 2; 44 1; 50 12; 51 20; 52 6; 
53 1; 54 5; 55 1; 56 20; 57 16; 
58 12; 59 2; 61 2; 62 11; 63 8; 
64 1; 65 2; 68 3; 69 7; 70 9; 
71 1; 73 1; 74 8; 75 32; 76 6; 
77 41; 78 5; 80 1; 81 5; 82 1; 
83 11; 84 1; 85 1; 86 1; 87 1; 
89 2; 91 3; 93 2; 94 6; 95 47; 
96 29; 97 179; 98 12; 99 1; 100 1; 
101 6; 102 5; 103 1; 104 4; 105 2; 
107 9; 108 3; 109 39; 110 5; 111 1; 
115 8; 116 1; 117 2; 118 1; 120 2; 
121 5; 122 70; 123 15; 124 999; 125 77; 
126 2; 133 9; 134 2; 135 11; 136 7; 
137 4; 138 1; 150 3; 152 7; 153 1; 
