Name: t-Butylnitrite
Synon: tert-butylnitrite
InChIKey: IOGXOCVLYRDXLW-UHFFFAOYSA-N
Formula: C4H9NO2
MW: 103
ExactMass: 103.0633287
CASNO: 540807
ID: 3258
Comment: ENFSI / NFI/Sigma/Aldrich 6357472
Num Peaks: 35
25 1; 26 15; 27 84; 28 25; 29 126; 
30 999; 31 25; 32 3; 33 2; 37 5; 
38 11; 39 95; 40 15; 41 255; 42 58; 
43 698; 44 18; 45 22; 46 1; 49 1; 
50 6; 51 5; 52 1; 53 9; 54 2; 
55 28; 56 47; 57 465; 58 50; 59 39; 
60 1; 73 3; 88 444; 89 16; 90 2; 
