Name: CB-52
Synon: N-cyclopropyl-11-(2-hydroxy-5-pentylphenoxy)-undecanamide
InChIKey: BHJRHOCTESKVMJ-UHFFFAOYSA-N
Formula: C26H43NO3
MW: 417
ExactMass: 417.324295
CASNO: 869376909
ID: 3263
Comment: Jason Nawyn
Num Peaks: 204
39 14; 40 2; 41 108; 42 16; 43 84; 
44 2; 51 3; 52 2; 53 11; 54 10; 
55 199; 56 122; 57 267; 58 224; 59 11; 
60 1; 63 1; 65 10; 66 9; 67 52; 
68 8; 69 91; 70 34; 71 11; 72 2; 
77 25; 78 6; 79 20; 80 5; 81 60; 
82 8; 83 52; 84 29; 85 10; 86 1; 
89 1; 91 13; 92 2; 93 14; 94 13; 
95 58; 96 5; 97 22; 98 9; 99 17; 
100 2; 101 2; 102 1; 103 4; 104 1; 
105 9; 106 4; 107 56; 108 7; 109 12; 
110 18; 111 22; 112 22; 113 3; 114 1; 
115 3; 117 2; 119 3; 120 4; 121 17; 
122 8; 123 999; 124 95; 125 33; 126 6; 
127 1; 128 1; 131 3; 132 1; 133 3; 
134 3; 135 13; 136 21; 137 79; 138 10; 
139 2; 140 2; 145 3; 146 1; 147 8; 
148 4; 149 81; 150 17; 151 11; 152 3; 
154 2; 161 6; 162 4; 163 64; 164 10; 
165 8; 166 2; 167 10; 168 3; 173 1; 
175 4; 176 3; 177 18; 178 4; 179 4; 
180 2; 181 1; 182 1; 184 2; 187 2; 
189 10; 190 3; 191 9; 192 8; 193 15; 
194 187; 195 36; 196 5; 201 1; 203 3; 
204 1; 205 8; 206 3; 215 1; 216 3; 
217 2; 219 7; 220 2; 222 3; 224 33; 
225 5; 226 3; 231 2; 232 1; 233 12; 
234 8; 235 2; 240 1; 247 8; 248 2; 
250 1; 260 1; 261 388; 262 73; 263 10; 
264 1; 271 6; 272 1; 273 1; 275 5; 
276 3; 277 4; 278 1; 287 1; 288 1; 
289 44; 290 12; 291 8; 292 1; 300 1; 
301 7; 302 2; 303 1; 304 1; 306 1; 
317 2; 318 7; 319 2; 328 3; 329 32; 
330 10; 332 42; 333 11; 334 2; 335 1; 
344 1; 345 1; 346 180; 347 44; 348 8; 
349 1; 357 3; 358 2; 359 4; 360 209; 
361 75; 362 13; 363 1; 371 1; 372 1; 
374 12; 375 3; 388 15; 389 4; 399 9; 
400 4; 401 1; 403 1; 415 1; 416 3; 
417 517; 418 148; 419 25; 420 3; 
