Name: JWH-167
Synon: 1-(1-pentylindol-3-yl)-2-phenylethanone
InChIKey: AMCPOEOUXQWESI-UHFFFAOYSA-N
Formula: C21H23NO
MW: 305
ExactMass: 305.177965
CASNO: 864445374
ID: 3265
Comment: ForensicDB Entry 3808
Num Peaks: 94
41 18; 42 1; 43 26; 44 1; 50 1; 
51 4; 52 1; 53 1; 55 4; 62 2; 
63 7; 64 2; 65 20; 66 1; 69 1; 
71 1; 74 1; 75 5; 76 5; 77 6; 
78 2; 87 1; 88 6; 89 25; 90 5; 
91 65; 92 5; 101 9; 102 24; 103 10; 
105 2; 113 1; 114 7; 115 27; 116 56; 
117 7; 118 1; 127 2; 128 20; 129 35; 
130 24; 131 2; 139 1; 140 1; 141 1; 
142 2; 143 25; 144 187; 145 19; 146 1; 
150 1; 151 1; 152 2; 154 3; 155 1; 
156 5; 157 8; 158 5; 165 1; 167 1; 
168 1; 169 1; 170 7; 171 1; 176 3; 
177 2; 178 4; 179 2; 184 3; 185 1; 
186 2; 189 2; 190 1; 191 1; 198 1; 
202 1; 203 2; 204 6; 205 2; 206 3; 
212 5; 214 999; 215 161; 216 15; 217 5; 
218 3; 220 1; 232 1; 248 7; 249 1; 
276 1; 305 46; 306 10; 307 1; 
