Name: N-methyltryptamine
Synon: NMT
Synon: TIHKAL #50
InChIKey: NCIKQJBVUNUXLW-UHFFFAOYSA-N
Formula: C11H14N2
MW: 174
ExactMass: 174.115699
CASNO: 61494
ID: 3267
Comment: DEA SWL / Aldrich lot 115312
Num Peaks: 74
40 2; 41 5; 42 33; 43 15; 44 906; 
45 23; 50 16; 51 33; 52 15; 53 4; 
54 2; 56 2; 57 2; 59 3; 61 2; 
62 11; 63 31; 64 9; 65 11; 66 1; 
71 2; 72 2; 73 1; 74 13; 75 23; 
76 30; 77 155; 78 19; 79 2; 80 1; 
85 1; 86 5; 87 7; 88 6; 89 33; 
90 17; 91 9; 92 1; 98 2; 99 1; 
100 2; 101 18; 102 76; 103 111; 104 16; 
105 1; 113 6; 114 8; 115 57; 116 15; 
117 30; 118 5; 127 4; 128 56; 129 39; 
130 878; 131 999; 132 105; 133 5; 140 5; 
141 5; 142 13; 143 31; 144 21; 145 2; 
155 3; 156 3; 157 4; 158 3; 171 3; 
172 8; 173 3; 174 30; 175 4; 
