Name: URB937
Synon: 3'-carbamoyl-6-hydroxy-[1,1'-biphenyl]-3-yl cyclohexylcarbamate
InChIKey: CMEQHOXCIGFZNJ-UHFFFAOYSA-N
Formula: C20H22N2O4
MW: 354
ExactMass: 354.157957
CASNO: 135715930
ID: 3269
Comment: Provided by www.caymanchem.com/app/template/landing%2CForensic.vm / Item #10674  Lot #0426767
Num Peaks: 26
44 71; 73 6; 78 14; 96 13; 106 14; 
107 18; 127 82; 128 196; 129 56; 139 37; 
155 38; 156 14; 157 65; 184 471; 185 212; 
186 20; 193 1; 207 13; 211 332; 212 999; 
213 144; 229 299; 230 14; 253 40; 281 14; 
283 14; 
