Name: AB-005
Synon: [1-[(1-methyl-2-piperidinyl)methyl]-1H-indol-3-yl](2,2,3,3-tetracyclopropyl)-methanone
InChIKey: MOBWRRIAIHYXLB-UHFFFAOYSA-N
Formula: C23H32N2O
MW: 352
ExactMass: 352.251463
CASNO: 895155256
ID: 3273
Comment: Provided by www.caymanchem.com/app/template/landing%2CForensic.vm / Item #11766  Lot #0438791
Num Peaks: 118
40 2; 41 22; 42 33; 43 8; 44 6; 
51 1; 52 1; 53 6; 54 3; 55 28; 
56 6; 57 7; 58 4; 63 1; 65 3; 
66 1; 67 9; 68 15; 69 10; 70 92; 
71 5; 75 2; 76 2; 77 6; 78 2; 
79 5; 80 4; 81 10; 82 16; 83 11; 
84 3; 88 1; 89 4; 90 1; 91 1; 
94 8; 95 3; 96 49; 98 999; 99 71; 
100 2; 101 4; 102 10; 103 4; 108 1; 
109 1; 110 6; 111 4; 112 20; 113 2; 
114 2; 115 8; 116 4; 117 3; 118 1; 
125 3; 126 1; 127 3; 128 12; 129 30; 
130 14; 131 2; 139 1; 140 1; 141 1; 
142 2; 143 7; 144 7; 152 2; 153 2; 
154 5; 155 2; 156 3; 157 8; 158 7; 
159 1; 165 1; 166 2; 167 8; 168 6; 
169 1; 170 2; 171 1; 172 2; 178 1; 
179 1; 180 10; 181 6; 182 5; 183 2; 
184 2; 192 1; 193 1; 194 5; 195 2; 
196 5; 197 1; 198 1; 206 1; 208 1; 
210 3; 211 1; 212 1; 222 1; 223 1; 
224 14; 225 3; 226 1; 238 3; 239 5; 
240 1; 253 1; 254 5; 255 3; 256 1; 
307 2; 350 1; 352 1; 
