Name: 5-IT
Synon: 5-API
Synon: 5-(2-aminopropyl)indole
Synon: .alpha.-methyl-1H-indole-5-ethanamine
InChIKey: AULGMISRJWGTBA-UHFFFAOYSA-N
Formula: C11H14N2
MW: 174
ExactMass: 174.115699
CASNO: 3784303
ID: 3274
Comment: Provided by www.caymanchem.com/app/template/landing%2CForensic.vm / Item #12042  Lot #0449729
Num Peaks: 77
40 9; 41 20; 42 67; 44 999; 45 29; 
49 1; 50 25; 51 50; 52 30; 53 11; 
54 4; 56 5; 57 2; 59 1; 61 3; 
62 17; 63 44; 64 15; 65 21; 67 3; 
71 1; 72 2; 73 2; 74 18; 75 28; 
76 40; 77 200; 78 47; 79 20; 85 2; 
86 6; 87 9; 88 9; 89 35; 90 18; 
91 8; 92 1; 93 1; 98 2; 99 3; 
100 3; 101 23; 102 89; 103 122; 104 33; 
105 4; 113 4; 114 8; 115 16; 116 11; 
117 28; 118 5; 126 3; 127 9; 128 67; 
130 624; 131 803; 132 87; 133 5; 140 2; 
141 5; 142 5; 143 5; 144 2; 145 1; 
154 9; 155 5; 156 14; 157 11; 158 8; 
159 9; 160 1; 169 1; 171 2; 172 4; 
174 25; 175 4; 
