Name: 3-Methylbuphedrone
Synon: 3-MeBP
Synon: 3-Methyl-N-methylbutiophenone
Synon: 2-(methylamino)-1-(m-tolyl)butan-1-one
InChIKey: XTCTXCSGKAZSKT-UHFFFAOYSA-N
Formula: C12H17NO
MW: 191
ExactMass: 191.131014
CASNO: 0
ID: 3275
Comment: Provided by www.caymanchem.com/app/template/landing%2CForensic.vm / Item #12001  Lot #0442520
Num Peaks: 62
40 5; 41 42; 42 59; 43 11; 44 53; 
45 2; 50 7; 51 13; 52 5; 53 3; 
54 6; 55 7; 56 46; 57 83; 58 3; 
61 1; 62 8; 63 28; 64 11; 65 95; 
66 6; 68 4; 70 48; 72 999; 73 49; 
74 3; 75 3; 76 3; 77 7; 78 2; 
79 1; 86 2; 87 2; 89 33; 90 16; 
91 136; 92 12; 93 1; 102 1; 103 2; 
104 1; 105 5; 115 4; 116 2; 117 2; 
119 37; 120 4; 127 1; 128 1; 129 1; 
130 1; 131 1; 132 2; 134 3; 144 1; 
145 1; 146 2; 147 6; 148 1; 160 2; 
162 14; 163 1; 
