Name: 3,4-Methylenedioxy-N-benzylcathinone
Synon: BMDP
Synon: 1-(benzo[d][1,3]-dioxol-5-yl)-2-(benzylamino)propan-1-one
InChIKey: KRNIYOJEASBDDP-UHFFFAOYSA-N
Formula: C17H17NO3
MW: 283
ExactMass: 283.120844
CASNO: 0
ID: 3277
Comment: Provided by www.caymanchem.com/app/template/landing%2CForensic.vm / Item #9001330  Lot #0441190
Num Peaks: 63
40 2; 41 5; 42 6; 43 1; 44 1; 
50 4; 51 13; 52 3; 53 5; 54 1; 
55 3; 56 3; 61 2; 62 12; 63 49; 
64 10; 65 137; 66 8; 74 2; 75 1; 
76 3; 77 12; 78 4; 79 6; 89 20; 
91 999; 92 87; 93 5; 102 1; 103 3; 
104 6; 105 9; 106 6; 115 1; 116 1; 
117 3; 118 7; 119 6; 120 6; 121 62; 
122 8; 130 3; 132 44; 134 807; 135 90; 
136 5; 146 1; 147 2; 149 97; 150 10; 
151 2; 152 4; 153 1; 174 3; 176 1; 
177 1; 178 2; 180 1; 181 1; 211 1; 
265 2; 279 1; 281 1; 
