Name: 2C-B-fly
Synon: 8-Bromo-2,3,6,7-tetrahydro-benzo[1,2-b:4,5-b']difuran-4-ethanamine
InChIKey: YZDFADGMVOSVIX-UHFFFAOYSA-N
Formula: C12H14BrNO2
MW: 283
ExactMass: 283.02079
CASNO: 178557216
ID: 3278
Comment: Provided by www.caymanchem.com/app/template/landing%2CForensic.vm / Item #11473  Lot #0436047
Num Peaks: 134
40 6; 41 14; 42 5; 43 9; 50 9; 
51 36; 52 21; 53 29; 55 5; 58 4; 
62 12; 63 33; 64 13; 65 45; 66 19; 
67 15; 72 4; 73 3; 74 12; 75 16; 
76 13; 77 48; 78 31; 79 53; 80 17; 
81 8; 86 6; 87 10; 88 8; 89 40; 
90 19; 91 120; 92 16; 93 10; 94 2; 
98 3; 99 2; 101 9; 102 27; 103 56; 
104 23; 105 19; 106 5; 107 8; 113 4; 
115 170; 116 51; 117 155; 118 63; 119 38; 
120 7; 126 4; 127 23; 128 38; 129 30; 
130 20; 131 119; 132 22; 133 30; 134 2; 
140 2; 141 8; 142 6; 143 9; 144 17; 
145 83; 146 34; 147 62; 148 11; 149 2; 
155 2; 156 5; 157 19; 158 14; 159 81; 
160 39; 161 10; 168 2; 169 5; 170 6; 
171 16; 172 16; 173 74; 174 175; 175 112; 
176 18; 177 4; 183 3; 184 5; 185 7; 
186 22; 187 33; 188 7; 197 4; 198 10; 
199 5; 200 10; 201 3; 202 3; 203 14; 
204 31; 205 4; 209 3; 211 10; 212 2; 
213 8; 223 2; 224 2; 225 10; 226 13; 
227 9; 228 12; 229 3; 237 5; 238 3; 
239 11; 240 6; 241 9; 242 4; 251 29; 
254 999; 255 279; 256 959; 257 119; 258 9; 
266 20; 267 16; 268 21; 269 4; 281 5; 
283 243; 285 236; 286 35; 287 3; 
