Name: 25I-NBOMe imine analog
InChIKey: XFKJLNFJWQOJQL-UDWIEESQSA-N
Synon: (E)-2-(4-iodo-2,5-dimethoxyphenyl)-N-(2-methoxybenzylidene)ethanamine
Synon: 2C-I-NBOMe imine analog
Synon: 25I-NB2OMe imine analog
Synon: 2C-I-NB2OMe imine analog
Formula: C18H20INO3
MW: 425
ExactMass: 425.048792
CASNO: 0
ID: 3279
Comment: Provided by www.caymanchem.com/app/template/landing%2CForensic.vm / Item #11968  Lot #0440479
Num Peaks: 165
40 2; 41 5; 42 50; 43 4; 45 1; 
50 13; 51 44; 52 13; 53 25; 54 3; 
55 3; 56 1; 57 1; 59 1; 61 1; 
62 6; 63 31; 64 26; 65 41; 66 6; 
67 4; 68 1; 74 6; 75 11; 76 27; 
77 139; 78 90; 79 28; 80 4; 81 1; 
84 1; 86 1; 87 2; 89 66; 90 66; 
91 234; 92 44; 93 13; 94 3; 95 1; 
97 1; 99 1; 101 2; 102 11; 103 18; 
104 56; 105 130; 106 39; 107 30; 108 4; 
109 1; 114 1; 115 4; 116 13; 117 85; 
118 28; 119 75; 121 821; 122 83; 123 5; 
127 6; 128 4; 129 1; 130 3; 132 54; 
133 128; 134 32; 135 15; 136 17; 137 2; 
139 1; 141 1; 142 1; 143 1; 145 2; 
146 5; 148 999; 149 118; 150 26; 151 4; 
152 4; 153 1; 154 1; 155 1; 158 1; 
160 2; 161 2; 162 5; 163 4; 164 7; 
165 5; 166 2; 167 2; 168 1; 169 1; 
170 1; 171 1; 176 1; 177 4; 178 2; 
179 1; 180 2; 181 2; 189 1; 190 3; 
191 9; 192 1; 194 2; 195 2; 196 2; 
197 4; 203 1; 204 3; 205 3; 208 1; 
209 1; 210 1; 217 2; 219 4; 220 2; 
221 1; 222 1; 223 1; 224 1; 225 1; 
232 16; 233 3; 234 9; 235 1; 236 3; 
237 3; 238 3; 239 1; 240 1; 247 37; 
248 4; 249 2; 250 1; 252 6; 254 1; 
259 1; 261 9; 262 1; 264 1; 266 6; 
267 2; 268 3; 269 1; 273 1; 274 2; 
275 3; 276 8; 277 23; 278 4; 282 1; 
283 1; 286 1; 288 2; 289 1; 290 7; 
291 2; 318 1; 394 89; 396 2; 425 1; 
