Name: 2,4,6-Trimethoxyamphetamine
Synon: TMA-6
Synon: 2,4,6-Trimethoxy-.alpha.-methyl-benzeneethanamine
InChIKey: DDGNOUVDFKXADP-UHFFFAOYSA-N
Formula: C12H19NO3
MW: 225
ExactMass: 225.136494
CASNO: 23815749
ID: 3282
Comment: Provided by www.caymanchem.com/app/template/landing%2CForensic.vm / Item #12099  Lot #0442320
Num Peaks: 123
40 7; 41 25; 42 63; 44 675; 45 21; 
49 1; 50 16; 51 34; 52 25; 53 28; 
54 8; 55 15; 56 6; 57 7; 59 12; 
61 1; 62 7; 63 27; 64 22; 65 54; 
66 29; 67 24; 68 8; 69 66; 70 3; 
74 7; 75 9; 76 12; 77 90; 78 52; 
79 45; 80 43; 81 12; 82 5; 83 5; 
84 1; 85 2; 87 1; 89 12; 90 8; 
91 91; 92 38; 93 46; 94 20; 95 68; 
96 9; 98 9; 99 1; 102 2; 103 7; 
104 6; 105 17; 106 22; 107 29; 108 37; 
109 48; 110 8; 111 3; 112 1; 115 1; 
116 2; 117 4; 118 7; 119 14; 120 25; 
121 186; 122 30; 123 67; 124 13; 125 8; 
126 1; 130 1; 131 1; 132 3; 133 4; 
134 10; 135 19; 136 169; 137 47; 138 49; 
139 30; 140 2; 146 3; 147 7; 148 7; 
149 10; 150 13; 151 104; 152 24; 153 70; 
154 8; 155 1; 161 3; 162 6; 163 18; 
164 20; 165 11; 166 11; 167 80; 168 11; 
169 2; 176 2; 177 7; 178 13; 179 11; 
181 349; 182 999; 183 115; 184 14; 185 1; 
191 1; 192 5; 193 3; 194 5; 195 3; 
207 1; 208 3; 209 5; 210 9; 211 2; 
224 4; 225 1; 226 1; 
