Name: AM2201 7-hydroxyindole metabolite
Synon: (1-(5-fluoropentyl)-7-hydroxy-1H-indol-3-yl)(naphthalen-1-yl)methanone
InChIKey: WOWBAWORWZVPCY-UHFFFAOYSA-N
Formula: C24H22FNO2
MW: 375
ExactMass: 375.163458
CASNO: 0
ID: 3284
Comment: Provided by www.caymanchem.com/app/template/landing%2CForensic.vm / Item #11193  Lot #0434234
Num Peaks: 191
41 220; 42 14; 43 72; 44 1; 45 4; 
47 48; 50 7; 51 19; 52 10; 53 15; 
54 3; 55 14; 59 21; 60 3; 61 14; 
62 7; 63 30; 64 13; 65 7; 66 4; 
67 10; 69 46; 70 6; 73 3; 74 12; 
75 30; 76 60; 77 116; 78 23; 79 4; 
86 4; 87 11; 88 12; 89 58; 90 51; 
91 15; 92 3; 93 3; 95 8; 96 7; 
98 6; 99 6; 100 8; 101 55; 102 43; 
103 55; 104 111; 105 20; 107 15; 108 5; 
109 4; 113 9; 114 14; 115 26; 116 41; 
117 70; 118 22; 119 4; 121 25; 122 4; 
123 3; 125 16; 126 104; 127 537; 128 170; 
129 31; 130 31; 131 99; 132 42; 133 26; 
135 27; 136 29; 137 8; 139 15; 141 20; 
142 10; 143 11; 144 19; 145 49; 146 51; 
147 10; 148 3; 150 136; 151 12; 152 8; 
153 10; 155 167; 156 21; 157 9; 158 17; 
159 104; 160 178; 161 31; 162 7; 163 11; 
164 10; 165 9; 167 15; 168 6; 170 8; 
172 68; 173 144; 174 22; 175 8; 176 22; 
177 4; 178 6; 184 5; 185 15; 186 84; 
187 63; 188 11; 189 11; 190 8; 191 2; 
192 3; 193 3; 197 3; 198 7; 200 77; 
201 42; 202 69; 203 27; 204 11; 211 5; 
212 6; 213 34; 214 42; 215 22; 216 9; 
217 4; 218 8; 219 7; 220 6; 221 3; 
224 4; 225 6; 226 16; 227 29; 228 69; 
229 25; 230 23; 231 9; 232 6; 238 13; 
240 79; 241 60; 242 21; 243 18; 244 12; 
247 999; 248 290; 249 43; 250 4; 251 3; 
252 5; 253 15; 254 24; 255 16; 256 37; 
257 62; 258 50; 259 13; 266 4; 267 3; 
268 22; 269 25; 270 39; 271 21; 272 30; 
273 10; 280 6; 281 6; 282 21; 283 14; 
284 15; 286 92; 296 5; 298 11; 300 50; 
301 14; 310 3; 347 4; 355 10; 356 7; 
357 9; 358 11; 373 3; 375 516; 376 133; 
377 20; 
