Name: AM2201 6-hydroxyindole metabolite
Synon: (1-(5-fluoropentyl)-6-hydroxy-1H-indol-3-yl)(naphthalen-1-yl)methanone
InChIKey: JNNACCUUTICHKV-UHFFFAOYSA-N
Formula: C24H22FNO2
MW: 375
ExactMass: 375.163458
CASNO: 0
ID: 3285
Comment: Provided by www.caymanchem.com/app/template/landing%2CForensic.vm / Item #11192  Lot #0436067
Num Peaks: 238
41 218; 42 13; 43 88; 44 3; 45 4; 
47 55; 48 2; 50 11; 51 23; 52 7; 
53 19; 54 2; 55 17; 56 2; 57 1; 
59 22; 60 2; 61 16; 62 7; 63 28; 
64 8; 65 11; 66 4; 67 9; 68 4; 
69 46; 70 3; 74 13; 75 28; 76 43; 
77 73; 78 11; 79 5; 80 1; 82 1; 
85 1; 86 4; 87 11; 88 12; 89 46; 
90 24; 91 13; 92 4; 94 4; 95 5; 
98 4; 99 7; 100 13; 101 45; 102 22; 
103 36; 104 20; 105 50; 106 11; 107 6; 
108 3; 109 5; 110 1; 112 2; 113 12; 
114 11; 115 18; 116 21; 117 41; 118 29; 
119 6; 121 22; 122 5; 123 2; 124 1; 
126 99; 127 478; 128 89; 129 18; 130 11; 
131 48; 132 105; 133 58; 134 12; 136 51; 
138 2; 139 15; 140 5; 141 17; 142 9; 
143 9; 144 39; 145 30; 146 50; 147 10; 
148 5; 150 64; 151 9; 152 11; 153 4; 
155 226; 156 32; 157 3; 158 11; 159 30; 
160 164; 161 18; 162 3; 163 9; 164 5; 
165 4; 167 35; 168 11; 169 2; 170 7; 
172 13; 173 6; 174 7; 175 6; 176 13; 
178 6; 179 1; 180 2; 181 3; 182 1; 
183 1; 184 3; 185 3; 186 10; 187 11; 
188 9; 189 18; 190 7; 192 2; 193 3; 
194 1; 195 1; 196 2; 198 4; 199 5; 
200 31; 201 32; 202 71; 203 21; 204 5; 
205 3; 208 1; 211 3; 212 3; 213 17; 
214 12; 215 19; 217 3; 218 9; 219 4; 
220 19; 225 6; 226 12; 227 29; 228 55; 
229 22; 230 19; 231 23; 233 1; 234 1; 
236 1; 237 2; 238 5; 240 34; 241 47; 
242 20; 243 13; 244 9; 245 3; 246 4; 
248 298; 249 45; 250 5; 251 2; 252 3; 
253 3; 254 18; 255 16; 256 41; 257 91; 
258 63; 259 24; 260 4; 261 1; 265 2; 
266 2; 267 5; 268 8; 269 23; 270 80; 
271 34; 272 58; 273 15; 274 1; 280 1; 
282 35; 283 36; 284 37; 285 64; 286 195; 
287 52; 288 7; 294 2; 295 1; 296 8; 
298 19; 300 258; 301 60; 302 6; 309 1; 
310 3; 312 8; 314 7; 315 2; 318 1; 
320 2; 321 1; 324 5; 326 3; 327 3; 
328 2; 338 3; 339 1; 340 3; 341 3; 
342 2; 346 10; 347 8; 353 2; 355 17; 
356 15; 358 354; 359 86; 360 11; 361 3; 
375 999; 376 267; 377 38; 
