Name: AM2201 N-(4-hydroxypentyl) metabolite
Synon: (1-(5-fluoro-4-hydroxypentyl)-1H-indol-3-yl)(naphthalen-1-yl)methanone
InChIKey: HTFNNXALSQKDIS-UHFFFAOYSA-N
Formula: C24H22FNO2
MW: 375
ExactMass: 375.163458
CASNO: 0
ID: 3287
Comment: Provided by www.caymanchem.com/app/template/landing%2CForensic.vm / Item #10203  Lot #0435917
Num Peaks: 171
41 118; 42 24; 43 172; 44 8; 45 13; 
50 19; 51 24; 52 9; 53 17; 55 46; 
57 26; 59 49; 61 40; 62 20; 63 170; 
64 10; 67 52; 69 10; 71 13; 73 10; 
74 16; 75 75; 76 41; 77 108; 78 34; 
85 34; 87 58; 88 35; 89 101; 90 18; 
95 9; 99 12; 100 22; 101 113; 102 112; 
103 68; 104 12; 106 13; 107 10; 113 34; 
114 53; 115 108; 116 203; 117 42; 118 17; 
120 26; 121 32; 122 11; 125 21; 126 215; 
127 999; 128 293; 129 122; 130 109; 131 24; 
133 27; 134 21; 135 18; 137 9; 139 33; 
140 17; 142 190; 143 62; 144 641; 145 67; 
146 16; 147 19; 149 9; 150 12; 151 8; 
152 15; 153 20; 155 526; 156 89; 157 28; 
158 46; 159 12; 162 11; 163 12; 167 153; 
168 50; 169 17; 170 45; 172 12; 177 8; 
182 10; 184 31; 186 9; 187 29; 188 13; 
189 20; 191 14; 192 8; 195 8; 200 27; 
202 24; 203 9; 207 10; 209 22; 211 16; 
212 41; 213 68; 214 63; 215 65; 216 15; 
220 45; 224 10; 226 49; 227 35; 228 43; 
229 17; 230 13; 238 22; 239 21; 240 99; 
241 203; 242 95; 243 33; 244 9; 246 13; 
248 439; 249 51; 251 19; 252 22; 254 275; 
255 141; 256 105; 257 29; 264 7; 265 14; 
266 71; 267 69; 268 77; 269 137; 270 755; 
271 177; 272 165; 273 44; 278 8; 280 35; 
281 17; 282 76; 284 547; 285 143; 294 16; 
296 104; 297 28; 298 46; 308 33; 309 19; 
310 17; 312 43; 313 9; 322 11; 324 8; 
327 12; 336 10; 337 10; 338 17; 339 35; 
340 16; 341 18; 342 56; 355 40; 356 33; 
358 172; 359 57; 372 7; 375 578; 376 145; 
377 33; 
