Name: BIM5078
Synon: 1-[(2-chloro-5-nitrophenyl)sulfonyl]-2-methyl-1H-benzimidazole
InChIKey: DLUVMRPVZILBOE-UHFFFAOYSA-N
Formula: C14H10ClN3O4S
MW: 351
ExactMass: 351.008055
CASNO: 337506431
ID: 3289
Comment: Provided by www.caymanchem.com/app/template/landing%2CForensic.vm / Item #12031  Lot #0441298
Num Peaks: 155
40 5; 41 4; 42 12; 43 25; 45 3; 
46 2; 48 4; 49 2; 50 22; 51 26; 
52 22; 53 7; 54 1; 60 1; 61 7; 
62 33; 63 173; 64 121; 65 16; 66 7; 
69 5; 72 3; 73 10; 74 68; 75 142; 
76 47; 77 103; 78 33; 79 7; 80 1; 
81 1; 82 2; 83 2; 84 23; 85 5; 
86 10; 87 5; 88 12; 90 945; 91 84; 
92 8; 93 2; 95 13; 97 5; 98 5; 
99 4; 100 2; 101 3; 102 18; 103 59; 
104 56; 105 26; 106 4; 107 2; 109 53; 
110 99; 111 28; 112 32; 113 5; 114 2; 
115 1; 116 4; 117 1; 118 2; 119 3; 
123 1; 124 1; 125 3; 126 30; 127 4; 
128 11; 130 249; 131 999; 132 132; 133 9; 
137 8; 138 9; 139 5; 140 7; 141 1; 
142 5; 143 1; 144 1; 146 1; 147 2; 
148 1; 151 3; 152 2; 153 7; 154 1; 
156 77; 157 9; 158 31; 159 2; 160 1; 
162 1; 163 1; 164 19; 165 10; 166 2; 
169 1; 172 4; 173 4; 174 9; 175 3; 
176 4; 177 2; 178 2; 179 3; 180 1; 
181 1; 188 1; 189 1; 190 4; 191 1; 
192 2; 193 3; 194 1; 195 1; 199 1; 
200 10; 201 1; 202 3; 203 1; 204 4; 
205 19; 206 29; 211 12; 212 1; 220 47; 
221 5; 222 16; 223 1; 226 2; 229 1; 
240 2; 241 6; 242 1; 243 2; 252 5; 
253 1; 267 1; 270 3; 275 1; 287 2; 
289 1; 305 1; 309 1; 316 5; 321 1; 
351 99; 352 21; 353 38; 354 7; 355 1; 
