Name: AM3102
Synon: KDS-5104
Synon: N-[(1R)-2-hydroxy-1-methylethyl]-9Z-octadecenamide
InChIKey: IPVYNYWIRWMRHH-JPMGXVIASA-N
Formula: C21H41NO2
MW: 339
ExactMass: 339.31373
CASNO: 213182220
ID: 3290
Comment: Provided by www.caymanchem.com/app/template/landing%2CForensic.vm / Item #13452  Lot #0433162
Num Peaks: 173
41 273; 42 68; 43 209; 44 999; 45 27; 
46 4; 51 1; 52 2; 53 31; 54 72; 
55 361; 56 75; 57 143; 58 273; 59 59; 
60 127; 61 3; 65 13; 66 10; 67 160; 
68 51; 69 188; 70 52; 71 27; 72 25; 
73 6; 74 31; 76 623; 77 33; 78 6; 
79 53; 80 22; 81 133; 82 41; 83 97; 
84 54; 85 18; 86 71; 87 25; 88 4; 
89 3; 91 13; 92 2; 93 26; 94 13; 
95 75; 96 36; 97 64; 98 47; 99 403; 
100 101; 101 10; 102 13; 103 2; 105 10; 
107 13; 108 7; 109 32; 110 19; 112 507; 
113 95; 114 25; 115 6; 117 282; 118 20; 
119 7; 120 2; 121 15; 122 6; 123 14; 
124 10; 125 12; 126 69; 127 13; 128 22; 
130 413; 131 47; 132 3; 133 6; 134 2; 
135 8; 136 6; 137 9; 138 17; 139 10; 
140 18; 141 5; 142 8; 144 45; 145 5; 
147 3; 148 2; 149 5; 150 4; 151 3; 
152 13; 153 7; 154 44; 155 11; 156 8; 
157 2; 158 13; 159 3; 163 2; 164 2; 
165 3; 166 14; 168 120; 169 17; 170 13; 
172 30; 173 5; 178 3; 179 1; 180 8; 
181 2; 182 26; 183 4; 184 25; 185 4; 
186 34; 187 5; 192 2; 194 19; 195 5; 
196 6; 198 13; 200 5; 201 1; 208 30; 
209 6; 210 6; 212 15; 213 4; 214 3; 
222 77; 223 17; 224 6; 226 12; 227 1; 
236 60; 237 16; 238 4; 240 10; 241 2; 
242 2; 247 3; 250 13; 251 2; 252 1; 
253 2; 254 10; 255 1; 264 30; 265 11; 
266 2; 268 3; 278 23; 279 6; 280 3; 
282 21; 283 2; 292 6; 293 2; 296 2; 
306 3; 308 27; 309 9; 310 3; 320 4; 
321 4; 339 11; 340 3; 
