Name: CB-86
Synon: N-cyclopropyl-8-[3(1,1-dimethylheptyl)-5-hydroxyphenoxy}-octanamide
InChIKey: PVAOGZXUOOHSMN-UHFFFAOYSA-N
Formula: C26H43NO3
MW: 417
ExactMass: 417.324295
CASNO: 1150586643
ID: 3292
Comment: Provided by www.caymanchem.com/app/template/landing%2CForensic.vm / Item #13289  Lot #0419168
Num Peaks: 218
41 397; 42 67; 43 361; 44 32; 45 2; 
50 4; 51 11; 52 5; 53 37; 55 743; 
56 593; 57 999; 58 883; 59 40; 60 2; 
63 5; 65 22; 66 9; 67 85; 68 27; 
69 202; 70 27; 71 118; 72 10; 73 6; 
75 6; 77 46; 78 15; 79 92; 80 19; 
81 77; 82 20; 83 78; 84 101; 85 76; 
86 5; 87 2; 89 10; 90 3; 91 70; 
92 14; 93 40; 94 19; 95 60; 96 21; 
97 78; 98 44; 99 70; 100 6; 101 8; 
102 2; 103 23; 104 3; 105 33; 106 14; 
107 100; 108 21; 109 33; 110 29; 111 90; 
112 49; 113 7; 115 14; 116 5; 117 8; 
118 6; 119 18; 120 7; 121 40; 122 46; 
123 232; 124 104; 125 135; 126 22; 127 8; 
128 3; 129 2; 131 14; 132 9; 133 35; 
134 28; 135 42; 136 21; 137 146; 138 26; 
139 5; 140 6; 142 29; 143 5; 145 4; 
146 3; 147 16; 148 12; 149 60; 150 93; 
151 227; 152 241; 153 51; 154 11; 158 2; 
159 7; 160 4; 161 13; 162 9; 163 58; 
164 37; 165 33; 166 36; 167 5; 168 6; 
170 2; 173 16; 174 18; 175 14; 176 7; 
177 38; 178 17; 179 13; 180 16; 181 6; 
182 165; 183 22; 184 10; 187 7; 188 3; 
189 13; 190 7; 191 36; 192 45; 193 10; 
194 7; 195 3; 198 2; 201 4; 202 2; 
203 5; 205 46; 206 33; 207 13; 208 6; 
215 3; 217 4; 218 3; 219 12; 220 13; 
221 5; 232 3; 233 17; 234 14; 235 6; 
236 10; 237 22; 239 2; 246 6; 248 57; 
249 19; 250 16; 257 2; 258 4; 259 8; 
260 9; 261 9; 262 8; 263 4; 264 6; 
265 3; 269 2; 273 32; 274 11; 275 16; 
276 47; 277 16; 278 6; 287 14; 288 8; 
289 7; 290 47; 291 13; 292 4; 293 2; 
300 4; 301 3; 302 2; 304 21; 305 41; 
306 7; 314 6; 315 10; 316 6; 318 30; 
319 21; 320 5; 328 3; 329 3; 330 6; 
331 5; 333 326; 334 65; 335 12; 344 7; 
346 28; 347 37; 348 8; 360 18; 361 36; 
362 8; 363 3; 374 10; 375 16; 376 6; 
388 84; 389 37; 390 11; 400 5; 402 13; 
417 152; 418 41; 419 7; 
