Name: Isopentedrone
Synon: 1-(methylamino)-1-phenylpentan-2-one
InChIKey: ILGRTMNCRBDXBI-UHFFFAOYSA-N
Formula: C12H17NO
MW: 191
ExactMass: 191.131014
CASNO: 0
ID: 3293
Comment: Provided by www.caymanchem.com/app/template/landing%2CForensic.vm / Item #11563  Lot #0437252
Num Peaks: 65
40 6; 41 57; 42 256; 43 49; 44 5; 
50 13; 51 39; 52 11; 53 4; 54 1; 
55 4; 59 2; 60 1; 61 1; 62 6; 
63 21; 64 7; 65 25; 66 3; 67 1; 
68 1; 69 1; 71 17; 72 1; 73 1; 
74 5; 75 8; 76 23; 77 147; 78 33; 
79 8; 80 2; 86 2; 87 2; 89 35; 
90 18; 91 79; 92 7; 93 2; 102 5; 
103 34; 104 55; 105 8; 106 3; 114 1; 
115 5; 116 7; 118 361; 120 999; 121 95; 
122 3; 128 1; 129 1; 130 1; 131 2; 
132 2; 133 1; 134 1; 144 1; 146 1; 
158 3; 161 1; 162 1; 187 1; 188 1; 
