Name: JW 618
Synon: 1,1,1,3,3,3-hexafluoropropan-2-yl-methyl(3-(pyridin-4-yl)benzyl)carbamate
InChIKey: RBZKWMMBPOHSDF-UHFFFAOYSA-N
Formula: C17H14F6N2O2
MW: 392
ExactMass: 392.095947
CASNO: 0
ID: 3295
Comment: Provided by www.caymanchem.com/app/template/landing%2CForensic.vm / Item #11790  Lot #0440225
Num Peaks: 139
40 6; 42 261; 43 16; 44 26; 45 8; 
50 27; 51 59; 52 14; 53 7; 54 3; 
56 16; 58 24; 61 2; 62 14; 63 47; 
64 15; 65 16; 66 2; 67 2; 69 260; 
71 26; 72 6; 73 2; 74 20; 75 33; 
76 26; 77 41; 78 49; 80 1; 82 9; 
84 59; 86 8; 87 18; 88 11; 89 47; 
90 13; 91 19; 92 4; 93 3; 99 39; 
100 11; 101 24; 102 25; 103 8; 104 5; 
105 2; 106 1; 109 1; 110 3; 111 2; 
113 35; 115 142; 116 22; 117 9; 118 16; 
119 3; 121 2; 123 1; 125 10; 126 59; 
127 106; 128 47; 129 15; 130 3; 131 2; 
132 5; 133 2; 137 2; 139 119; 140 70; 
141 61; 142 21; 143 3; 144 7; 146 2; 
147 1; 151 99; 152 20; 153 33; 154 73; 
155 34; 156 122; 157 16; 158 1; 159 1; 
164 5; 166 139; 167 422; 168 754; 169 161; 
170 18; 171 1; 174 2; 177 3; 179 8; 
180 11; 181 33; 182 34; 183 11; 184 28; 
185 5; 186 6; 187 2; 192 1; 193 3; 
195 137; 197 999; 198 150; 199 11; 204 2; 
205 1; 206 1; 208 13; 209 5; 210 1; 
218 20; 219 1; 223 9; 224 5; 225 4; 
226 1; 238 52; 239 8; 241 621; 242 104; 
243 10; 257 8; 294 2; 314 14; 315 2; 
330 3; 334 17; 335 3; 353 2; 373 3; 
377 1; 392 298; 393 60; 394 7; 
