Name: MAM2201 N-(3-fluoropentyl) isomer
Synon: (1-(3-fluoropentyl)-1H-indol-3-yl)(4-methylnaphthalen-1-yl)methanone
InChIKey: KEFSMRMUICTKBX-UHFFFAOYSA-N
Formula: C25H24FNO
MW: 373
ExactMass: 373.184193
CASNO: 0
ID: 3300
Comment: Provided by www.caymanchem.com/app/template/landing%2CForensic.vm / Item #11781  Lot #0440656
Num Peaks: 179
41 528; 42 15; 43 87; 47 108; 50 22; 
51 34; 52 12; 53 41; 55 60; 57 10; 
59 98; 61 96; 62 36; 63 78; 64 8; 
65 26; 67 32; 69 267; 70 28; 73 4; 
74 14; 75 54; 76 68; 77 72; 78 26; 
86 11; 87 24; 88 45; 89 180; 90 28; 
91 48; 93 7; 96 10; 98 10; 100 19; 
101 114; 102 237; 103 68; 104 16; 107 14; 
113 63; 115 999; 116 370; 117 49; 118 8; 
121 61; 125 13; 127 201; 128 226; 129 179; 
130 122; 131 20; 132 24; 134 116; 135 53; 
137 16; 139 420; 140 165; 141 800; 143 90; 
144 497; 145 57; 146 9; 147 28; 149 257; 
151 38; 152 22; 153 51; 154 41; 155 47; 
156 36; 157 17; 158 29; 163 12; 164 12; 
165 23; 166 16; 167 15; 168 46; 169 461; 
170 92; 171 13; 172 8; 176 31; 177 14; 
178 11; 179 8; 181 288; 182 50; 183 10; 
184 16; 187 25; 188 8; 189 17; 190 9; 
191 12; 193 9; 194 7; 195 8; 200 22; 
201 14; 202 41; 203 20; 204 21; 207 3; 
211 12; 212 58; 213 79; 214 63; 215 26; 
216 17; 224 27; 225 21; 226 129; 227 56; 
228 59; 229 32; 230 17; 232 959; 233 153; 
237 13; 238 34; 239 61; 240 111; 241 257; 
242 65; 243 23; 244 8; 250 12; 251 28; 
252 42; 253 116; 254 313; 255 149; 256 89; 
257 18; 264 12; 265 28; 266 56; 267 72; 
268 152; 269 189; 270 191; 271 52; 278 12; 
280 53; 281 81; 282 134; 283 144; 284 421; 
285 93; 286 13; 294 23; 295 16; 296 98; 
298 651; 299 195; 300 23; 310 32; 311 13; 
312 20; 324 54; 325 19; 336 47; 337 18; 
338 23; 340 8; 344 26; 345 16; 353 109; 
354 39; 356 524; 357 151; 358 167; 359 44; 
372 415; 373 880; 374 253; 375 21; 
