Name: N-Ethyl-N-methylcathinone
Synon: 2-(Ethyl(methyl)amino)-1-phenylpropan-1-one
InChIKey: LOQPFJRCXJZNQV-UHFFFAOYSA-N
Formula: C12H17NO
MW: 191
ExactMass: 191.131014
CASNO: 115772980
ID: 3303
Comment: Provided by www.caymanchem.com/app/template/landing%2CForensic.vm / Item #11604  Lot #0439194
Num Peaks: 64
40 3; 41 13; 42 72; 43 15; 44 5; 
50 20; 51 64; 52 6; 53 3; 54 10; 
55 14; 56 81; 58 208; 59 8; 62 2; 
63 4; 64 1; 65 3; 68 3; 70 25; 
71 7; 72 1; 73 1; 74 8; 75 7; 
77 169; 78 17; 79 5; 84 18; 86 999; 
87 62; 88 2; 89 3; 91 11; 92 1; 
102 1; 103 6; 105 57; 106 4; 115 4; 
116 1; 117 2; 118 1; 128 1; 130 1; 
131 5; 132 3; 133 5; 134 2; 144 1; 
146 6; 147 2; 148 3; 160 6; 161 1; 
170 2; 171 2; 172 1; 174 6; 175 1; 
176 2; 188 2; 189 6; 190 1; 
