Name: UR-144 N-(4-hydroxypentyl) metabolite
Synon: (1-(4-hydroxypentyl)-1H-indol-3-yl)(2,2,3,3-tetramethylcyclopropyl)methanone
InChIKey: YHFHYHZNLCEAAP-UHFFFAOYSA-N
Formula: C21H29NO2
MW: 327
ExactMass: 327.21983
CASNO: 0
ID: 3307
Comment: Provided by www.caymanchem.com/app/template/landing%2CForensic.vm / Item #11774  Lot #0438713
Num Peaks: 212
40 7; 41 92; 43 83; 44 8; 45 87; 
46 3; 50 1; 51 7; 52 1; 53 18; 
55 79; 56 4; 57 16; 58 4; 59 3; 
60 2; 62 4; 63 3; 64 2; 65 8; 
66 2; 67 11; 69 130; 70 10; 71 12; 
74 1; 75 8; 76 6; 77 16; 78 4; 
79 13; 80 3; 81 41; 83 63; 85 41; 
86 4; 87 5; 88 4; 89 27; 90 6; 
91 8; 92 2; 93 4; 95 6; 96 10; 
97 10; 98 1; 100 1; 101 16; 102 40; 
103 23; 104 4; 105 4; 106 2; 109 43; 
110 4; 111 2; 112 2; 113 4; 114 10; 
115 36; 116 80; 117 22; 118 14; 119 3; 
120 4; 121 1; 123 2; 124 1; 125 40; 
126 23; 127 18; 128 52; 129 72; 130 97; 
131 14; 132 10; 133 2; 134 2; 135 4; 
136 1; 137 1; 139 7; 140 7; 141 8; 
142 15; 143 68; 144 492; 145 44; 146 9; 
148 1; 149 6; 150 2; 151 2; 152 6; 
153 7; 154 21; 155 9; 156 28; 157 34; 
158 15; 159 5; 160 4; 163 2; 165 5; 
166 9; 167 47; 168 45; 169 15; 170 21; 
171 8; 172 6; 173 3; 174 6; 177 2; 
178 6; 180 75; 181 38; 182 123; 183 26; 
184 40; 185 20; 186 25; 187 3; 191 5; 
192 5; 193 3; 194 97; 195 19; 196 63; 
197 22; 198 21; 199 1; 200 5; 201 5; 
202 4; 203 30; 204 9; 205 2; 207 11; 
208 21; 210 42; 211 19; 212 51; 213 10; 
214 15; 215 3; 216 5; 217 1; 218 3; 
219 1; 220 4; 221 6; 222 3; 223 3; 
224 36; 225 7; 226 8; 228 52; 230 999; 
231 155; 232 14; 233 1; 234 3; 236 12; 
237 5; 238 10; 239 12; 240 5; 241 3; 
242 1; 243 3; 244 17; 245 59; 246 10; 
250 15; 251 1; 252 9; 253 3; 254 17; 
255 2; 256 2; 257 4; 259 3; 260 1; 
263 1; 265 1; 266 11; 267 4; 268 30; 
269 24; 270 5; 271 2; 281 2; 282 10; 
283 2; 284 14; 285 1; 286 6; 294 7; 
297 2; 307 1; 309 2; 310 12; 312 84; 
313 19; 314 3; 315 1; 325 3; 327 63; 
328 22; 329 3; 
