Name: RCS-4 N-(4-hydroxypentyl) metabolite
Synon: (1-(4-hydroxypentyl)-1H-indol-3-yl)(4-methoxyphenyl)methanone
InChIKey: OAAZEFGKZWEFTG-UHFFFAOYSA-N
Formula: C21H23NO3
MW: 337
ExactMass: 337.167793
CASNO: 0
ID: 3310
Comment: Provided by www.caymanchem.com/app/template/landing%2CForensic.vm / Item #10936  Lot #0430725
Num Peaks: 210
41 107; 42 10; 43 129; 45 217; 46 7; 
50 12; 51 18; 52 5; 53 10; 54 2; 
55 10; 56 2; 57 12; 58 8; 59 3; 
61 1; 62 7; 63 45; 64 59; 65 16; 
66 4; 67 9; 68 2; 69 100; 70 7; 
71 11; 74 8; 75 30; 76 43; 77 248; 
78 35; 79 18; 80 2; 82 5; 84 4; 
85 237; 86 14; 87 12; 88 20; 89 50; 
90 12; 92 136; 93 14; 94 2; 96 6; 
98 2; 99 2; 100 3; 101 33; 102 94; 
103 33; 104 17; 105 6; 107 94; 108 33; 
109 7; 110 1; 111 2; 112 4; 113 6; 
114 20; 115 73; 116 97; 117 23; 118 55; 
119 11; 121 47; 122 4; 125 38; 126 10; 
127 17; 128 90; 129 102; 130 86; 131 10; 
132 17; 133 3; 135 999; 136 87; 137 14; 
138 4; 139 16; 140 7; 141 10; 143 46; 
144 327; 145 35; 147 1; 149 3; 150 12; 
151 24; 152 47; 153 17; 154 20; 155 5; 
156 26; 157 20; 158 127; 159 15; 160 2; 
163 16; 164 12; 165 27; 166 10; 167 18; 
168 9; 170 32; 171 5; 172 3; 175 2; 
176 7; 177 9; 178 31; 179 32; 180 22; 
181 6; 182 4; 184 69; 185 11; 186 12; 
187 3; 189 5; 190 16; 191 28; 192 35; 
193 34; 194 7; 195 2; 196 2; 202 129; 
203 27; 204 27; 205 16; 206 13; 207 30; 
208 29; 209 5; 210 6; 212 5; 214 2; 
216 3; 217 4; 218 3; 220 39; 221 22; 
222 120; 223 22; 224 23; 225 3; 228 7; 
230 69; 231 8; 232 11; 233 12; 234 23; 
235 11; 236 23; 237 5; 238 22; 239 2; 
243 2; 244 1; 245 2; 246 3; 248 24; 
249 18; 250 43; 251 73; 252 93; 253 17; 
254 4; 255 2; 260 3; 262 14; 264 321; 
265 115; 266 57; 267 11; 270 2; 273 2; 
274 2; 276 43; 277 20; 278 14; 279 7; 
281 3; 283 1; 289 3; 290 11; 291 8; 
292 25; 293 13; 294 7; 295 1; 304 16; 
305 3; 306 2; 318 7; 319 12; 320 7; 
321 5; 322 18; 323 4; 325 2; 334 3; 
335 24; 337 348; 338 83; 339 9; 340 2; 
