Name: RCS-4 M9 metabolite
Synon: RCS-4 N-(4-hydroxypentyl)phenol metabolite
Synon: (1-(4-hydroxypentyl)-1H-indol-3-yl)(4-hydroxyphenyl)methanone
InChIKey: JXSIBZRVKUYYOZ-UHFFFAOYSA-N
Formula: C20H21NO3
MW: 323
ExactMass: 323.152143
CASNO: 0
ID: 3311
Comment: Provided by www.caymanchem.com/app/template/landing%2CForensic.vm / Item #11977  Lot #0441477
Num Peaks: 165
40 9; 41 75; 42 10; 43 104; 44 3; 
45 193; 50 6; 51 12; 52 6; 53 10; 
55 13; 57 6; 58 8; 62 12; 63 32; 
64 21; 65 158; 66 13; 67 8; 69 79; 
70 5; 71 18; 73 4; 74 7; 75 26; 
76 24; 77 34; 78 12; 79 4; 83 7; 
85 223; 86 17; 87 9; 88 20; 89 51; 
90 10; 91 13; 93 181; 94 38; 95 5; 
96 7; 101 40; 102 90; 103 33; 104 6; 
107 17; 108 4; 110 7; 111 6; 114 19; 
115 70; 116 67; 117 39; 118 76; 119 18; 
121 999; 122 89; 123 6; 124 9; 125 7; 
126 9; 127 11; 128 74; 129 98; 130 116; 
131 23; 132 18; 133 7; 139 10; 140 11; 
141 9; 142 6; 144 298; 145 35; 146 10; 
147 6; 150 6; 151 16; 152 45; 153 24; 
154 28; 155 7; 156 34; 158 111; 159 16; 
163 20; 164 12; 165 35; 166 8; 167 14; 
168 9; 169 8; 170 35; 171 9; 176 9; 
177 13; 178 17; 179 7; 180 21; 181 26; 
182 10; 184 62; 185 7; 186 13; 190 13; 
191 24; 192 18; 193 12; 194 11; 197 5; 
202 124; 203 15; 204 18; 205 10; 206 10; 
207 16; 208 110; 209 28; 210 7; 212 6; 
217 5; 220 32; 221 18; 222 31; 224 13; 
228 8; 230 68; 231 11; 232 6; 233 14; 
234 24; 235 15; 236 29; 237 78; 238 102; 
239 22; 248 15; 250 361; 251 95; 252 69; 
253 13; 262 36; 263 18; 264 15; 265 10; 
266 5; 276 7; 277 7; 278 24; 279 19; 
281 12; 290 16; 291 5; 294 34; 304 12; 
305 25; 306 20; 307 7; 308 25; 309 7; 
321 27; 323 466; 324 121; 325 16; 326 4; 
