Name: JWH-081 N-(5-hydroxypentyl) metabolite
Synon: (1-(5-hydroxypentyl)-1H-indol-3-yl)(4-methoxynaphthalen-1-yl)methanone
InChIKey: MCDCEPNRUDLEJP-UHFFFAOYSA-N
Formula: C25H25NO3
MW: 387
ExactMass: 387.183443
CASNO: 0
ID: 3317
Comment: Provided by www.caymanchem.com/app/template/landing%2CForensic.vm / Item #9000768  Lot #0427514
Num Peaks: 207
40 19; 41 416; 42 18; 43 91; 45 39; 
50 11; 51 22; 53 39; 55 56; 57 62; 
62 14; 63 40; 65 24; 67 48; 69 165; 
70 14; 73 1; 74 25; 75 31; 76 39; 
77 61; 78 31; 79 12; 85 65; 86 23; 
87 36; 88 96; 89 145; 90 25; 93 11; 
94 17; 95 10; 99 12; 100 10; 101 91; 
102 153; 103 69; 104 11; 106 15; 107 18; 
108 29; 109 39; 113 115; 114 518; 115 252; 
116 278; 117 63; 118 24; 119 18; 120 17; 
121 122; 122 30; 126 96; 127 279; 128 362; 
129 239; 130 113; 131 24; 132 27; 134 20; 
135 116; 136 38; 137 15; 139 28; 140 28; 
141 33; 142 244; 143 133; 144 742; 145 79; 
147 15; 149 73; 150 59; 151 15; 152 17; 
153 14; 154 50; 155 51; 157 587; 158 107; 
162 12; 163 21; 164 11; 166 13; 167 28; 
168 27; 169 47; 170 80; 171 122; 172 242; 
173 44; 174 23; 175 28; 176 19; 178 12; 
181 11; 182 14; 183 72; 185 999; 186 159; 
187 48; 188 14; 189 19; 193 18; 197 397; 
198 132; 199 28; 200 81; 201 102; 202 197; 
203 61; 204 16; 211 23; 212 28; 213 80; 
214 35; 215 51; 216 34; 217 12; 224 11; 
226 23; 227 80; 228 300; 230 603; 231 87; 
232 13; 238 12; 239 25; 240 97; 241 268; 
242 141; 243 51; 244 14; 249 11; 252 15; 
253 57; 254 148; 255 58; 256 105; 257 171; 
258 73; 259 23; 265 20; 266 10; 267 27; 
268 20; 269 120; 270 217; 271 101; 272 86; 
273 26; 274 12; 279 11; 282 90; 283 58; 
284 193; 285 266; 286 158; 287 39; 288 150; 
289 18; 294 24; 296 34; 297 68; 298 89; 
299 158; 300 459; 301 138; 302 208; 303 45; 
310 21; 311 30; 312 49; 314 631; 315 154; 
316 26; 324 18; 326 51; 327 24; 328 34; 
329 17; 338 26; 339 16; 340 52; 341 30; 
342 46; 343 13; 344 53; 345 14; 352 25; 
353 14; 354 49; 355 51; 356 112; 357 58; 
358 34; 359 11; 368 64; 370 383; 371 97; 
372 35; 373 13; 384 21; 386 363; 387 954; 
388 279; 389 37; 
