Name: JWH-018 N-(5-hydroxypentyl) metabolite
Synon: (1-(5-hydroxypentyl)-1H-indol-3-yl)(naphthalen-1-yl)methanone
InChIKey: UGHBAICDASCCIQ-UHFFFAOYSA-N
Formula: C24H23NO2
MW: 357
ExactMass: 357.172878
CASNO: 335161212
ID: 3318
Comment: Provided by www.caymanchem.com/app/template/landing%2CForensic.vm / Item #9000855  Lot #0420608
Num Peaks: 190
41 197; 42 10; 43 37; 45 17; 50 11; 
51 26; 52 10; 53 13; 54 6; 55 39; 
57 24; 62 9; 63 25; 64 7; 67 29; 
68 6; 69 85; 70 10; 73 15; 74 22; 
75 49; 76 35; 77 102; 78 17; 85 27; 
86 8; 87 9; 88 22; 89 74; 90 22; 
91 7; 94 13; 96 9; 98 5; 99 11; 
100 23; 101 89; 102 106; 103 36; 104 5; 
106 10; 112 8; 113 32; 114 47; 115 117; 
116 157; 117 40; 118 12; 119 9; 121 39; 
122 6; 124 6; 125 16; 126 149; 127 999; 
128 289; 129 87; 130 107; 131 18; 132 9; 
133 17; 134 18; 135 14; 139 40; 142 266; 
143 61; 144 469; 145 53; 146 5; 147 11; 
149 9; 150 7; 151 10; 152 11; 153 9; 
154 30; 155 465; 156 84; 157 17; 158 16; 
163 19; 165 10; 167 149; 168 23; 169 11; 
170 36; 171 19; 172 78; 173 14; 174 9; 
177 6; 181 8; 182 6; 184 22; 185 6; 
186 9; 187 17; 188 10; 189 10; 190 6; 
191 6; 194 7; 196 7; 198 21; 199 6; 
200 31; 202 75; 203 24; 207 23; 210 6; 
211 8; 212 13; 213 83; 214 51; 215 60; 
216 12; 217 7; 224 12; 225 13; 226 47; 
227 25; 228 52; 230 554; 231 79; 232 13; 
237 7; 238 15; 239 29; 240 85; 241 218; 
242 76; 243 36; 244 6; 249 8; 251 20; 
252 18; 253 50; 254 239; 255 122; 256 111; 
257 23; 258 5; 265 14; 266 49; 267 77; 
268 59; 270 604; 271 138; 272 83; 273 16; 
279 6; 280 28; 281 8; 282 76; 284 614; 
285 166; 286 27; 287 5; 292 6; 293 7; 
294 17; 295 8; 296 46; 297 19; 298 16; 
299 6; 308 17; 309 10; 310 51; 311 19; 
312 11; 313 6; 322 19; 323 7; 324 13; 
325 29; 326 38; 327 42; 328 11; 329 11; 
338 56; 340 260; 341 91; 342 9; 353 9; 
354 9; 356 245; 357 693; 358 168; 359 21; 
