Name: JWH-019 N-(6-hydroxyhexyl) metabolite
Synon: (1-(6-hydroxyhexyl)-1H-indol-3-yl)(naphthalen-1-yl)methanone
InChIKey: LBVZVDUWOZUDJT-UHFFFAOYSA-N
Formula: C25H25NO2
MW: 371
ExactMass: 371.18853
CASNO: 0
ID: 3322
Comment: Provided by www.caymanchem.com/app/template/landing%2CForensic.vm / Item #9000765  Lot #0427511
Num Peaks: 181
40 9; 41 178; 42 12; 43 76; 44 9; 
45 13; 50 11; 51 14; 53 20; 55 217; 
56 11; 57 17; 59 9; 62 9; 63 17; 
65 8; 67 17; 71 7; 73 20; 74 8; 
75 51; 76 30; 77 134; 78 25; 79 10; 
81 14; 82 9; 83 11; 87 15; 88 19; 
89 61; 90 17; 91 16; 99 8; 100 16; 
101 96; 102 127; 103 35; 104 12; 106 16; 
107 12; 113 33; 114 43; 115 100; 116 150; 
117 33; 118 14; 120 13; 121 25; 125 6; 
126 136; 127 999; 128 382; 129 160; 130 126; 
131 33; 132 19; 133 14; 134 10; 135 10; 
139 30; 140 22; 142 365; 144 510; 145 52; 
147 8; 149 11; 151 10; 152 15; 153 13; 
155 675; 156 116; 157 28; 158 32; 159 9; 
163 10; 164 9; 165 8; 167 198; 168 28; 
169 8; 170 46; 171 14; 172 21; 174 7; 
178 11; 179 7; 184 16; 185 12; 186 74; 
187 34; 188 14; 189 18; 191 2; 192 8; 
195 7; 198 16; 199 7; 200 23; 201 13; 
202 12; 203 16; 207 2; 209 3; 210 8; 
211 7; 212 12; 213 62; 214 67; 215 63; 
216 114; 217 33; 223 8; 224 18; 225 10; 
226 68; 227 33; 228 29; 229 13; 230 7; 
238 17; 239 34; 240 109; 241 200; 242 124; 
244 582; 245 100; 246 22; 251 11; 252 18; 
253 81; 254 300; 255 108; 256 106; 257 40; 
265 23; 266 48; 267 71; 268 75; 269 151; 
270 499; 271 106; 272 45; 273 13; 280 26; 
281 25; 282 112; 284 758; 285 213; 286 38; 
294 15; 296 54; 297 17; 298 62; 299 11; 
307 7; 308 8; 309 7; 310 29; 311 12; 
312 27; 322 8; 324 35; 325 14; 326 18; 
327 9; 338 9; 339 13; 340 32; 341 31; 
342 9; 343 7; 352 30; 354 281; 355 92; 
356 12; 357 12; 370 263; 371 634; 372 178; 
373 28; 
