Name: JWH-073 2-hydroxyindole metabolite
Synon: (1-Butyl-2-hydroxy-1H-indol-3-yl)(naphthalen-1-yl)methanone
InChIKey: HLQUZHWENOKGOT-UHFFFAOYSA-N
Formula: C23H21NO2
MW: 343
ExactMass: 343.157228
CASNO: 0
ID: 3326
Comment: Provided by www.caymanchem.com/app/template/landing%2CForensic.vm / Item #10633  Lot #0423925
Num Peaks: 175
41 207; 42 13; 43 14; 50 18; 51 39; 
52 9; 53 16; 55 34; 56 9; 57 80; 
58 3; 61 3; 62 10; 63 42; 64 9; 
65 13; 73 1; 74 18; 75 41; 76 57; 
77 127; 78 24; 79 4; 82 3; 86 8; 
87 15; 88 20; 89 111; 90 94; 91 27; 
92 4; 95 22; 98 8; 99 8; 100 18; 
101 71; 102 51; 103 90; 104 50; 105 10; 
107 27; 108 19; 109 5; 111 3; 112 4; 
113 20; 114 16; 115 34; 116 102; 117 162; 
118 30; 119 4; 121 22; 122 6; 126 140; 
127 973; 128 478; 129 60; 130 30; 131 35; 
132 31; 133 10; 136 17; 138 5; 139 55; 
140 19; 141 10; 144 81; 145 54; 146 17; 
147 4; 150 16; 151 13; 152 20; 153 6; 
155 726; 156 84; 157 7; 159 333; 160 71; 
161 10; 162 6; 163 26; 164 11; 165 8; 
166 3; 167 24; 168 17; 170 25; 172 476; 
173 316; 174 51; 175 13; 176 19; 177 7; 
178 5; 179 3; 180 2; 183 9; 184 5; 
185 7; 187 483; 188 76; 189 35; 190 11; 
191 4; 198 209; 199 31; 200 46; 201 31; 
202 85; 203 27; 204 6; 211 8; 212 9; 
213 78; 215 999; 216 155; 217 18; 218 3; 
224 11; 225 14; 226 28; 227 39; 228 49; 
229 38; 230 54; 231 20; 232 3; 237 2; 
238 13; 240 72; 241 111; 242 53; 243 18; 
244 14; 251 9; 252 19; 253 18; 254 58; 
255 22; 256 36; 257 34; 258 76; 259 16; 
266 3; 267 7; 268 15; 269 43; 270 38; 
271 10; 272 9; 278 2; 280 2; 282 11; 
283 8; 284 8; 286 56; 287 16; 288 3; 
296 3; 300 8; 301 5; 308 3; 310 6; 
314 4; 315 2; 325 29; 326 12; 327 5; 
341 3; 343 537; 344 148; 345 18; 346 2; 
