Name: JWH-122 N-(5-hydroxypentyl) metabolite
Synon: (1-(5-hydroxypentyl)-1H-indol-3-yl)(4-methylnaphthalen-1-yl)methanone
Synon: MAM2201 N-(5-hydroxypentyl) metabolite
InChIKey: JRALTDRFXRCGRH-UHFFFAOYSA-N
Formula: C25H25NO2
MW: 371
ExactMass: 371.18853
CASNO: 1379604688
ID: 3327
Comment: Provided by www.caymanchem.com/app/template/landing%2CForensic.vm / Item #10925  Lot #0440800
Num Peaks: 212
40 9; 41 350; 42 15; 43 62; 44 8; 
45 30; 50 13; 51 20; 52 9; 53 22; 
54 5; 55 44; 56 7; 57 40; 58 4; 
62 14; 63 38; 64 8; 65 27; 67 36; 
68 9; 69 136; 70 14; 71 4; 74 16; 
75 44; 76 38; 77 55; 78 18; 79 7; 
85 37; 86 7; 87 21; 88 31; 89 143; 
90 18; 91 36; 94 7; 95 4; 98 8; 
99 4; 100 42; 101 66; 102 133; 103 52; 
104 7; 105 6; 107 16; 108 5; 109 5; 
113 53; 115 794; 116 283; 117 53; 118 19; 
119 11; 120 17; 121 30; 126 37; 127 134; 
128 166; 129 132; 130 101; 131 20; 132 18; 
133 24; 134 63; 135 56; 137 10; 139 268; 
140 116; 141 706; 142 175; 144 576; 145 74; 
147 7; 148 30; 149 298; 151 15; 152 24; 
153 41; 154 31; 155 48; 156 42; 157 20; 
158 18; 161 4; 162 9; 163 7; 164 5; 
165 19; 166 11; 167 20; 169 594; 170 126; 
171 32; 172 107; 173 18; 174 7; 176 9; 
177 7; 178 6; 179 10; 181 252; 182 51; 
183 10; 184 28; 185 9; 186 11; 187 10; 
188 10; 189 21; 190 9; 195 10; 196 9; 
198 16; 199 7; 200 32; 201 17; 202 103; 
203 15; 204 8; 210 4; 211 10; 212 13; 
213 40; 214 50; 215 22; 216 5; 217 5; 
223 4; 224 11; 225 22; 226 93; 227 54; 
228 81; 230 490; 231 68; 232 13; 236 4; 
237 7; 238 16; 239 42; 240 88; 241 221; 
242 65; 243 10; 244 7; 249 5; 250 4; 
251 26; 252 34; 253 72; 254 277; 255 150; 
256 63; 257 17; 258 7; 265 20; 266 32; 
267 68; 268 206; 269 161; 270 146; 271 43; 
272 41; 273 5; 278 5; 280 42; 281 51; 
282 99; 284 591; 285 142; 286 114; 287 22; 
291 4; 293 5; 294 21; 295 9; 296 63; 
298 479; 299 100; 300 16; 308 12; 310 38; 
312 20; 322 6; 324 36; 325 12; 326 13; 
327 8; 336 24; 337 12; 338 45; 339 21; 
340 34; 341 16; 342 23; 343 13; 344 5; 
351 8; 352 43; 354 288; 355 95; 356 112; 
357 45; 358 5; 368 18; 370 364; 371 999; 
372 241; 373 40; 
