Name: JWH-200 7-hydroxyindole metabolite
Synon: 7-Hydroxyl[1-[2-(4-morpholinyl)ethyl]-1H-indol-3-yl]-1-naphthalenyl-methanone
InChIKey: CMMGHZRATLHDKO-UHFFFAOYSA-N
Formula: C25H24N2O3
MW: 400
ExactMass: 400.178692
CASNO: 0
ID: 3329
Comment: Provided by www.caymanchem.com/app/template/landing%2CForensic.vm / Item #10747  Lot #0433211
Num Peaks: 158
41 8; 42 22; 43 3; 44 9; 45 3; 
50 1; 51 2; 54 10; 55 12; 56 74; 
57 4; 58 1; 60 1; 62 2; 63 5; 
65 2; 68 1; 70 37; 71 5; 72 15; 
73 3; 74 1; 75 5; 76 6; 77 13; 
78 4; 79 1; 82 1; 83 1; 84 2; 
85 1; 87 1; 88 1; 89 13; 90 7; 
91 3; 92 1; 95 1; 96 1; 98 19; 
100 999; 101 76; 102 10; 103 8; 104 3; 
107 2; 108 1; 111 1; 112 3; 113 4; 
114 6; 115 4; 116 10; 117 15; 118 3; 
119 1; 121 2; 125 1; 126 14; 127 85; 
128 39; 129 5; 130 4; 131 4; 132 1; 
133 3; 134 1; 135 3; 136 4; 139 2; 
140 1; 141 3; 142 1; 144 5; 145 8; 
146 2; 147 2; 149 1; 150 1; 151 1; 
152 2; 155 39; 156 6; 157 1; 158 1; 
159 5; 160 2; 163 2; 164 1; 165 1; 
167 1; 171 1; 172 4; 173 2; 174 1; 
175 1; 176 2; 177 1; 178 1; 184 1; 
185 5; 186 5; 187 3; 189 2; 193 1; 
199 1; 200 6; 201 3; 202 6; 203 1; 
204 1; 207 1; 212 2; 213 3; 214 4; 
215 3; 226 3; 227 3; 228 5; 229 2; 
230 2; 238 1; 240 7; 241 4; 242 3; 
243 3; 244 1; 252 1; 253 3; 254 8; 
255 3; 256 5; 257 3; 258 2; 259 1; 
265 1; 267 2; 268 1; 269 2; 270 8; 
271 5; 272 3; 280 2; 282 1; 283 1; 
285 1; 286 3; 287 2; 288 2; 293 1; 
298 3; 300 15; 301 3; 327 2; 398 1; 
400 33; 401 8; 402 2; 
