Name: JWH-200 6-hydroxyindole metabolite
Synon: 6-Hydroxyl[1-[2-(4-morpholinyl)ethyl]-1H-indol-3-yl]-1-naphthalenyl-methanone
InChIKey: PRMFDACRPWNMJK-UHFFFAOYSA-N
Formula: C25H24N2O3
MW: 400
ExactMass: 400.178692
CASNO: 0
ID: 3330
Comment: Provided by www.caymanchem.com/app/template/landing%2CForensic.vm / Item #10746  Lot #0442127
Num Peaks: 95
41 9; 42 20; 43 4; 44 2; 45 3; 
50 2; 51 3; 54 4; 55 17; 56 71; 
57 7; 58 2; 63 4; 65 3; 70 34; 
71 4; 72 16; 73 7; 74 3; 75 2; 
76 5; 77 12; 78 4; 80 3; 82 3; 
87 3; 89 15; 90 8; 91 5; 96 4; 
98 20; 100 999; 101 67; 102 7; 103 5; 
105 3; 107 2; 112 3; 113 5; 114 3; 
115 3; 116 5; 117 4; 118 3; 127 72; 
128 10; 130 3; 131 4; 132 4; 133 4; 
135 2; 139 2; 140 2; 144 9; 145 6; 
146 3; 155 46; 157 2; 159 5; 163 3; 
176 2; 187 2; 188 2; 189 4; 190 2; 
193 3; 202 9; 203 2; 207 2; 208 1; 
209 4; 213 3; 227 7; 228 3; 240 2; 
241 5; 242 4; 251 2; 253 5; 254 6; 
256 4; 257 4; 270 7; 271 9; 272 2; 
282 7; 283 4; 284 3; 299 5; 300 13; 
325 3; 327 3; 341 4; 400 38; 401 14; 
