Name: JWH-200 5-hydroxyindole metabolite
Synon: 5-Hydroxyl[1-[2-(4-morpholinyl)ethyl]-1H-indol-3-yl]-1-naphthalenyl-methanone
InChIKey: VTWRVIWPNCLGLT-UHFFFAOYSA-N
Formula: C25H24N2O3
MW: 400
ExactMass: 400.178692
CASNO: 133438729
ID: 3331
Comment: Provided by www.caymanchem.com/app/template/landing%2CForensic.vm / Item #10745  Lot #0438507
Num Peaks: 146
41 5; 42 22; 43 3; 44 8; 45 2; 
50 1; 51 3; 53 1; 54 5; 55 13; 
56 61; 57 4; 58 1; 63 5; 64 1; 
65 1; 68 2; 69 3; 70 33; 71 3; 
72 14; 73 1; 74 3; 75 4; 76 5; 
77 11; 78 1; 80 1; 82 1; 83 1; 
84 1; 85 3; 86 1; 87 3; 89 8; 
90 7; 91 1; 98 16; 100 999; 101 68; 
102 5; 103 4; 104 1; 105 2; 107 1; 
112 2; 113 3; 114 3; 115 1; 116 5; 
117 6; 118 2; 119 1; 121 1; 126 14; 
127 78; 128 18; 129 2; 130 2; 131 4; 
133 1; 135 2; 136 1; 139 2; 141 2; 
142 1; 144 8; 145 13; 146 3; 147 1; 
150 3; 155 46; 156 5; 157 1; 159 6; 
160 3; 163 1; 167 1; 170 1; 173 1; 
174 1; 176 2; 177 1; 185 2; 186 2; 
187 2; 189 2; 191 1; 200 3; 201 2; 
202 6; 207 3; 208 1; 209 1; 213 3; 
214 2; 215 3; 216 2; 219 1; 226 2; 
227 2; 228 5; 229 1; 230 1; 231 1; 
238 1; 239 1; 240 4; 241 3; 242 3; 
243 2; 244 2; 249 1; 253 2; 254 6; 
255 2; 256 3; 257 3; 258 2; 267 2; 
268 1; 270 11; 271 4; 272 1; 282 4; 
283 3; 284 3; 285 2; 286 3; 287 1; 
296 1; 298 6; 299 9; 300 18; 301 6; 
311 1; 312 2; 313 1; 314 1; 327 1; 
331 1; 341 1; 398 1; 400 30; 401 7; 
402 1; 
