Name: JWH-210 N-(4-hydroxypentyl) metabolite
Synon: (4-Ethylnaphthalen-1-yl)(1-(4-hydroxypentyl)-1H-indol-3-yl)methanone
InChIKey: QRNSSTWZDKYLOO-UHFFFAOYSA-N
Formula: C26H27NO2
MW: 385
ExactMass: 385.20418
CASNO: 0
ID: 3334
Comment: Provided by www.caymanchem.com/app/template/landing%2CForensic.vm / Item #10940  Lot #0440802
Num Peaks: 200
41 194; 43 266; 44 13; 45 355; 46 16; 
51 13; 53 11; 55 20; 57 12; 58 13; 
62 13; 63 17; 65 13; 67 15; 69 189; 
70 15; 71 29; 73 7; 74 16; 75 32; 
76 30; 77 61; 78 22; 85 363; 86 17; 
87 20; 88 16; 89 81; 90 12; 91 21; 
99 10; 100 10; 101 40; 102 141; 103 34; 
106 31; 107 7; 113 22; 114 34; 115 216; 
116 206; 117 67; 118 50; 119 20; 120 18; 
121 24; 126 59; 127 148; 128 264; 129 328; 
130 162; 131 26; 132 14; 134 43; 135 12; 
139 229; 140 156; 141 120; 142 98; 144 674; 
145 72; 146 11; 147 15; 148 25; 149 32; 
150 14; 151 60; 152 200; 153 345; 154 215; 
155 242; 157 58; 158 121; 159 18; 162 12; 
163 13; 164 8; 165 23; 166 11; 167 53; 
168 26; 169 68; 170 62; 171 14; 174 11; 
177 13; 178 12; 179 10; 180 14; 181 31; 
183 709; 184 202; 185 27; 186 19; 187 16; 
189 12; 193 8; 195 183; 196 32; 197 15; 
200 26; 202 165; 203 19; 210 12; 212 39; 
213 32; 214 45; 215 26; 216 8; 221 9; 
224 9; 225 17; 226 65; 227 44; 228 76; 
230 304; 231 36; 232 8; 237 15; 239 57; 
240 55; 241 116; 242 64; 243 16; 244 8; 
251 23; 252 36; 253 104; 254 396; 255 161; 
256 89; 257 25; 264 18; 265 21; 266 62; 
267 130; 268 123; 269 111; 270 179; 271 43; 
272 40; 273 9; 278 24; 279 19; 280 61; 
281 14; 282 349; 283 260; 284 129; 285 23; 
286 9; 292 7; 293 19; 294 43; 295 53; 
296 113; 298 999; 299 229; 300 254; 301 63; 
302 10; 307 11; 308 52; 310 90; 311 75; 
312 399; 313 96; 314 58; 315 15; 320 10; 
322 16; 324 176; 325 38; 326 35; 327 9; 
336 19; 338 77; 339 30; 340 46; 341 29; 
342 22; 350 36; 351 15; 352 32; 353 10; 
354 10; 356 33; 357 18; 366 36; 367 55; 
368 113; 369 23; 370 40; 371 10; 372 12; 
383 67; 385 604; 386 163; 387 21; 389 9; 
