Name: 4-Methylthioamphetamine
Synon: MTA
Synon: 4-MTA
Synon: P 1882
Synon: .alpha.-Methyl-4-(methylthio)-benzeneethanamine
InChIKey: OLEWMKVPSUCNLG-UHFFFAOYSA-N
Formula: C10H15NS
MW: 181
ExactMass: 181.092521
CASNO: 94784926
ID: 3336
Comment: ENFSI / Microgram, Vol. XXXI, No.6, June 1998, pp 174-180
Num Peaks: 54
38 7; 39 33; 40 18; 41 14; 42 57; 
44 999; 45 51; 46 8; 50 16; 51 25; 
52 11; 53 7; 56 7; 58 7; 62 6; 
63 34; 64 12; 65 22; 69 21; 70 7; 
71 8; 75 8; 76 7; 77 39; 78 54; 
79 12; 82 9; 89 36; 90 12; 91 61; 
92 10; 93 6; 104 6; 108 5; 109 6; 
115 19; 116 8; 117 22; 118 13; 119 15; 
121 79; 122 89; 123 43; 124 9; 133 6; 
134 10; 137 94; 138 271; 139 36; 140 16; 
150 11; 164 6; 165 6; 181 7; 
