Name: RCS-4 M10 Metabolite
Synon: RCS-4 N-(5-hydroxypentyl)phenol metabolite
Synon: (1-(5-hydroxypentyl)-1H-indol-3-yl)(4-hydroxyphenyl)methanone
InChIKey: MNXXREQGUWIZBH-UHFFFAOYSA-N
Formula: C20H21NO3
MW: 323
ExactMass: 323.152143
CASNO: 0
ID: 3345
Comment: Provided by www.caymanchem.com/app/template/landing%2CForensic.vm / Item #11978  Lot #0443479
Num Peaks: 182
41 182; 42 21; 43 36; 44 6; 45 13; 
50 11; 51 20; 52 5; 53 19; 54 6; 
55 28; 57 19; 62 13; 63 41; 64 22; 
65 184; 66 15; 67 16; 69 66; 71 3; 
73 2; 74 12; 75 32; 76 31; 77 41; 
78 11; 79 3; 83 3; 84 4; 85 20; 
86 3; 87 12; 88 25; 89 80; 90 16; 
91 11; 92 22; 93 210; 94 29; 96 8; 
101 33; 102 80; 103 30; 104 9; 105 4; 
107 9; 109 3; 110 4; 112 14; 113 6; 
114 34; 115 115; 116 105; 117 48; 119 10; 
121 999; 122 85; 123 9; 125 14; 126 9; 
127 22; 128 81; 129 70; 130 143; 131 26; 
132 19; 133 5; 135 4; 137 4; 139 22; 
140 12; 141 8; 142 9; 143 60; 144 265; 
145 29; 146 7; 147 4; 149 3; 150 12; 
151 27; 152 65; 153 28; 154 21; 155 8; 
156 26; 157 13; 158 33; 159 5; 163 11; 
164 10; 165 27; 166 11; 167 15; 168 7; 
169 8; 170 41; 172 254; 173 34; 174 15; 
175 3; 176 5; 177 15; 178 20; 179 14; 
180 32; 181 26; 182 7; 183 4; 184 49; 
185 10; 186 3; 188 2; 190 16; 191 23; 
192 30; 193 14; 194 14; 195 5; 197 3; 
198 7; 200 15; 202 155; 203 32; 204 20; 
205 8; 206 14; 207 11; 208 195; 209 37; 
210 12; 212 3; 214 2; 217 2; 218 3; 
219 3; 220 26; 221 12; 222 42; 223 4; 
224 4; 228 7; 230 220; 231 33; 232 12; 
233 12; 234 11; 235 14; 236 23; 237 42; 
238 11; 246 4; 248 18; 250 521; 251 147; 
252 27; 253 10; 262 13; 263 3; 264 22; 
265 6; 274 3; 276 32; 277 7; 278 15; 
279 4; 281 1; 290 8; 291 5; 292 25; 
293 16; 294 50; 295 9; 304 8; 305 8; 
306 18; 307 5; 321 21; 323 547; 324 115; 
325 16; 326 4; 
