Name: 3-Methoxy PCP
Synon: 3-MeO-PCP
Synon: 3-Methoxyphencyclidine
Synon: 1-[1-(3-methoxyphenyl)cyclohexyl]piperidine
InChIKey: BQQSZHHKGPOXLN-UHFFFAOYSA-N
Formula: C18H27NO
MW: 273
ExactMass: 273.209265
CASNO: 91164588
ID: 3354
Comment: Provided by www.caymanchem.com/app/template/landing%2CForensic.vm / Item #11137  Lot #0445154 / SWGDRUG Monograph available
Num Peaks: 192
40 14; 41 96; 42 53; 43 21; 44 18; 
45 5; 47 1; 50 9; 51 17; 52 11; 
53 24; 54 17; 55 86; 56 45; 57 15; 
58 2; 59 2; 62 5; 63 23; 64 19; 
65 47; 66 9; 67 37; 68 18; 69 23; 
70 9; 71 2; 72 3; 73 5; 74 5; 
75 6; 76 17; 77 118; 78 58; 79 79; 
80 32; 81 122; 82 29; 83 35; 84 199; 
85 32; 86 21; 87 11; 88 11; 89 31; 
90 31; 91 163; 92 47; 93 12; 94 14; 
95 7; 96 9; 97 2; 98 7; 99 2; 
100 2; 101 10; 102 36; 103 54; 104 39; 
105 26; 106 11; 107 27; 108 34; 109 14; 
110 9; 111 2; 112 1; 113 3; 115 123; 
116 33; 117 49; 118 29; 119 16; 121 346; 
122 60; 123 6; 124 10; 125 6; 126 3; 
127 34; 128 51; 129 66; 130 23; 131 29; 
132 26; 133 36; 134 102; 135 34; 136 11; 
137 3; 138 2; 139 2; 140 2; 141 18; 
142 12; 143 11; 144 38; 145 40; 146 26; 
147 87; 148 26; 149 8; 150 5; 152 2; 
153 5; 154 3; 155 6; 157 25; 158 23; 
159 75; 160 69; 161 18; 162 8; 163 1; 
164 10; 166 254; 167 27; 168 3; 169 2; 
170 3; 171 7; 172 13; 173 49; 174 31; 
175 13; 176 4; 177 1; 184 7; 186 22; 
188 160; 189 52; 190 53; 192 8; 193 3; 
195 1; 197 1; 198 4; 199 4; 200 9; 
201 8; 202 19; 203 4; 204 5; 205 2; 
207 9; 208 2; 210 1; 211 1; 212 2; 
213 1; 214 4; 216 177; 217 27; 218 7; 
222 1; 223 1; 224 1; 226 2; 227 2; 
228 9; 230 999; 231 194; 232 18; 233 2; 
236 1; 239 1; 240 1; 241 1; 242 8; 
244 14; 245 2; 247 1; 249 2; 250 1; 
251 1; 253 1; 255 2; 256 1; 258 23; 
259 3; 260 1; 261 3; 265 1; 267 2; 
268 1; 269 2; 270 2; 272 308; 273 299; 
274 47; 275 7; 
