Name: 4-Methoxy-PCP
Synon: 1-[1-(4-methoxyphenyl)cyclohexyl]piperidine
Synon: 4-MeO-PCP
Synon: Methoxydine
Synon: 4-Methoxyphencyclidine
InChIKey: MUZGGFNYVLGUFS-UHFFFAOYSA-N
Formula: C18H27NO
MW: 273
ExactMass: 273.209265
CASNO: 2185935
ID: 3355
Comment: Provided by www.caymanchem.com/app/template/landing%2CForensic.vm / Item #11136  Lot #0444879 / SWGDRUG Monograph available
Num Peaks: 148
41 111; 42 66; 43 25; 44 12; 45 4; 
50 9; 51 19; 52 9; 53 29; 54 25; 
55 91; 56 48; 57 20; 58 2; 61 1; 
62 5; 63 24; 64 15; 65 38; 66 9; 
67 24; 68 14; 69 20; 70 10; 71 1; 
74 5; 75 8; 77 98; 78 49; 79 57; 
80 26; 81 94; 82 18; 84 131; 85 32; 
86 11; 87 7; 89 37; 90 34; 91 123; 
92 33; 93 11; 94 12; 95 3; 96 5; 
98 9; 99 1; 101 6; 102 27; 103 49; 
104 22; 105 19; 106 8; 107 22; 108 32; 
109 12; 110 6; 111 2; 113 2; 115 126; 
116 38; 117 69; 118 27; 119 32; 121 999; 
122 94; 123 7; 124 7; 125 1; 127 25; 
128 59; 129 80; 130 26; 131 33; 132 39; 
133 78; 134 95; 135 24; 137 10; 138 1; 
139 3; 141 17; 142 10; 143 11; 144 36; 
145 67; 147 213; 148 33; 149 11; 150 5; 
151 1; 152 4; 153 4; 154 2; 155 4; 
157 32; 158 31; 159 118; 160 146; 161 29; 
162 9; 163 1; 164 5; 166 107; 167 13; 
168 1; 169 2; 170 3; 171 6; 172 14; 
173 65; 174 28; 175 8; 176 8; 177 1; 
184 5; 185 4; 186 12; 188 332; 189 621; 
190 97; 191 12; 192 4; 198 1; 199 3; 
200 6; 201 7; 202 14; 203 3; 204 9; 
205 1; 214 4; 216 132; 217 24; 218 3; 
228 6; 230 596; 231 97; 232 9; 242 1; 
244 15; 245 2; 258 3; 270 1; 272 304; 
273 268; 274 46; 275 4; 
