Name: epi-CP 47,497
Synon: 3-trans-CP 47,497
Synon: rel-2[(1S,3S)-3-hydroxycyclohexyl]-5-(2-methoxyoctan-2-yl)phenol
InChIKey: ZWWRREXSUJTKNN-WMZOPIPTSA-N
Formula: C21H34O2
MW: 318
ExactMass: 318.25588
CASNO: 0
ID: 3359
Comment: Provided by www.caymanchem.com/app/template/landing%2CForensic.vm / Item #13801  Lot #0443404
Num Peaks: 170
41 237; 42 30; 43 300; 44 38; 45 5; 
50 2; 51 8; 53 35; 55 105; 56 19; 
57 95; 58 9; 62 1; 63 6; 64 2; 
65 25; 66 8; 67 27; 69 48; 70 6; 
71 37; 72 6; 73 1; 74 1; 75 3; 
77 56; 78 17; 79 83; 81 204; 82 15; 
83 8; 84 3; 85 22; 86 7; 87 1; 
88 1; 89 7; 91 106; 92 12; 93 17; 
94 5; 95 16; 97 26; 98 4; 99 1; 
100 2; 101 1; 102 8; 103 29; 104 9; 
105 49; 107 117; 108 11; 109 3; 115 69; 
116 21; 117 44; 118 9; 119 26; 120 14; 
121 48; 122 3; 123 2; 127 27; 128 48; 
129 33; 130 12; 131 62; 132 19; 133 114; 
134 24; 135 67; 136 9; 137 3; 139 2; 
140 1; 141 22; 142 10; 143 14; 144 22; 
145 60; 146 22; 147 124; 148 47; 149 14; 
150 2; 151 1; 152 7; 153 12; 154 6; 
155 10; 156 5; 157 33; 158 17; 159 44; 
160 22; 161 157; 162 33; 163 6; 164 1; 
165 8; 166 2; 167 3; 168 2; 169 9; 
170 5; 171 35; 172 27; 173 50; 174 19; 
175 14; 176 8; 177 3; 178 2; 179 2; 
181 2; 182 1; 183 4; 184 4; 185 22; 
187 80; 188 13; 189 7; 190 3; 191 2; 
195 1; 197 4; 198 2; 199 13; 201 42; 
202 8; 203 3; 205 6; 209 3; 210 2; 
211 6; 213 26; 215 999; 216 258; 217 35; 
218 5; 219 9; 220 2; 221 1; 227 3; 
228 3; 229 6; 230 8; 231 37; 233 655; 
234 121; 235 12; 243 1; 244 8; 246 32; 
247 7; 249 1; 257 9; 258 6; 273 2; 
281 1; 285 3; 298 2; 300 92; 301 17; 
302 3; 303 1; 316 4; 318 57; 319 12; 
