Name: 2,4-Dimethylethcathinone
Synon: 2,4-DMEC
Synon: 1-(2,4-dimethylphenyl)-2-(ethylamino)propan-1-one
InChIKey: SJPGBKUKQFPPPH-UHFFFAOYSA-N
Formula: C13H19NO
MW: 205
ExactMass: 205.146665
CASNO: 0
ID: 3360
Comment: Provided by www.caymanchem.com/app/template/landing%2CForensic.vm / Item #11242  Lot #0443093
Num Peaks: 74
40 4; 41 10; 42 53; 44 172; 45 5; 
50 5; 51 17; 52 7; 53 10; 54 2; 
55 4; 56 29; 57 7; 61 1; 62 4; 
63 14; 64 3; 65 13; 66 2; 68 1; 
70 52; 72 999; 73 52; 74 2; 75 3; 
76 4; 77 85; 78 34; 79 55; 80 4; 
87 2; 89 7; 90 2; 91 18; 92 1; 
93 1; 101 1; 102 9; 103 47; 104 15; 
105 56; 106 6; 107 1; 115 7; 116 3; 
117 5; 118 1; 119 8; 120 1; 127 1; 
128 4; 129 2; 130 2; 131 4; 132 4; 
133 48; 134 5; 142 1; 144 2; 145 3; 
146 1; 147 1; 157 1; 158 2; 159 1; 
160 3; 162 1; 172 5; 174 2; 187 3; 
188 4; 189 1; 190 1; 201 1; 
