Name: 3C-B-fly
Synon: 8-Bromo-2,3,6,7-tetrahydro-.alpha.-methyl-benzo[1,2-b:4,5-b']difuran-4-ethanamine
InChIKey: FKRREVSELFOLDT-UHFFFAOYSA-N
Formula: C13H16BrNO2
MW: 297
ExactMass: 297.036442
CASNO: 178557192
ID: 3362
Comment: Provided by www.caymanchem.com/app/template/landing%2CForensic.vm / Item #13963  Lot #0442911
Num Peaks: 137
40 7; 41 16; 42 44; 44 999; 45 26; 
50 10; 51 31; 52 21; 53 21; 54 3; 
55 4; 56 2; 57 4; 60 2; 61 1; 
62 10; 63 27; 64 9; 65 37; 66 13; 
67 11; 68 3; 69 1; 70 1; 72 4; 
73 4; 74 8; 75 11; 76 10; 77 43; 
78 21; 79 40; 80 16; 81 6; 82 4; 
86 5; 87 9; 88 6; 89 25; 90 12; 
91 74; 92 11; 93 7; 94 5; 99 1; 
101 6; 102 14; 103 33; 104 12; 105 10; 
106 3; 107 2; 108 2; 109 1; 113 3; 
115 86; 116 21; 117 74; 118 26; 119 16; 
120 4; 121 1; 126 2; 127 12; 128 22; 
129 14; 130 8; 131 45; 132 13; 133 11; 
134 2; 135 2; 139 1; 141 5; 142 6; 
143 6; 144 8; 145 35; 146 15; 147 19; 
148 4; 155 3; 156 2; 157 5; 158 4; 
159 21; 160 11; 161 4; 169 3; 170 1; 
171 6; 172 5; 173 20; 174 40; 175 23; 
176 5; 181 1; 184 3; 185 4; 186 8; 
187 3; 188 1; 197 1; 198 2; 199 2; 
200 5; 201 2; 202 2; 203 6; 211 2; 
217 2; 225 1; 226 4; 227 2; 237 1; 
239 2; 240 2; 241 1; 251 6; 253 34; 
254 234; 255 59; 256 248; 257 29; 258 2; 
265 2; 266 1; 267 2; 268 1; 280 1; 
281 1; 282 4; 296 2; 297 29; 298 6; 
299 27; 300 4; 
