Name: AM1248 azepane isomer
Synon: (3,5,7)-Adamantan-1-yl(1-(1-methylazepan-3-yl)-1H-indol-3-yl)methanone
InChIKey: HSCSEKGAOWTVDH-UHFFFAOYSA-N
Formula: C26H34N2O
MW: 390
ExactMass: 390.267115
CASNO: 0
ID: 3363
Comment: Provided by www.caymanchem.com/app/template/landing%2CForensic.vm / Item #14068  Lot #0444052
Num Peaks: 145
40 8; 41 81; 42 127; 43 41; 44 47; 
45 3; 50 2; 51 7; 52 4; 53 16; 
54 4; 55 62; 56 20; 57 187; 58 428; 
59 17; 63 4; 65 14; 66 8; 67 76; 
68 14; 69 33; 70 71; 71 15; 72 3; 
73 3; 75 7; 77 66; 78 11; 79 154; 
80 17; 81 55; 82 58; 83 25; 84 284; 
85 42; 86 4; 88 4; 89 12; 90 4; 
91 58; 92 14; 93 131; 94 20; 95 5; 
96 45; 97 14; 98 124; 99 7; 101 16; 
102 9; 103 8; 104 2; 105 12; 106 3; 
107 56; 108 18; 110 56; 111 182; 112 999; 
113 87; 114 9; 115 62; 116 40; 117 14; 
118 5; 119 4; 126 3; 127 13; 128 26; 
129 14; 130 31; 131 3; 132 2; 133 5; 
135 180; 136 26; 140 5; 141 4; 142 8; 
143 29; 144 72; 145 9; 152 3; 153 2; 
154 21; 155 10; 156 23; 157 9; 158 23; 
159 2; 163 2; 165 4; 166 4; 167 15; 
168 21; 169 9; 170 83; 171 10; 179 3; 
180 8; 181 2; 182 17; 184 311; 185 51; 
186 6; 191 5; 193 4; 194 3; 195 22; 
196 13; 197 5; 198 8; 199 3; 207 3; 
209 4; 210 7; 211 3; 212 21; 213 3; 
225 14; 226 9; 227 59; 228 10; 251 3; 
253 18; 255 134; 256 25; 257 2; 277 2; 
279 3; 281 3; 292 4; 293 12; 294 5; 
306 3; 318 2; 319 4; 332 35; 333 7; 
346 2; 388 6; 390 168; 391 39; 392 5; 
