Name: 2C-T
Synon: 2,5-Dimethoxy-4-methylthiophenethylamine
Synon: 2,5-Dimethoxy-4-(methylthio)-benzeneethanamine
InChIKey: UPZMYCMLLQTYEM-UHFFFAOYSA-N
Formula: C11H17NO2S
MW: 227
ExactMass: 227.098
CASNO: 61638106
ID: 3368
Comment: Provided by www.caymanchem.com/app/template/landing%2CForensic.vm / Item #13957  Lot #0443323
Num Peaks: 121
40 8; 41 12; 42 15; 43 14; 45 57; 
46 9; 47 11; 50 19; 51 40; 52 11; 
53 41; 54 10; 55 15; 57 11; 58 9; 
59 10; 61 10; 62 12; 63 49; 64 27; 
65 51; 66 23; 67 46; 68 12; 69 40; 
70 19; 71 16; 72 10; 73 6; 74 10; 
75 17; 76 17; 77 93; 78 54; 79 58; 
80 13; 81 9; 82 14; 83 9; 84 16; 
85 55; 86 8; 87 7; 89 23; 90 21; 
91 122; 92 29; 93 42; 94 21; 95 19; 
96 34; 97 35; 98 6; 99 9; 100 5; 
103 7; 104 19; 105 41; 106 22; 107 46; 
108 45; 109 76; 110 27; 111 65; 112 9; 
113 4; 117 5; 118 9; 119 21; 120 22; 
121 78; 122 66; 123 49; 124 55; 125 28; 
126 4; 127 4; 132 8; 133 14; 134 18; 
135 39; 136 33; 137 101; 138 40; 139 56; 
140 22; 141 6; 147 7; 148 18; 149 19; 
150 15; 151 100; 152 170; 153 75; 154 30; 
155 23; 162 5; 163 7; 164 13; 165 10; 
167 298; 168 64; 169 23; 170 5; 179 8; 
180 8; 181 23; 183 510; 184 60; 185 25; 
186 5; 195 9; 197 455; 198 999; 199 141; 
200 44; 208 4; 210 6; 227 265; 228 30; 
229 16; 
