Name: 4-CAB
Synon: 4-Chloro-.alpha.-ethylphenethylamine
Synon: AEPCA
Synon: 4-Chlorophenylisobutylamine
InChIKey: BDZUAWTZJXBMLX-UHFFFAOYSA-N
Formula: C10H14ClN
MW: 183
ExactMass: 183.081477
CASNO: 23292082
ID: 3370
Comment: Provided by www.caymanchem.com/app/template/landing%2CForensic.vm / Item #13893  Lot #0445180
Num Peaks: 92
41 111; 42 39; 43 28; 44 3; 47 1; 
49 2; 50 12; 51 15; 52 5; 53 3; 
54 9; 56 38; 58 999; 59 52; 61 5; 
62 13; 63 43; 64 11; 65 22; 66 3; 
67 2; 68 1; 70 3; 72 1; 73 17; 
74 9; 75 25; 76 7; 77 32; 78 9; 
79 3; 80 2; 83 1; 84 3; 85 4; 
86 5; 87 4; 89 95; 90 32; 91 71; 
92 9; 93 1; 96 1; 97 1; 98 1; 
99 28; 100 2; 101 22; 102 14; 103 7; 
104 4; 105 1; 111 4; 112 2; 113 1; 
114 3; 115 9; 116 8; 117 22; 118 38; 
119 51; 120 5; 123 2; 125 117; 126 16; 
127 35; 128 9; 129 4; 130 6; 131 7; 
132 1; 136 2; 137 1; 138 4; 139 2; 
140 3; 144 1; 147 1; 149 1; 151 4; 
152 5; 154 75; 155 8; 156 23; 157 2; 
165 1; 166 1; 168 1; 181 2; 182 2; 
183 1; 184 1; 
