Name: 3,4-Dimethoxy-.alpha.-Pyrrolidinopropiophenone
Synon: 3,4-Dimethoxy-.alpha.-PVP
Synon: 1-(3,4-Dimethoxyphenyl)-2-(1-pyrrolidinyl)-1-pentanone
InChIKey: AGRVUDWDZKZCAA-UHFFFAOYSA-N
Formula: C17H25NO3
MW: 291
ExactMass: 291.183443
CASNO: 850351994
ID: 3373
Comment: Provided by www.caymanchem.com/app/template/landing%2CForensic.vm / Item #14106  Lot #0445071
Num Peaks: 89
40 2; 41 16; 42 20; 43 5; 44 1; 
50 1; 51 6; 52 1; 53 4; 54 7; 
55 24; 56 9; 57 2; 62 1; 63 4; 
64 3; 65 5; 66 7; 67 4; 68 9; 
69 27; 70 12; 71 1; 72 1; 73 1; 
74 1; 75 1; 76 8; 77 29; 78 6; 
79 36; 80 5; 81 3; 82 4; 84 29; 
85 1; 89 1; 90 1; 91 6; 92 14; 
93 3; 94 14; 95 4; 96 32; 97 25; 
98 8; 103 1; 104 3; 105 2; 107 14; 
108 3; 109 2; 110 13; 111 1; 115 1; 
117 1; 119 3; 120 3; 121 5; 122 11; 
123 4; 124 17; 126 999; 127 87; 128 3; 
131 1; 133 1; 135 1; 137 15; 138 3; 
147 1; 149 2; 151 4; 159 1; 162 1; 
165 41; 166 4; 176 1; 180 4; 189 1; 
190 1; 191 1; 192 1; 193 2; 207 1; 
216 1; 220 3; 222 1; 248 3; 
