Name: JWH-149
Synon: (4-Methyl-1-naphthalenyl)(2-methyl-1-pentyl-1H-indol-3-yl)-methanone
InChIKey: JTJAMXUOXJGSCW-UHFFFAOYSA-N
Formula: C26H27NO
MW: 369
ExactMass: 369.209265
CASNO: 548461821
ID: 3375
Comment: Provided by www.caymanchem.com/app/template/landing%2CForensic.vm / Item #13978  Lot #0443180
Num Peaks: 275
41 164; 43 330; 44 4; 45 2; 47 1; 
49 1; 50 4; 51 12; 52 2; 53 10; 
54 5; 55 45; 56 2; 57 2; 58 3; 
59 2; 61 1; 62 8; 63 23; 64 6; 
65 24; 66 3; 67 7; 68 2; 69 7; 
70 6; 71 11; 72 2; 73 5; 74 8; 
75 15; 76 16; 77 55; 78 14; 79 2; 
80 2; 83 1; 84 2; 86 4; 87 7; 
88 15; 89 48; 90 21; 91 31; 92 5; 
93 2; 94 1; 96 4; 98 3; 99 1; 
100 5; 101 27; 102 59; 103 74; 104 18; 
105 2; 106 7; 108 4; 109 1; 112 5; 
113 34; 115 790; 116 110; 117 50; 118 12; 
119 10; 120 19; 121 19; 122 9; 123 2; 
124 1; 125 6; 126 26; 127 67; 128 121; 
129 96; 130 138; 131 15; 133 24; 134 68; 
137 3; 139 227; 140 119; 141 750; 142 288; 
143 109; 144 73; 145 9; 147 23; 149 92; 
151 7; 152 28; 153 16; 154 26; 155 63; 
156 47; 157 66; 158 363; 159 40; 160 4; 
161 3; 162 1; 163 9; 164 10; 165 23; 
166 14; 167 46; 169 820; 170 143; 171 63; 
172 66; 173 6; 174 2; 175 1; 176 5; 
177 9; 178 7; 179 8; 180 6; 181 9; 
182 13; 184 51; 185 51; 186 24; 187 13; 
188 5; 189 11; 190 5; 191 3; 192 2; 
193 2; 195 20; 196 9; 197 5; 198 42; 
199 14; 200 22; 201 18; 202 22; 203 8; 
204 1; 205 1; 207 32; 208 6; 209 3; 
210 3; 211 7; 212 47; 213 39; 214 50; 
215 19; 216 6; 217 3; 219 2; 220 1; 
221 2; 222 1; 223 1; 224 11; 226 96; 
227 63; 228 307; 229 80; 230 12; 231 5; 
233 2; 235 1; 236 1; 237 8; 238 7; 
239 40; 240 31; 241 45; 242 47; 243 9; 
244 4; 245 1; 246 1; 249 1; 250 7; 
251 15; 252 24; 253 74; 254 225; 255 273; 
256 71; 257 22; 258 2; 259 1; 261 1; 
262 2; 263 3; 264 15; 265 27; 266 50; 
267 79; 268 116; 269 67; 270 79; 271 16; 
272 6; 273 2; 275 2; 276 1; 277 4; 
278 12; 279 17; 280 64; 281 54; 282 116; 
283 186; 284 454; 285 85; 286 16; 287 1; 
288 1; 290 1; 291 4; 292 4; 294 32; 
296 173; 297 79; 298 323; 299 92; 300 20; 
301 2; 303 2; 304 1; 305 2; 306 2; 
307 2; 308 8; 310 51; 312 384; 313 242; 
314 45; 315 8; 316 1; 320 1; 323 3; 
324 12; 326 108; 327 28; 328 2; 329 1; 
331 1; 332 1; 334 1; 335 1; 336 6; 
337 12; 338 12; 340 92; 341 27; 342 8; 
346 4; 347 2; 348 3; 349 2; 350 8; 
352 335; 354 961; 355 258; 356 34; 357 4; 
359 1; 361 2; 364 2; 365 2; 366 3; 
368 600; 369 999; 370 289; 371 32; 372 3; 
