Name: JWH-198
Synon: (4-Methoxy-1-naphthalenyl)[1-[2-(4-morpholinyl)ethyl]-1H-indol-3-yl]-methanone
InChIKey: QWHSUXWDDKWTOG-UHFFFAOYSA-N
Formula: C26H26N2O3
MW: 414
ExactMass: 414.194344
CASNO: 166599764
ID: 3377
Comment: Provided by www.caymanchem.com/app/template/landing%2CForensic.vm / Item #13981  Lot #0443017
Num Peaks: 127
41 5; 42 17; 43 3; 44 5; 45 2; 
51 1; 52 1; 54 5; 55 10; 56 65; 
57 4; 62 1; 63 2; 68 1; 70 29; 
71 3; 72 12; 73 2; 74 1; 75 3; 
76 4; 77 3; 78 1; 82 2; 83 1; 
84 1; 85 1; 86 1; 87 2; 88 5; 
89 4; 90 1; 98 13; 100 999; 101 66; 
102 16; 103 3; 107 1; 108 1; 112 2; 
113 5; 114 36; 115 12; 116 4; 117 1; 
121 2; 126 6; 127 18; 128 20; 129 15; 
130 3; 135 1; 139 1; 140 1; 141 2; 
142 12; 143 5; 144 2; 149 1; 150 2; 
154 1; 156 2; 157 17; 158 2; 163 1; 
169 1; 170 5; 171 2; 183 2; 185 52; 
186 9; 187 1; 197 2; 198 1; 199 1; 
200 3; 201 4; 202 3; 203 1; 207 1; 
208 1; 211 1; 213 3; 214 2; 215 4; 
225 1; 226 2; 227 2; 228 6; 229 2; 
230 1; 239 1; 240 3; 241 10; 242 6; 
243 2; 253 2; 254 7; 255 2; 256 3; 
257 1; 269 2; 270 7; 271 3; 272 1; 
281 1; 282 2; 283 1; 284 1; 285 2; 
298 2; 299 2; 300 1; 311 1; 312 1; 
314 11; 315 6; 326 1; 327 1; 341 1; 
369 8; 370 2; 397 1; 412 1; 414 25; 
415 8; 416 1; 
