Name: JWH-176
Synon: 1-[(E)-(3-pentyl-1H-inden-1-ylidene)methyl]-naphthalene
InChIKey: FPESBQVTVSBBSE-OQKWZONESA-N
Formula: C25H24
MW: 324
ExactMass: 324.187801
CASNO: 619294621
ID: 3378
Comment: Provided by www.caymanchem.com/app/template/landing%2CForensic.vm / Item #11617  Lot #0445051
Num Peaks: 176
41 81; 42 7; 43 11; 50 2; 51 4; 
52 1; 53 3; 55 15; 56 12; 57 13; 
62 2; 63 7; 64 1; 65 5; 66 1; 
67 1; 69 5; 70 3; 73 3; 74 4; 
75 5; 76 5; 77 14; 78 5; 79 1; 
86 2; 87 4; 88 3; 89 8; 91 7; 
94 1; 95 2; 96 1; 98 1; 99 1; 
100 3; 101 8; 102 8; 103 3; 106 2; 
107 6; 111 2; 113 28; 114 13; 115 56; 
116 7; 117 2; 120 33; 121 6; 123 1; 
125 24; 126 132; 128 25; 129 14; 132 68; 
133 83; 134 60; 137 8; 138 20; 139 35; 
141 107; 142 17; 143 4; 145 3; 147 1; 
148 2; 150 10; 151 15; 152 31; 153 27; 
154 7; 155 6; 156 1; 162 20; 163 18; 
164 13; 165 45; 166 11; 167 8; 168 2; 
174 3; 175 4; 176 10; 177 3; 178 6; 
179 3; 180 1; 181 4; 182 2; 183 9; 
184 2; 185 1; 186 2; 187 10; 188 6; 
189 26; 190 8; 191 4; 192 1; 193 1; 
195 1; 198 1; 199 2; 200 10; 201 7; 
202 22; 203 6; 204 1; 207 4; 208 1; 
209 1; 211 6; 213 16; 214 3; 215 9; 
216 2; 222 1; 223 3; 224 17; 225 15; 
226 44; 227 13; 228 14; 229 3; 235 4; 
236 4; 237 27; 238 19; 239 90; 240 30; 
241 14; 242 3; 243 1; 247 1; 248 11; 
250 105; 252 967; 253 999; 254 238; 255 54; 
256 9; 257 1; 259 2; 261 21; 263 191; 
265 677; 266 249; 267 489; 268 419; 269 82; 
270 7; 272 1; 274 9; 276 33; 277 23; 
278 19; 279 19; 280 8; 281 27; 282 9; 
283 2; 287 2; 289 7; 290 2; 291 2; 
293 1; 294 1; 295 3; 296 2; 307 1; 
309 2; 321 1; 324 526; 325 145; 326 23; 
327 4; 
