Name: JWH-073 6-methoxyindole analog
Synon: (1-Butyl-6-methoxy-1H-indol-3-yl)(naphthalen-1-yl)methanone
InChIKey: YFQNBXNHANIAJR-UHFFFAOYSA-N
Formula: C24H23NO2
MW: 357
ExactMass: 357.172878
CASNO: 0
ID: 3381
Comment: Provided by www.caymanchem.com/app/template/landing%2CForensic.vm / Item #14084  Lot #0445105
Num Peaks: 219
41 188; 42 10; 43 6; 50 8; 51 17; 
52 4; 53 8; 55 23; 57 70; 58 2; 
62 12; 63 28; 64 6; 65 9; 66 3; 
67 1; 68 1; 69 1; 73 3; 74 16; 
75 50; 76 41; 77 101; 78 14; 79 3; 
80 2; 81 1; 86 6; 87 14; 88 23; 
89 66; 90 20; 91 9; 92 3; 95 8; 
98 4; 99 7; 100 21; 101 74; 102 74; 
103 42; 104 10; 105 4; 107 18; 109 4; 
110 1; 111 1; 112 3; 113 15; 114 35; 
115 36; 116 74; 117 65; 118 13; 119 52; 
121 34; 123 2; 124 1; 126 142; 127 816; 
128 152; 129 48; 130 67; 131 72; 132 31; 
133 6; 135 22; 139 19; 141 38; 144 59; 
145 55; 146 105; 147 151; 148 19; 149 10; 
150 16; 151 14; 152 16; 153 9; 155 432; 
156 59; 158 154; 159 105; 160 157; 161 22; 
162 9; 163 14; 165 14; 167 27; 168 7; 
169 3; 170 6; 171 4; 172 13; 174 225; 
175 36; 176 28; 177 9; 179 28; 180 2; 
181 3; 182 1; 183 1; 184 2; 185 6; 
186 24; 187 26; 188 22; 189 33; 190 13; 
191 3; 192 1; 193 3; 194 1; 198 4; 
200 72; 201 68; 202 167; 203 44; 204 10; 
205 5; 207 6; 208 1; 211 7; 213 54; 
214 37; 215 47; 216 15; 217 7; 218 19; 
219 5; 222 1; 223 1; 224 3; 225 9; 
226 24; 227 71; 228 146; 230 619; 231 115; 
232 14; 233 2; 235 1; 236 1; 237 1; 
238 8; 239 12; 240 61; 241 122; 242 70; 
243 46; 244 17; 245 7; 246 1; 250 1; 
251 4; 252 5; 253 13; 254 45; 255 33; 
256 128; 257 176; 258 71; 259 17; 260 3; 
261 1; 264 1; 265 2; 266 4; 267 6; 
269 62; 270 69; 271 39; 272 51; 273 14; 
274 3; 278 1; 281 3; 282 17; 283 21; 
284 87; 285 95; 286 81; 287 20; 288 3; 
294 1; 296 16; 297 31; 298 35; 300 220; 
301 55; 302 8; 308 2; 309 4; 310 8; 
311 3; 312 14; 314 329; 315 90; 316 11; 
317 2; 324 2; 326 28; 327 10; 328 12; 
329 9; 330 2; 331 1; 338 11; 340 223; 
341 65; 342 54; 343 12; 344 3; 354 1; 
357 999; 358 244; 359 35; 360 3; 
