Name: 25I-NBMD
InChIKey: NJNMIPDEUMTYNV-UHFFFAOYSA-N
Synon: Cimbi-29
Synon: N-(benzo[d][1,3-dioxol-4-ylmethyl)-2-(4-iodo-2,5-dimethoxyphenyl)ethanamine
Synon: 2C-I-NBMD
Formula: C18H20INO4
MW: 441
ExactMass: 441.043707
CASNO: 0
ID: 3383
Comment: Provided by www.caymanchem.com/app/template/landing%2CForensic.vm / Item #11947  Lot #0443946
Num Peaks: 68
42 8; 50 11; 51 46; 52 10; 53 15; 
55 3; 62 5; 63 17; 64 12; 65 29; 
66 5; 67 5; 73 2; 75 7; 76 17; 
77 196; 78 45; 79 74; 80 6; 81 5; 
89 20; 90 30; 91 43; 92 21; 93 10; 
94 4; 103 4; 104 21; 105 82; 106 21; 
107 15; 108 5; 119 6; 120 14; 121 20; 
122 7; 127 11; 128 18; 132 4; 133 8; 
135 999; 136 83; 137 12; 147 7; 148 5; 
149 5; 150 8; 151 4; 152 3; 162 16; 
164 511; 165 50; 191 8; 207 12; 208 5; 
209 4; 232 11; 234 4; 247 24; 248 3; 
261 4; 263 6; 276 4; 277 27; 278 99; 
279 9; 281 7; 408 8; 
