Name: 25I-NBF
InChIKey: LPBKNBHMWRBPHT-UHFFFAOYSA-N
Synon: N-(2-fluorobenzyl)-2-(4-iodo-2,5-dimethoxyphenyl)ethanamine
Synon: 25I-NB2F
Synon: 2C-I-NBF
Synon: NBF-2C-I
Synon: Cimbi-21
Formula: C17H19FINO2
MW: 415
ExactMass: 415.044455
CASNO: 0
ID: 3384
Comment: Provided by www.caymanchem.com/app/template/landing%2CForensic.vm / Item #14066  Lot #0444428
Num Peaks: 137
40 1; 41 2; 42 3; 43 3; 50 7; 
51 11; 52 2; 53 11; 54 1; 55 1; 
57 6; 59 4; 61 1; 62 4; 63 20; 
64 13; 65 12; 66 2; 67 4; 68 1; 
69 3; 70 2; 73 1; 74 5; 75 12; 
76 11; 77 58; 78 17; 79 14; 80 2; 
81 4; 83 59; 84 3; 86 1; 87 1; 
89 30; 90 29; 91 41; 92 18; 93 7; 
94 3; 95 4; 96 5; 97 1; 102 5; 
103 4; 104 6; 105 37; 106 11; 107 30; 
109 999; 110 76; 111 2; 115 1; 116 1; 
117 3; 118 8; 119 7; 120 13; 121 22; 
122 11; 123 3; 124 3; 127 10; 128 9; 
131 1; 132 2; 133 5; 134 7; 135 14; 
136 53; 138 833; 139 70; 140 3; 142 1; 
146 1; 147 4; 148 5; 149 4; 150 7; 
151 6; 152 8; 153 2; 162 1; 163 1; 
164 5; 165 2; 166 2; 177 1; 178 1; 
179 1; 183 1; 191 8; 192 1; 200 1; 
204 1; 205 1; 207 3; 208 1; 209 1; 
217 2; 218 1; 219 4; 220 1; 232 18; 
233 3; 234 8; 235 2; 247 41; 248 4; 
249 2; 253 1; 255 1; 256 2; 257 2; 
258 1; 260 1; 261 4; 263 9; 264 1; 
272 1; 274 1; 275 4; 277 34; 278 146; 
279 15; 280 1; 281 1; 288 1; 290 2; 
291 1; 382 14; 383 3; 384 1; 413 1; 
414 1; 415 1; 
