Name: PCEEA
Synon: N-(2-ethoxyethyl)-1-phenylcyclohexanamine
InChIKey: PRQVCBDFWYTXDD-UHFFFAOYSA-N
Formula: C16H25NO
MW: 247
ExactMass: 247.193614
CASNO: 0
ID: 3389
Comment: Provided by www.caymanchem.com/app/template/landing%2CForensic.vm / Item #9001365  Lot #0446280
Num Peaks: 124
41 51; 42 24; 43 24; 44 35; 45 55; 
46 2; 50 11; 51 31; 52 9; 53 19; 
54 14; 55 47; 56 13; 57 2; 59 56; 
60 5; 61 1; 62 3; 63 13; 65 35; 
66 8; 67 44; 68 12; 69 7; 70 4; 
72 25; 73 20; 74 8; 75 9; 77 156; 
78 39; 79 49; 81 141; 82 21; 83 5; 
84 1; 86 2; 87 4; 88 11; 89 21; 
91 867; 92 69; 93 5; 94 3; 95 3; 
96 5; 97 2; 98 9; 99 1; 102 40; 
103 190; 104 157; 105 76; 106 16; 107 1; 
108 1; 110 6; 111 1; 113 2; 115 188; 
116 52; 117 224; 118 51; 119 43; 120 22; 
121 2; 122 1; 124 10; 125 1; 127 29; 
128 83; 129 131; 130 128; 131 52; 132 124; 
133 15; 134 2; 139 2; 141 20; 142 18; 
143 68; 144 120; 145 44; 146 72; 147 25; 
148 5; 151 1; 152 4; 153 5; 154 6; 
155 5; 156 10; 158 216; 159 999; 160 195; 
161 19; 162 53; 163 6; 164 1; 170 71; 
171 10; 172 15; 174 62; 175 29; 176 41; 
177 5; 178 2; 184 1; 186 10; 188 364; 
189 53; 190 6; 191 3; 200 13; 202 41; 
204 862; 205 117; 206 10; 218 172; 219 28; 
220 2; 247 227; 248 41; 249 4; 
