Name: UR-144 N-(2-chloropentyl) analog
Synon: (1-(2-chloropentyl)-1H-indol-3-yl)(2,2,3,3-tetramethylcyclopropyl)methanone
Synon: 2-Cl-UR-144
InChIKey: LLABSRDDBNPMOI-UHFFFAOYSA-N
Formula: C21H28ClNO
MW: 345
ExactMass: 345.185942
CASNO: 0
ID: 3393
Comment: Provided by www.caymanchem.com/app/template/landing%2CForensic.vm / Item #13115  Lot #0447153
Num Peaks: 224
41 122; 42 12; 43 40; 44 1; 49 1; 
50 2; 51 4; 52 3; 53 18; 55 105; 
56 8; 57 18; 58 3; 59 17; 60 1; 
62 5; 63 15; 64 3; 65 14; 66 4; 
67 29; 69 77; 70 5; 71 1; 73 3; 
74 2; 75 9; 76 7; 77 24; 78 6; 
79 18; 81 50; 82 7; 83 47; 84 5; 
87 2; 88 11; 89 28; 90 8; 91 8; 
92 1; 93 2; 95 5; 96 9; 97 25; 
98 2; 101 17; 102 34; 103 16; 104 4; 
105 2; 106 3; 107 1; 109 42; 110 4; 
112 2; 113 3; 114 15; 115 65; 116 78; 
117 23; 118 10; 119 4; 120 4; 124 1; 
125 16; 126 5; 127 15; 128 43; 129 64; 
130 81; 131 11; 132 1; 133 1; 135 1; 
139 7; 140 8; 141 10; 142 13; 143 79; 
144 272; 145 27; 146 3; 147 1; 150 1; 
151 3; 152 8; 153 8; 154 43; 155 18; 
156 25; 157 10; 158 10; 159 2; 164 2; 
165 10; 166 13; 167 63; 168 46; 169 11; 
170 15; 171 3; 172 16; 173 2; 176 1; 
177 2; 178 6; 179 8; 180 58; 181 44; 
182 43; 183 18; 184 31; 185 6; 186 3; 
190 1; 191 4; 192 4; 193 7; 194 37; 
196 129; 197 27; 198 14; 199 3; 204 4; 
205 2; 206 7; 207 8; 208 12; 210 42; 
212 75; 213 11; 214 18; 215 3; 217 1; 
218 2; 219 3; 220 5; 221 17; 222 25; 
223 11; 224 42; 225 11; 226 7; 227 6; 
228 3; 229 1; 230 1; 232 1; 234 7; 
236 8; 237 2; 238 7; 239 14; 240 3; 
241 1; 244 1; 246 7; 248 999; 249 157; 
250 317; 251 52; 252 21; 253 5; 254 27; 
255 6; 258 1; 260 1; 262 15; 263 62; 
264 14; 265 18; 266 8; 267 2; 268 1; 
269 1; 270 1; 272 27; 273 5; 274 12; 
275 3; 276 2; 277 2; 278 1; 279 2; 
280 2; 281 2; 282 1; 283 1; 286 38; 
287 41; 288 26; 289 16; 290 4; 292 1; 
294 13; 295 3; 296 3; 302 22; 303 5; 
304 20; 305 3; 306 5; 307 1; 309 6; 
310 4; 311 3; 313 1; 314 1; 315 2; 
316 2; 317 1; 327 1; 328 7; 330 127; 
331 31; 332 43; 333 10; 334 1; 343 1; 
345 72; 346 19; 347 26; 348 5; 
