Name: PCPr
Synon: 1-Phenyl-N-propyl-cyclohexanamine
InChIKey: KHXNTQRMMGXPQW-UHFFFAOYSA-N
Formula: C15H23N
MW: 217
ExactMass: 217.18305
CASNO: 1934550
ID: 3394
Comment: Provided by www.caymanchem.com/app/template/landing%2CForensic.vm / Item #9001362  Lot #0446604
Num Peaks: 108
40 5; 41 55; 42 15; 43 20; 44 4; 
50 4; 51 17; 52 5; 53 9; 54 10; 
55 18; 56 15; 58 27; 59 1; 60 1; 
62 1; 63 7; 64 4; 65 20; 66 4; 
67 14; 68 5; 69 3; 70 3; 71 1; 
72 1; 73 1; 74 3; 75 5; 77 104; 
78 28; 79 28; 80 8; 81 36; 82 7; 
83 1; 84 1; 86 1; 87 1; 89 10; 
91 264; 92 23; 93 1; 94 4; 96 3; 
98 10; 99 1; 101 3; 102 20; 103 84; 
104 154; 105 27; 106 12; 107 1; 109 1; 
110 1; 113 1; 115 100; 116 23; 117 120; 
118 25; 119 31; 120 5; 126 3; 127 14; 
128 40; 129 58; 130 48; 131 17; 132 75; 
133 19; 134 2; 136 1; 140 61; 141 15; 
142 8; 143 27; 144 31; 145 11; 146 46; 
147 6; 148 4; 151 1; 152 3; 153 3; 
154 3; 155 2; 156 3; 157 8; 158 38; 
159 74; 160 78; 161 17; 162 2; 170 1; 
172 7; 174 999; 175 131; 176 8; 186 4; 
188 56; 189 7; 202 3; 214 1; 216 63; 
217 175; 218 27; 219 2; 
