Name: (S)-2-Diphenylmethylpyrrolidine
Synon: S-desoxy-D2PM
InChIKey: OXOBKZZXZVFOBB-UHFFFAOYSA-N
Formula: C17H19N
MW: 237
ExactMass: 237.15175
CASNO: 0
ID: 3404
Comment: Broward Sheriff Office Drug Library
Num Peaks: 88
38 1; 39 15; 40 2; 41 34; 42 9; 
43 59; 44 4; 50 4; 51 16; 52 3; 
53 4; 54 1; 56 1; 62 2; 63 11; 
64 2; 65 9; 67 1; 68 39; 69 8; 
70 999; 71 53; 72 1; 74 2; 75 3; 
76 6; 77 16; 78 5; 79 1; 82 2; 
83 2; 86 1; 87 2; 88 2; 89 13; 
90 3; 91 21; 92 1; 101 2; 102 8; 
103 6; 104 3; 105 1; 113 3; 114 2; 
115 30; 116 6; 117 5; 118 1; 126 4; 
127 5; 128 13; 129 3; 130 8; 131 1; 
132 1; 137 1; 138 1; 139 13; 140 2; 
141 4; 143 1; 150 2; 151 7; 152 47; 
153 7; 154 1; 156 1; 158 1; 159 1; 
163 9; 164 14; 165 121; 166 42; 167 47; 
168 7; 176 2; 177 2; 178 11; 179 5; 
180 1; 189 1; 191 1; 193 1; 206 1; 
234 1; 235 1; 236 1; 
