Name: Phenylpiperazine-HFBA Derivative
InChIKey: UIPQZQRACZEVPW-UHFFFAOYSA-N
Formula: C14H13F7N2O
MW: 358
ExactMass: 358.09161
CASNO: 0
ID: 3406
Comment: Broward Sheriff Office Drug Library
Num Peaks: 146
37 1; 38 9; 39 41; 40 11; 41 45; 
42 145; 43 8; 44 7; 45 2; 47 1; 
49 4; 50 57; 51 156; 52 35; 53 8; 
54 54; 55 46; 56 645; 57 42; 58 16; 
59 1; 61 2; 62 7; 63 32; 64 20; 
65 63; 66 10; 67 6; 68 13; 69 597; 
70 46; 71 2; 72 1; 73 3; 74 14; 
75 17; 76 51; 77 759; 78 153; 79 37; 
80 13; 81 15; 82 3; 83 3; 84 11; 
87 3; 88 1; 89 19; 90 30; 91 373; 
92 43; 93 14; 95 59; 96 1; 97 1; 
100 109; 101 7; 102 6; 103 35; 104 783; 
105 898; 106 179; 107 17; 108 3; 109 69; 
112 3; 115 8; 116 14; 117 81; 118 114; 
119 301; 120 133; 121 16; 122 2; 126 1; 
127 3; 128 10; 129 4; 130 43; 131 65; 
132 636; 133 82; 134 52; 135 5; 142 4; 
143 8; 144 37; 145 27; 146 14; 147 8; 
148 4; 150 7; 151 3; 155 1; 156 1; 
157 9; 158 5; 159 86; 160 70; 161 999; 
162 106; 163 7; 169 278; 170 12; 171 1; 
172 2; 175 2; 178 3; 179 2; 180 1; 
187 2; 189 20; 191 4; 192 2; 193 1; 
197 3; 206 8; 207 1; 210 2; 220 3; 
222 5; 223 6; 226 4; 239 5; 240 10; 
250 1; 252 3; 253 7; 267 4; 279 3; 
289 2; 314 2; 316 31; 317 4; 319 12; 
320 5; 337 2; 339 30; 340 3; 343 2; 
356 11; 357 84; 358 721; 359 138; 360 11; 
361 2; 
