Name: nor-Mephedrone-HFBA Derivative
InChIKey: GXWNYLBNMPCBDY-UHFFFAOYSA-N
Formula: C14H12F7NO2
MW: 359
ExactMass: 359.075626
CASNO: 0
ID: 3408
Comment: Broward Sheriff Office Drug Library
Num Peaks: 77
38 2; 39 23; 40 3; 41 12; 42 17; 
43 12; 44 7; 45 5; 47 3; 50 9; 
51 13; 52 5; 53 2; 55 4; 61 1; 
62 10; 63 40; 64 12; 65 161; 66 11; 
69 104; 70 9; 71 1; 72 1; 74 5; 
75 4; 76 4; 77 11; 78 5; 79 2; 
81 2; 86 3; 87 3; 88 1; 89 60; 
90 35; 91 427; 92 41; 93 8; 95 1; 
100 20; 101 1; 102 3; 103 6; 104 3; 
105 2; 109 10; 115 6; 116 2; 117 9; 
119 999; 120 96; 121 9; 122 1; 128 1; 
129 1; 130 2; 131 11; 132 2; 133 1; 
142 3; 144 1; 145 3; 146 32; 147 10; 
148 1; 150 2; 162 1; 166 1; 169 72; 
170 2; 192 6; 193 1; 196 1; 220 1; 
240 57; 241 4; 
