Name: Ethylone-HFBA Derivative
InChIKey: LERHKDGJXIHERL-UHFFFAOYSA-N
Formula: C16H14F7NO4
MW: 417
ExactMass: 417.081106
CASNO: 0
ID: 3411
Comment: Broward Sheriff Office Drug Library
Num Peaks: 119
37 2; 38 2; 39 17; 40 2; 41 9; 
42 27; 43 6; 44 4; 45 12; 46 1; 
47 6; 50 5; 51 10; 52 1; 53 10; 
54 5; 55 9; 56 47; 57 1; 61 5; 
62 27; 63 99; 64 15; 65 170; 66 12; 
67 2; 68 5; 69 88; 70 39; 71 7; 
72 9; 74 5; 75 2; 76 3; 77 7; 
78 5; 79 7; 80 1; 81 3; 82 1; 
87 1; 88 1; 89 6; 90 4; 91 80; 
92 18; 93 3; 98 3; 100 12; 101 1; 
102 1; 103 2; 104 2; 105 2; 106 1; 
109 9; 118 3; 119 36; 120 21; 121 161; 
122 16; 123 1; 131 4; 132 1; 134 1; 
135 5; 142 4; 145 1; 146 6; 147 4; 
149 999; 150 87; 151 14; 159 2; 160 1; 
161 2; 162 1; 163 1; 164 1; 166 2; 
169 80; 170 2; 174 18; 175 5; 176 1; 
177 4; 178 10; 179 1; 189 1; 190 1; 
192 16; 193 3; 194 1; 196 10; 197 1; 
203 1; 204 13; 205 2; 212 1; 213 2; 
219 1; 220 4; 221 2; 222 1; 224 6; 
226 3; 232 2; 240 165; 241 11; 242 1; 
247 1; 248 2; 249 1; 268 312; 269 32; 
270 1; 299 1; 417 20; 418 4; 
