Name: DOET-HFBA Derivative
InChIKey: YGDGPWMHHOVTKK-UHFFFAOYSA-N
Formula: C17H20F7NO3
MW: 419
ExactMass: 419.13314
CASNO: 0
ID: 3412
Comment: Broward Sheriff Office Drug Library
Num Peaks: 129
38 1; 39 23; 40 5; 41 22; 42 22; 
43 22; 44 28; 45 28; 47 18; 50 4; 
51 18; 52 9; 53 23; 54 3; 55 14; 
56 2; 57 9; 59 10; 63 9; 64 5; 
65 27; 66 10; 67 19; 68 2; 69 122; 
70 14; 71 2; 73 3; 74 2; 75 2; 
76 5; 77 76; 78 31; 79 45; 80 9; 
81 9; 82 27; 83 4; 88 2; 89 16; 
90 25; 91 173; 92 32; 93 26; 94 5; 
95 7; 100 8; 102 6; 103 46; 104 22; 
105 49; 106 10; 107 15; 108 10; 109 15; 
110 1; 115 71; 116 23; 117 89; 118 24; 
119 72; 120 14; 121 49; 122 15; 123 20; 
124 2; 127 4; 128 11; 129 7; 130 5; 
131 21; 132 14; 133 26; 134 68; 135 28; 
136 16; 137 13; 138 1; 141 1; 142 4; 
143 2; 144 2; 145 8; 146 9; 147 21; 
148 13; 149 132; 150 20; 151 32; 152 4; 
157 2; 159 5; 160 6; 161 9; 162 9; 
163 25; 164 15; 165 41; 166 15; 167 2; 
169 82; 170 2; 173 3; 174 3; 175 10; 
176 16; 177 24; 178 11; 179 999; 180 129; 
181 11; 189 2; 190 11; 191 67; 192 24; 
193 6; 196 2; 197 1; 204 2; 205 20; 
206 363; 207 85; 208 14; 240 53; 241 3; 
372 1; 419 113; 420 21; 421 2; 
