Name: Buphedrone-HFBA Derivative
InChIKey: MRRDQJPGCUMHDZ-UHFFFAOYSA-N
Formula: C15H14F7NO2
MW: 373
ExactMass: 373.091276
CASNO: 0
ID: 3413
Comment: Broward Sheriff Office Drug Library
Num Peaks: 126
38 3; 39 24; 40 5; 41 77; 42 224; 
43 9; 44 4; 49 1; 50 32; 51 118; 
52 8; 53 4; 54 7; 55 12; 56 16; 
57 6; 58 21; 59 1; 60 1; 61 2; 
62 4; 63 6; 64 2; 65 5; 66 3; 
67 1; 68 21; 69 134; 70 64; 71 87; 
72 6; 73 2; 74 9; 75 14; 76 27; 
77 471; 78 39; 79 4; 80 1; 81 2; 
82 2; 84 2; 85 1; 86 1; 87 1; 
88 1; 89 7; 90 2; 91 28; 92 5; 
93 3; 95 1; 98 12; 100 25; 101 1; 
102 5; 103 6; 105 578; 106 45; 107 4; 
109 10; 110 1; 113 1; 115 9; 116 4; 
117 7; 118 7; 119 27; 120 2; 122 1; 
127 4; 128 5; 129 4; 130 3; 131 21; 
132 12; 133 7; 134 3; 135 1; 143 1; 
144 3; 145 4; 146 3; 147 12; 148 13; 
149 1; 150 2; 154 1; 158 1; 159 2; 
160 29; 161 3; 169 83; 170 2; 176 3; 
178 2; 180 2; 192 1; 204 6; 205 1; 
208 2; 210 247; 211 12; 212 6; 220 3; 
221 1; 226 4; 228 4; 234 1; 236 1; 
240 38; 241 2; 249 1; 252 11; 253 1; 
266 3; 268 999; 269 85; 270 10; 283 1; 
312 1; 344 1; 354 2; 358 1; 373 17; 
374 2; 
