Name: DOI-HFBA Derivative
Synon: 4-Iodo-2,5 dimethoxyamphetamine-HFBA Derivative
InChIKey: SQZQFPRPBYVRNI-UHFFFAOYSA-N
Formula: C15H15F7INO3
MW: 517
ExactMass: 516.99849
CASNO: 0
ID: 3416
Comment: Broward Sheriff Office Drug Library
Num Peaks: 239
38 3; 39 28; 40 5; 41 17; 42 34; 
43 32; 44 37; 45 42; 46 1; 47 24; 
50 28; 51 62; 52 13; 53 70; 54 6; 
55 17; 56 3; 57 11; 58 2; 59 4; 
60 1; 61 2; 62 15; 63 62; 64 49; 
65 50; 66 18; 67 15; 68 3; 69 221; 
70 19; 71 3; 73 4; 74 14; 75 25; 
76 42; 77 205; 78 55; 79 66; 80 8; 
81 7; 82 2; 83 2; 85 2; 86 3; 
87 5; 88 5; 89 81; 90 130; 91 205; 
92 106; 93 40; 94 9; 95 6; 96 3; 
97 3; 98 1; 99 1; 100 18; 101 4; 
102 16; 103 44; 104 23; 105 151; 106 32; 
107 51; 108 22; 109 25; 110 1; 111 1; 
112 1; 113 2; 114 3; 115 40; 116 11; 
117 39; 118 20; 119 91; 120 126; 121 80; 
122 67; 123 20; 124 4; 125 1; 126 1; 
127 19; 128 12; 129 4; 130 6; 131 36; 
132 27; 133 23; 134 24; 135 88; 136 16; 
137 11; 139 41; 140 1; 141 1; 142 12; 
143 2; 144 3; 145 16; 146 23; 147 75; 
148 33; 149 49; 150 102; 151 37; 152 11; 
153 13; 155 1; 158 1; 159 6; 160 5; 
161 32; 162 167; 163 40; 164 7; 165 2; 
166 6; 167 2; 169 205; 170 5; 171 1; 
172 1; 173 1; 175 4; 176 16; 177 37; 
178 45; 179 8; 180 2; 181 1; 188 1; 
189 2; 190 2; 191 25; 192 28; 193 7; 
194 3; 195 1; 196 8; 197 1; 202 1; 
203 4; 204 4; 205 4; 206 2; 207 4; 
208 2; 209 1; 210 2; 212 1; 213 2; 
214 1; 217 9; 218 2; 219 13; 220 5; 
221 2; 222 1; 226 2; 230 1; 231 3; 
232 54; 233 11; 234 34; 235 5; 238 1; 
240 259; 241 17; 242 2; 243 1; 244 1; 
245 2; 247 287; 248 29; 249 23; 250 1; 
251 1; 252 1; 254 1; 257 2; 258 1; 
259 2; 260 1; 261 5; 262 13; 263 49; 
264 12; 272 1; 273 7; 274 12; 275 23; 
277 999; 278 126; 279 9; 280 1; 281 1; 
283 1; 287 4; 288 8; 289 38; 290 23; 
291 4; 300 1; 302 1; 304 786; 305 158; 
306 14; 307 1; 317 1; 319 1; 321 1; 
327 1; 328 3; 329 1; 332 2; 339 2; 
347 2; 348 1; 357 1; 358 1; 359 1; 
360 3; 371 9; 372 1; 375 7; 389 6; 
390 2; 391 6; 392 1; 453 1; 516 5; 
517 476; 518 81; 519 8; 520 1; 
