Name: 25I-NBOMe-HFBA Derivative
InChIKey: VXGZRRVHOOJFIO-UHFFFAOYSA-N
Synon: 25I-NB2OMe-HFBA Derivative
Synon: 2C-I-NBOMe-HFBA Derivative
Synon: 2C-I-NB2OMe-HFBA Derivative
Formula: C22H21F7INO4
MW: 623
ExactMass: 623.04035
CASNO: 0
ID: 3420
Comment: Broward Sheriff Office Drug Library
Num Peaks: 229
38 3; 39 14; 40 6; 41 3; 42 9; 
43 2; 44 1; 45 1; 50 10; 51 28; 
52 18; 53 20; 55 2; 56 4; 57 2; 
59 2; 62 5; 63 25; 64 22; 65 122; 
66 14; 67 5; 68 3; 69 41; 70 2; 
73 9; 74 5; 75 15; 76 22; 77 161; 
78 156; 79 41; 80 8; 81 3; 82 2; 
83 1; 85 2; 86 1; 87 3; 88 8; 
89 76; 90 87; 91 861; 92 89; 93 92; 
94 18; 95 1; 97 1; 100 7; 101 2; 
102 8; 103 23; 104 34; 105 91; 106 38; 
107 91; 108 20; 109 30; 110 7; 111 1; 
115 4; 116 7; 117 17; 118 23; 119 45; 
121 999; 122 99; 123 10; 125 2; 127 9; 
128 7; 129 1; 130 5; 131 4; 132 12; 
133 28; 134 46; 135 59; 136 29; 137 13; 
138 5; 139 1; 141 3; 142 1; 145 3; 
146 11; 147 8; 148 85; 149 37; 150 39; 
151 37; 152 7; 153 4; 154 3; 155 3; 
156 4; 157 3; 161 3; 162 10; 163 12; 
164 57; 165 35; 166 7; 167 1; 168 2; 
169 36; 170 1; 171 3; 176 2; 177 7; 
178 3; 179 3; 180 5; 181 1; 182 3; 
185 1; 189 1; 190 1; 191 15; 192 1; 
193 3; 194 1; 196 3; 197 2; 203 4; 
204 3; 205 3; 206 3; 207 11; 208 4; 
209 1; 210 2; 211 5; 213 2; 215 3; 
217 3; 218 1; 219 8; 220 1; 223 1; 
225 1; 226 7; 227 1; 231 2; 232 40; 
233 11; 234 18; 235 1; 236 1; 237 2; 
238 2; 239 7; 240 4; 244 1; 245 1; 
246 6; 247 121; 248 10; 249 7; 250 2; 
251 2; 253 3; 254 1; 259 1; 260 5; 
261 40; 262 3; 263 5; 264 1; 265 5; 
266 1; 267 1; 268 3; 269 1; 270 2; 
271 2; 272 1; 274 2; 275 31; 276 54; 
277 260; 278 28; 279 1; 281 5; 282 1; 
283 1; 284 1; 286 1; 288 4; 290 718; 
291 104; 292 6; 293 1; 300 1; 305 1; 
316 3; 318 7; 321 1; 326 1; 328 1; 
330 1; 332 15; 333 3; 334 2; 341 1; 
343 2; 346 1; 355 1; 359 2; 360 2; 
375 17; 376 1; 377 1; 380 1; 388 1; 
389 1; 395 4; 426 2; 429 3; 464 3; 
477 4; 481 1; 486 1; 497 4; 498 2; 
556 1; 623 196; 624 51; 625 9; 
