Name: 2C-D HFBA Derivative
InChIKey: XJLYWIOIPIVYIO-UHFFFAOYSA-N
Formula: C15H16F7NO3
MW: 391
ExactMass: 391.101841
CASNO: 0
ID: 3427
Comment: Broward Sheriff Office Drug Library
Num Peaks: 123
39 22; 40 10; 41 12; 42 4; 43 7; 
44 20; 50 4; 51 19; 52 7; 53 16; 
54 5; 55 16; 56 10; 57 4; 58 2; 
59 8; 62 12; 63 16; 64 17; 65 75; 
66 17; 67 45; 68 28; 69 210; 70 4; 
71 2; 73 9; 74 6; 75 7; 76 13; 
77 152; 78 61; 79 201; 80 25; 81 17; 
82 13; 89 29; 90 31; 91 261; 92 64; 
93 76; 94 10; 95 10; 97 5; 100 51; 
102 13; 103 86; 104 38; 105 146; 106 25; 
107 64; 108 26; 109 32; 110 5; 115 19; 
116 16; 117 21; 118 26; 119 86; 120 86; 
121 47; 122 81; 123 27; 124 3; 128 17; 
129 4; 130 14; 131 32; 132 26; 133 22; 
134 29; 135 613; 136 93; 137 77; 138 12; 
145 8; 146 22; 147 38; 148 42; 149 118; 
150 46; 151 52; 152 8; 153 3; 159 4; 
161 5; 162 31; 163 432; 164 148; 165 902; 
166 127; 167 5; 169 305; 170 8; 176 15; 
177 40; 178 999; 179 289; 180 38; 191 5; 
192 3; 193 4; 196 2; 197 16; 207 15; 
208 2; 214 6; 221 10; 222 8; 226 303; 
227 26; 228 2; 324 19; 328 10; 332 9; 
341 3; 358 4; 372 6; 376 8; 391 898; 
392 133; 393 19; 394 4; 
