Name: 2C-I HFBA Derivative
InChIKey: CCGQQGXFWOPZRE-UHFFFAOYSA-N
Formula: C14H13F7INO3
MW: 503
ExactMass: 502.98284
CASNO: 0
ID: 3429
Comment: Broward Sheriff Office Drug Library
Num Peaks: 260
37 3; 38 8; 39 46; 40 7; 41 10; 
42 4; 43 11; 44 34; 45 1; 46 1; 
47 1; 49 4; 50 60; 51 90; 52 26; 
53 125; 54 9; 55 12; 56 33; 57 9; 
58 6; 59 3; 60 2; 61 16; 62 44; 
63 190; 64 138; 65 147; 66 42; 67 35; 
69 629; 70 19; 71 4; 73 6; 74 44; 
75 68; 76 144; 77 600; 78 266; 79 255; 
80 29; 81 17; 82 9; 83 4; 85 6; 
86 12; 87 21; 88 17; 89 254; 90 358; 
91 426; 92 245; 93 82; 94 22; 95 11; 
96 5; 97 1; 98 5; 99 3; 100 99; 
101 10; 102 31; 103 96; 104 66; 105 416; 
106 136; 107 110; 108 59; 109 89; 110 14; 
111 2; 112 1; 114 2; 115 7; 116 18; 
117 46; 118 111; 119 208; 120 211; 121 178; 
122 123; 123 27; 124 4; 125 1; 126 1; 
127 62; 128 64; 129 5; 130 3; 131 42; 
132 56; 133 166; 134 96; 135 181; 136 37; 
137 25; 138 29; 139 6; 140 1; 141 5; 
142 7; 143 1; 144 2; 146 43; 147 45; 
148 486; 149 198; 150 156; 151 77; 152 19; 
153 22; 154 3; 155 2; 156 2; 157 1; 
158 1; 159 5; 160 5; 161 11; 162 35; 
163 81; 164 188; 165 37; 166 10; 167 7; 
169 616; 170 22; 171 3; 173 2; 174 2; 
175 2; 176 7; 177 8; 178 45; 179 13; 
180 9; 181 5; 182 2; 188 4; 189 6; 
190 4; 191 51; 192 10; 193 1; 194 3; 
195 4; 197 27; 198 6; 199 2; 201 1; 
202 2; 203 9; 204 8; 205 18; 206 5; 
207 5; 208 1; 210 2; 212 1; 213 1; 
214 3; 215 1; 216 3; 217 17; 218 6; 
219 29; 220 10; 221 2; 224 1; 226 307; 
227 18; 228 2; 230 5; 231 10; 232 97; 
233 23; 234 47; 235 5; 236 1; 240 1; 
242 2; 243 2; 244 3; 245 2; 247 404; 
248 43; 249 23; 250 4; 257 2; 258 1; 
259 5; 260 26; 261 72; 262 16; 263 27; 
264 5; 265 2; 272 1; 273 1; 274 11; 
275 207; 276 87; 277 642; 278 73; 279 11; 
285 1; 286 5; 287 2; 288 5; 290 999; 
291 215; 292 20; 293 2; 298 4; 300 3; 
301 3; 302 1; 303 3; 305 1; 308 1; 
310 2; 313 1; 314 3; 315 2; 316 3; 
317 3; 318 8; 325 4; 326 1; 330 2; 
332 2; 333 6; 334 1; 336 1; 341 2; 
342 1; 344 1; 345 1; 346 2; 347 1; 
355 1; 357 10; 358 6; 360 1; 361 9; 
362 3; 374 2; 375 6; 376 1; 377 25; 
378 4; 436 1; 437 1; 456 1; 485 2; 
501 1; 503 433; 504 72; 505 6; 506 1; 
