Name: 2C-N HFBA Derivative
InChIKey: UJFLZIFJISABLW-UHFFFAOYSA-N
Formula: C14H13F7N2O5
MW: 422
ExactMass: 422.07127
CASNO: 0
ID: 3432
Comment: Broward Sheriff Office Drug Library
Num Peaks: 82
39 17; 40 11; 42 21; 43 7; 46 25; 
53 39; 56 62; 63 13; 64 16; 65 115; 
67 7; 68 9; 69 191; 72 14; 76 15; 
77 71; 78 253; 79 257; 83 59; 89 120; 
90 177; 91 221; 92 59; 93 86; 94 11; 
95 69; 100 53; 102 25; 103 17; 104 24; 
105 91; 106 58; 107 73; 108 78; 109 105; 
116 21; 117 24; 118 7; 119 84; 120 164; 
121 67; 128 71; 131 24; 133 53; 134 91; 
135 65; 136 56; 137 67; 138 21; 147 54; 
148 101; 149 109; 150 53; 151 122; 152 72; 
162 51; 164 57; 165 27; 166 38; 167 126; 
168 36; 169 402; 170 8; 177 11; 180 102; 
182 22; 193 17; 194 48; 195 21; 196 120; 
197 101; 206 13; 207 70; 208 32; 209 999; 
210 213; 226 267; 252 25; 281 67; 355 17; 
371 35; 422 389; 
