Name: 2C-T-4 HFBA Derivative
InChIKey: MJZJFNYYTVPRAW-UHFFFAOYSA-N
Formula: C17H20F7NO3S
MW: 451
ExactMass: 451.105211
CASNO: 0
ID: 3433
Comment: Broward Sheriff Office Drug Library
Num Peaks: 199
38 6; 39 48; 41 137; 42 26; 43 241; 
44 12; 45 19; 47 5; 50 3; 51 6; 
52 5; 53 17; 55 5; 56 9; 57 9; 
58 5; 59 20; 61 2; 63 24; 64 15; 
65 50; 66 27; 67 21; 68 4; 69 232; 
70 11; 71 16; 72 3; 73 10; 74 4; 
75 20; 76 8; 77 108; 78 62; 79 86; 
80 19; 81 12; 82 13; 83 7; 84 18; 
85 49; 86 5; 87 4; 89 21; 90 29; 
91 123; 92 52; 93 46; 94 20; 95 25; 
96 36; 97 51; 98 19; 99 7; 100 21; 
101 1; 102 20; 103 11; 104 23; 105 50; 
106 24; 107 38; 108 62; 109 83; 110 92; 
111 37; 112 15; 113 5; 115 9; 116 6; 
117 13; 118 20; 119 74; 120 20; 121 146; 
122 73; 123 68; 124 21; 125 45; 126 19; 
127 5; 128 25; 129 2; 130 1; 131 20; 
132 18; 133 28; 134 83; 135 60; 136 36; 
137 68; 138 112; 139 24; 140 43; 141 6; 
143 3; 145 11; 146 9; 147 24; 148 53; 
149 129; 150 45; 151 83; 152 50; 153 280; 
154 28; 155 30; 156 11; 157 2; 158 1; 
159 6; 160 4; 161 13; 162 9; 163 18; 
164 42; 165 35; 166 25; 167 59; 168 27; 
169 290; 170 16; 171 4; 172 1; 175 2; 
176 4; 177 11; 178 34; 179 25; 180 51; 
181 253; 182 58; 183 999; 184 108; 185 64; 
186 6; 188 4; 189 2; 190 4; 191 4; 
192 2; 193 11; 194 24; 195 154; 196 484; 
197 115; 198 31; 199 5; 204 3; 205 8; 
206 2; 207 18; 208 9; 209 6; 212 6; 
222 7; 223 8; 224 15; 225 825; 226 293; 
227 43; 228 7; 237 3; 238 246; 239 114; 
240 39; 241 4; 242 2; 281 14; 282 10; 
302 2; 330 5; 332 6; 341 2; 343 2; 
344 2; 357 14; 359 2; 361 3; 362 11; 
363 2; 364 2; 370 6; 375 9; 376 2; 
377 7; 384 2; 390 1; 407 2; 408 6; 
409 14; 412 1; 420 1; 436 5; 449 2; 
451 755; 452 140; 453 45; 454 7; 
