Name: 2C-T-2 HFBA Derivative
InChIKey: IVTJRCQMBJITEJ-UHFFFAOYSA-N
Formula: C16H18F7NO3S
MW: 437
ExactMass: 437.089561
CASNO: 0
ID: 3435
Comment: Broward Sheriff Office Drug Library
Num Peaks: 168
39 8; 41 12; 42 2; 43 6; 44 4; 
45 16; 46 1; 47 3; 50 3; 51 8; 
53 5; 55 4; 56 5; 57 7; 58 1; 
59 22; 60 2; 61 8; 62 1; 63 11; 
64 6; 65 22; 66 12; 67 15; 68 6; 
69 191; 70 11; 71 13; 72 2; 73 6; 
74 2; 75 21; 76 7; 77 76; 78 62; 
79 78; 80 13; 81 16; 82 6; 83 8; 
84 3; 85 46; 86 3; 87 6; 89 11; 
90 25; 91 76; 92 24; 93 34; 94 4; 
95 15; 96 25; 97 41; 98 9; 99 9; 
100 31; 101 2; 102 4; 103 16; 104 30; 
105 36; 106 16; 107 30; 108 36; 109 67; 
110 42; 111 31; 113 16; 114 2; 115 9; 
116 9; 117 8; 118 13; 119 58; 120 32; 
121 87; 122 73; 123 33; 124 18; 125 46; 
126 8; 127 4; 128 26; 129 3; 131 11; 
132 20; 133 33; 134 41; 135 41; 136 29; 
137 38; 138 38; 139 20; 140 25; 141 4; 
145 6; 146 5; 147 21; 148 51; 149 73; 
150 46; 151 71; 152 54; 153 158; 154 23; 
155 17; 156 3; 157 2; 158 2; 159 3; 
160 4; 161 12; 162 10; 163 14; 164 32; 
165 21; 166 24; 167 50; 169 264; 170 10; 
175 8; 176 5; 177 4; 178 32; 179 22; 
180 30; 181 200; 182 32; 183 40; 184 3; 
189 2; 191 3; 193 6; 194 20; 195 69; 
196 25; 197 21; 198 6; 207 8; 209 60; 
210 23; 211 999; 212 122; 213 56; 214 9; 
224 320; 225 118; 226 140; 227 12; 240 2; 
252 1; 267 5; 268 2; 322 2; 357 13; 
360 2; 362 2; 363 2; 375 5; 377 4; 
378 2; 405 1; 406 2; 407 3; 437 496; 
438 88; 439 32; 440 4; 
