Name: 5-Chloro-UR-144 rearrangement product
Synon: 5-Cl-UR-144 rearrangement product
InChIKey: NMADSPMARWBLPH-UHFFFAOYSA-N
Formula: C21H28ClNO
MW: 345
ExactMass: 345.185942
CASNO: 0
ID: 3436
Comment: DEA SFL1 / unconfirmed structure
Num Peaks: 269
29 55; 30 2; 31 1; 35 1; 36 7; 
37 1; 38 4; 39 88; 40 14; 41 443; 
42 25; 43 130; 44 4; 49 10; 50 5; 
51 21; 52 8; 53 41; 54 19; 55 238; 
56 21; 57 16; 58 1; 59 2; 61 2; 
62 8; 63 47; 64 5; 65 31; 66 5; 
67 80; 68 7; 69 180; 70 11; 71 1; 
73 1; 74 4; 75 20; 76 22; 77 59; 
78 15; 79 18; 80 2; 81 37; 82 19; 
83 138; 84 10; 85 1; 86 1; 87 6; 
88 20; 89 87; 90 19; 91 13; 92 2; 
93 1; 94 1; 95 6; 96 3; 97 1; 
98 1; 99 2; 100 2; 101 42; 102 128; 
103 78; 104 13; 105 6; 107 3; 108 1; 
109 45; 110 5; 111 4; 113 6; 114 33; 
115 179; 116 267; 117 86; 118 22; 119 4; 
120 2; 121 1; 123 1; 124 1; 125 3; 
126 6; 127 33; 128 134; 129 204; 130 472; 
131 75; 132 12; 133 1; 139 7; 140 13; 
141 17; 142 48; 143 177; 144 695; 145 78; 
146 7; 147 1; 150 1; 151 3; 152 12; 
153 9; 154 61; 155 24; 156 74; 157 44; 
158 37; 159 9; 160 1; 163 1; 164 12; 
165 9; 166 14; 167 52; 168 50; 169 16; 
170 95; 171 24; 172 313; 173 67; 174 8; 
175 1; 176 1; 177 1; 178 5; 179 5; 
180 29; 181 21; 182 34; 183 17; 184 45; 
185 22; 186 38; 187 5; 188 1; 190 1; 
191 4; 192 6; 193 5; 194 18; 195 7; 
196 40; 197 16; 198 37; 199 10; 200 9; 
201 1; 204 3; 205 1; 206 4; 207 8; 
208 8; 209 4; 210 33; 211 8; 212 84; 
213 14; 214 5; 215 1; 217 1; 218 1; 
219 1; 220 11; 221 104; 222 35; 223 37; 
224 21; 225 5; 226 19; 227 8; 228 16; 
229 4; 230 1; 232 1; 233 1; 234 98; 
235 22; 236 42; 237 9; 238 5; 239 3; 
240 4; 241 1; 246 38; 247 18; 248 999; 
249 164; 250 334; 251 53; 252 14; 253 3; 
254 62; 255 12; 256 1; 258 1; 259 2; 
260 6; 261 12; 262 32; 263 905; 264 160; 
265 299; 266 52; 267 5; 268 3; 272 29; 
273 6; 274 16; 275 4; 276 5; 277 2; 
278 2; 279 2; 280 1; 281 2; 282 2; 
283 1; 284 1; 285 1; 286 17; 287 12; 
288 61; 289 35; 290 50; 291 20; 292 13; 
293 3; 294 25; 295 5; 296 2; 300 2; 
301 3; 302 105; 303 29; 304 42; 305 10; 
306 2; 308 1; 309 11; 310 12; 311 3; 
312 5; 313 3; 314 5; 315 7; 316 11; 
317 17; 318 6; 319 5; 326 1; 327 11; 
328 54; 329 20; 330 717; 331 157; 332 237; 
333 50; 334 5; 343 1; 344 32; 345 311; 
346 89; 347 117; 348 26; 349 3; 
