Name: 1-Propyl-3-benzoylindole
InChIKey: RUXMLPIYIJNJMQ-UHFFFAOYSA-N
Formula: C18H17NO
MW: 263
ExactMass: 263.131014
CASNO: 0
ID: 3437
Comment: DEA SFL1 / Lot # ALB171-5
Num Peaks: 98
36 8; 38 7; 39 67; 40 8; 41 162; 
42 14; 43 146; 44 6; 50 47; 51 182; 
52 19; 53 3; 62 21; 63 46; 64 9; 
65 9; 73 4; 74 20; 75 47; 76 47; 
77 507; 78 46; 83 3; 87 19; 88 42; 
89 121; 90 17; 91 12; 96 1; 101 60; 
102 94; 103 32; 104 5; 105 384; 106 33; 
113 7; 114 45; 115 106; 116 190; 117 28; 
118 3; 126 5; 127 8; 128 102; 129 83; 
130 48; 137 2; 139 18; 140 10; 141 4; 
142 2; 143 50; 144 324; 145 34; 150 9; 
151 12; 152 10; 154 11; 156 14; 157 5; 
158 16; 163 36; 164 30; 165 83; 166 13; 
170 12; 176 20; 177 13; 178 22; 184 11; 
186 999; 187 125; 188 13; 189 3; 190 28; 
191 24; 192 86; 193 15; 204 22; 205 5; 
206 20; 207 1; 216 6; 217 9; 219 5; 
220 42; 221 10; 232 6; 233 13; 234 466; 
235 86; 236 9; 246 10; 261 4; 262 30; 
263 729; 264 145; 265 15; 
