Name: 25T-NBOMe
InChIKey: ZWPIZVVOKGWMFW-UHFFFAOYSA-N
Synon: 2-(2,5-dimethoxy-4-(methylthio)phenyl)-N-(2-methoxybenzyl)ethan-1-amine
Synon: {2-[2,5-dimethoxy-4-(methylsulfanyl)phenyl]ethyl}[(2-methoxyphenyl)methyl]amine
Synon: 2,5-Dimethoxy-N-[(2-methoxyphenyl)methyl]-4-(methylthio)-benzeneethanamine
Synon: 2C-T-NB2OMe
Synon: 25T-NB2OMe
Synon: 2C-T-NBOMe
Formula: C19H25NO3S
MW: 347
ExactMass: 347.155514
CASNO: 0
ID: 3444
Comment: Provided by www.caymanchem.com/app/template/landing%2CForensic.vm / Item #14562  Lot #0448263
Num Peaks: 142
40 1; 41 4; 42 4; 43 2; 45 7; 
47 2; 50 3; 51 10; 52 5; 53 8; 
54 1; 55 1; 58 1; 59 1; 61 1; 
62 3; 63 9; 64 5; 65 40; 66 7; 
67 7; 68 2; 69 3; 70 1; 71 2; 
72 2; 73 3; 74 1; 75 4; 76 5; 
77 49; 78 39; 79 17; 80 3; 81 2; 
82 1; 83 1; 84 1; 85 6; 87 1; 
89 16; 91 347; 92 34; 93 35; 94 6; 
95 4; 96 5; 97 6; 98 1; 101 1; 
102 2; 103 4; 104 7; 105 14; 106 8; 
107 28; 108 12; 109 17; 110 5; 111 9; 
112 1; 115 1; 116 1; 117 8; 118 15; 
119 16; 121 999; 122 100; 123 16; 124 9; 
125 4; 126 1; 127 1; 128 1; 131 1; 
132 4; 133 10; 134 15; 135 19; 136 14; 
137 21; 138 6; 139 7; 140 3; 141 1; 
145 1; 146 1; 147 7; 148 48; 150 340; 
151 56; 152 49; 153 13; 154 6; 155 2; 
158 1; 160 1; 162 4; 163 3; 164 4; 
165 3; 167 69; 168 9; 169 4; 170 1; 
173 1; 177 2; 178 1; 179 2; 180 3; 
181 12; 182 7; 183 24; 184 3; 185 2; 
193 2; 194 1; 195 5; 197 91; 198 328; 
199 43; 200 19; 201 2; 207 11; 208 4; 
209 3; 210 5; 211 7; 212 1; 225 1; 
253 2; 267 1; 281 3; 282 3; 283 1; 
314 14; 315 3; 316 2; 317 1; 345 4; 
346 2; 347 1; 
