Name: 2C-G
Synon: 3,4-Dimethyl-2,5-dimethoxyphenethylamine
Synon: 2,5-Dimethoxy-3,4-dimethylbenzeneethanamine
InChIKey: NFOHGLKGLZIHJQ-UHFFFAOYSA-N
Formula: C12H19NO2
MW: 209
ExactMass: 209.141579
CASNO: 327175144
ID: 3445
Comment: Provided by www.caymanchem.com/app/template/landing%2CForensic.vm / Item #14064  Lot #0447829
Num Peaks: 123
40 9; 41 18; 42 6; 43 17; 44 5; 
46 1; 50 9; 51 25; 52 12; 53 34; 
54 5; 55 14; 56 2; 57 2; 59 2; 
60 3; 61 1; 62 2; 63 18; 64 8; 
65 46; 66 21; 67 48; 68 9; 69 5; 
70 1; 73 1; 74 4; 75 4; 77 144; 
78 47; 79 83; 80 13; 81 14; 82 5; 
83 7; 86 1; 87 2; 89 16; 91 272; 
92 33; 93 70; 94 15; 95 6; 96 4; 
97 5; 101 1; 102 10; 103 43; 104 23; 
105 94; 106 30; 107 46; 108 10; 109 7; 
110 1; 111 2; 112 1; 113 1; 115 36; 
116 14; 117 44; 119 206; 120 32; 121 152; 
122 42; 123 6; 125 1; 127 3; 128 2; 
129 3; 130 7; 131 14; 132 9; 133 31; 
134 147; 135 62; 136 38; 137 62; 138 11; 
142 1; 144 4; 145 7; 146 18; 147 19; 
148 15; 149 97; 150 37; 151 15; 152 2; 
155 1; 159 1; 160 7; 161 15; 162 37; 
163 25; 165 999; 166 103; 167 11; 168 1; 
171 1; 173 3; 175 4; 176 28; 177 159; 
178 345; 179 151; 180 708; 181 85; 182 6; 
186 1; 189 2; 190 8; 191 1; 192 5; 
193 4; 194 2; 201 1; 205 3; 206 1; 
207 3; 209 78; 210 13; 
