Name: RCS-4 4-hydroxyphenyl metabolite
Synon: (4-Hydroxyphenyl)(1-pentyl-1H-indol-3-yl)methanone
InChIKey: ZPPQEOQJTJSGKK-UHFFFAOYSA-N
Formula: C20H21NO2
MW: 307
ExactMass: 307.157228
CASNO: 0
ID: 3447
Comment: Provided by www.caymanchem.com/app/template/landing%2CForensic.vm / Item #14345  Lot #0448712
Num Peaks: 191
41 108; 43 147; 44 7; 45 1; 50 6; 
51 14; 52 5; 53 16; 55 27; 56 4; 
57 1; 61 2; 62 11; 63 36; 65 170; 
66 14; 67 4; 69 6; 70 2; 71 4; 
73 11; 74 9; 75 29; 76 28; 77 35; 
78 14; 79 3; 81 1; 82 3; 84 4; 
86 3; 87 11; 88 22; 89 63; 90 14; 
91 8; 92 23; 93 194; 94 23; 96 5; 
97 4; 98 2; 99 3; 101 44; 102 107; 
103 39; 104 6; 105 5; 106 1; 107 4; 
108 1; 110 2; 112 119; 113 6; 114 28; 
115 90; 116 114; 117 25; 118 10; 119 6; 
121 839; 122 66; 123 7; 125 7; 126 11; 
127 21; 128 99; 129 110; 130 174; 131 31; 
132 3; 133 3; 134 1; 135 4; 137 2; 
139 14; 140 16; 141 5; 142 8; 143 46; 
144 281; 145 31; 146 2; 147 3; 149 2; 
150 12; 151 32; 152 81; 153 35; 154 24; 
155 8; 156 22; 157 12; 158 18; 159 3; 
161 1; 162 3; 163 15; 164 13; 165 35; 
166 14; 167 17; 168 7; 170 29; 171 7; 
172 3; 175 1; 176 9; 177 17; 178 27; 
179 15; 180 42; 181 30; 182 7; 183 3; 
184 16; 186 181; 187 31; 188 4; 190 21; 
191 32; 192 25; 193 18; 194 18; 195 4; 
196 1; 197 1; 198 1; 200 1; 202 2; 
203 5; 204 20; 205 7; 206 15; 207 48; 
208 285; 209 49; 210 9; 211 1; 212 2; 
214 549; 215 79; 216 10; 217 2; 218 3; 
220 30; 221 13; 222 48; 223 12; 224 2; 
232 10; 233 12; 234 8; 235 6; 236 28; 
237 23; 238 3; 246 2; 248 10; 250 877; 
251 243; 252 31; 253 7; 254 1; 255 1; 
259 1; 261 1; 262 5; 263 2; 264 11; 
265 4; 267 2; 269 1; 273 1; 274 1; 
276 2; 278 70; 279 16; 281 10; 282 2; 
283 2; 290 33; 291 10; 292 37; 293 9; 
294 1; 301 1; 307 999; 308 205; 309 25; 
310 3; 
