Name: 4'-Fluoro-.alpha.-pyrollidinopropiophenone
Synon: 4'F-.alpha.-PPP
Synon: 1-(4-Fluorophenyl)-2-(1-pyrrolidinyl)-1-propanone
InChIKey: UYOUBVZNVDVMOA-UHFFFAOYSA-N
Formula: C13H16FNO
MW: 221
ExactMass: 221.1215925
CASNO: 0
ID: 3450
Comment: Provided by www.caymanchem.com/app/template/landing%2CForensic.vm / Item #14448  Lot #0448716
Num Peaks: 60
40 5; 41 38; 42 29; 43 6; 44 17; 
45 1; 50 8; 51 6; 52 2; 53 7; 
54 26; 55 46; 56 127; 57 8; 62 2; 
63 3; 65 1; 67 3; 68 22; 69 59; 
70 26; 71 1; 74 12; 75 84; 76 7; 
77 6; 78 1; 80 2; 81 3; 82 2; 
83 2; 92 1; 93 3; 95 173; 96 48; 
98 999; 99 69; 100 2; 101 3; 102 1; 
103 6; 107 2; 109 7; 115 1; 120 1; 
121 2; 123 75; 124 6; 133 4; 134 1; 
135 1; 148 1; 149 1; 150 1; 151 2; 
152 1; 206 2; 218 1; 219 2; 220 2; 
