Name: PF-3845
Synon: N-3-Pyridinyl-4-[[3-[[5-(trifluoromethyl)-2-pyridinyl]oxy]phenyl]methyl]1-piperidinecarboxamide
InChIKey: NBOJHRYUGLRASX-UHFFFAOYSA-N
Formula: C24H23F3N4O2
MW: 456
ExactMass: 456.17731
CASNO: 1196109520
ID: 3454
Comment: Provided by www.caymanchem.com/app/template/landing%2CForensic.vm / Item #13279  Lot #0438253
Num Peaks: 243
40 12; 41 68; 42 234; 43 77; 44 85; 
45 6; 46 1; 50 32; 51 50; 52 25; 
53 57; 55 485; 56 529; 57 212; 58 14; 
59 1; 61 2; 62 13; 63 66; 64 36; 
65 60; 66 11; 67 58; 69 650; 70 48; 
71 5; 73 2; 74 10; 75 64; 76 46; 
77 118; 78 70; 79 24; 80 68; 82 815; 
83 186; 84 658; 85 42; 86 4; 87 12; 
89 276; 90 173; 91 119; 92 15; 93 9; 
94 11; 95 19; 96 39; 97 197; 98 34; 
99 16; 100 15; 101 13; 102 26; 103 37; 
104 15; 105 18; 106 9; 107 29; 108 8; 
109 3; 111 1; 113 8; 115 340; 116 189; 
117 71; 118 16; 119 32; 120 11; 121 5; 
122 1; 124 2; 126 205; 127 82; 128 172; 
129 87; 130 37; 131 31; 132 14; 133 21; 
134 12; 135 32; 136 5; 137 3; 138 3; 
139 9; 140 11; 141 33; 142 20; 143 22; 
144 42; 146 178; 147 30; 148 12; 149 2; 
151 9; 152 9; 154 90; 155 52; 156 16; 
157 10; 158 17; 159 6; 160 4; 161 9; 
163 15; 164 47; 165 12; 166 8; 167 22; 
168 15; 169 6; 170 5; 171 8; 173 923; 
174 159; 175 20; 176 5; 177 26; 178 9; 
179 2; 180 12; 181 8; 182 21; 183 20; 
184 21; 185 24; 186 7; 187 3; 188 3; 
189 8; 190 18; 191 8; 192 3; 193 2; 
194 3; 195 5; 196 7; 197 7; 198 15; 
199 3; 200 3; 201 3; 202 8; 203 24; 
204 24; 205 7; 206 2; 207 3; 208 5; 
209 11; 210 13; 211 16; 212 5; 213 2; 
214 4; 215 2; 216 4; 218 5; 219 2; 
220 5; 222 50; 223 14; 224 30; 225 9; 
226 2; 227 2; 228 2; 229 1; 230 4; 
231 2; 232 7; 233 11; 234 8; 235 17; 
236 16; 237 15; 238 34; 239 22; 240 28; 
241 5; 242 1; 243 1; 244 1; 245 1; 
246 2; 248 9; 251 224; 252 293; 253 305; 
254 51; 255 8; 258 2; 259 2; 260 6; 
261 4; 262 11; 264 33; 265 19; 266 65; 
267 21; 268 4; 269 1; 272 7; 273 3; 
274 4; 275 5; 276 15; 278 283; 279 317; 
280 144; 281 32; 282 3; 286 1; 287 2; 
288 6; 290 110; 291 29; 292 84; 293 39; 
294 27; 295 5; 296 1; 297 6; 298 1; 
300 1; 302 4; 304 10; 306 37; 307 13; 
308 2; 316 56; 317 79; 318 27; 319 8; 
320 1; 321 4; 330 1; 333 4; 335 999; 
336 454; 337 76; 338 9; 
