Name: 1'-Naphthoyl-2-methylindole
Synon: (2-Methyl-1H-indol-3-yl)-1-naphthalenyl-methanone
InChIKey: OTDPQVHIHSTMFS-UHFFFAOYSA-N
Formula: C20H15NO
MW: 285
ExactMass: 285.115364
CASNO: 80749333
ID: 3457
Comment: Provided by www.caymanchem.com/app/template/landing%2CForensic.vm / Item #14801  Lot #0450352
Num Peaks: 166
40 1; 41 3; 42 8; 43 1; 50 18; 
51 40; 52 14; 53 5; 54 2; 62 20; 
63 45; 64 11; 65 9; 66 1; 67 1; 
73 4; 74 37; 75 73; 76 67; 77 280; 
78 36; 79 5; 80 1; 82 3; 83 1; 
85 3; 86 12; 87 26; 88 21; 89 36; 
90 8; 91 4; 94 9; 95 15; 97 1; 
98 12; 99 14; 100 24; 101 100; 102 137; 
103 200; 104 34; 107 30; 110 2; 111 4; 
113 31; 114 20; 115 20; 117 3; 121 142; 
123 2; 126 184; 127 448; 128 211; 129 118; 
130 236; 131 29; 133 20; 134 31; 135 54; 
137 3; 138 2; 139 13; 140 6; 142 34; 
143 70; 144 5; 149 2; 150 10; 151 8; 
152 7; 153 4; 154 7; 155 31; 156 7; 
158 867; 159 102; 160 6; 161 4; 162 4; 
163 14; 164 7; 165 6; 166 2; 167 3; 
168 3; 169 1; 174 5; 175 3; 176 10; 
177 3; 178 3; 180 1; 185 2; 187 18; 
188 11; 189 19; 190 5; 191 2; 193 1; 
195 1; 197 1; 198 1; 199 4; 200 12; 
201 9; 202 11; 203 4; 204 2; 207 6; 
208 3; 209 2; 210 1; 211 11; 212 8; 
213 60; 214 34; 215 50; 216 13; 217 4; 
218 1; 222 1; 224 9; 225 8; 226 31; 
227 15; 228 18; 229 10; 230 5; 231 1; 
236 1; 237 3; 238 9; 239 18; 240 42; 
241 94; 242 52; 243 13; 244 2; 249 1; 
251 10; 252 13; 253 29; 254 97; 255 40; 
256 74; 257 27; 258 6; 259 1; 264 5; 
265 17; 266 55; 267 88; 268 422; 269 160; 
270 327; 271 71; 272 7; 280 1; 281 3; 
282 12; 284 913; 285 999; 286 198; 287 22; 
288 1; 
