Name: JWH-073 N-(2-hydroxybutyl) metabolite
Synon: (1-(2-hydroxybutyl)-1H-indol-3-yl)(naphthalen-1-yl)methanone
InChIKey: ISBQGIMPMGWASY-UHFFFAOYSA-N
Formula: C23H21NO2
MW: 343
ExactMass: 343.157228
CASNO: 0
ID: 3459
Comment: Provided by www.caymanchem.com/app/template/landing%2CForensic.vm / Item #14237  Lot #0448844
Num Peaks: 235
41 49; 42 5; 43 26; 44 10; 45 9; 
46 2; 47 1; 50 8; 51 23; 52 5; 
53 6; 55 46; 56 4; 57 22; 59 114; 
60 4; 61 3; 62 7; 63 21; 64 4; 
65 5; 69 1; 70 1; 71 2; 73 24; 
74 18; 75 45; 76 31; 77 107; 78 24; 
79 2; 80 1; 82 1; 85 1; 86 3; 
87 12; 88 14; 89 47; 90 7; 91 3; 
94 3; 95 1; 96 1; 97 2; 98 5; 
99 7; 100 15; 101 86; 102 127; 103 50; 
104 8; 105 2; 106 8; 108 1; 109 1; 
110 1; 111 2; 113 19; 114 19; 115 44; 
116 73; 117 37; 118 6; 119 2; 121 13; 
122 2; 123 1; 125 13; 126 133; 127 929; 
128 296; 129 210; 130 217; 131 21; 132 7; 
133 4; 134 5; 135 11; 137 1; 138 2; 
139 29; 140 13; 142 127; 144 167; 145 15; 
146 3; 147 5; 148 3; 149 4; 150 7; 
151 10; 152 10; 153 8; 155 524; 156 97; 
157 29; 158 56; 159 7; 161 1; 163 11; 
164 6; 165 3; 167 89; 168 26; 169 2; 
170 4; 171 1; 172 1; 174 4; 175 2; 
176 7; 177 3; 178 4; 179 2; 180 1; 
181 4; 182 1; 184 2; 186 12; 187 16; 
188 11; 189 12; 190 5; 191 7; 192 3; 
193 6; 194 2; 195 3; 196 2; 197 2; 
198 10; 199 6; 200 16; 201 9; 202 13; 
203 5; 204 1; 205 1; 207 25; 208 5; 
209 11; 211 8; 213 42; 214 31; 216 216; 
217 31; 218 6; 220 1; 221 2; 222 2; 
223 3; 224 12; 226 50; 227 29; 228 34; 
229 15; 230 6; 231 2; 232 1; 236 1; 
237 3; 238 9; 239 29; 240 43; 241 79; 
242 32; 243 10; 244 2; 247 1; 249 3; 
250 4; 251 11; 252 16; 253 48; 254 197; 
255 91; 256 128; 257 32; 258 4; 259 1; 
264 7; 265 18; 266 57; 267 72; 268 182; 
269 146; 270 251; 271 52; 272 6; 273 2; 
277 1; 278 3; 281 14; 282 49; 284 999; 
285 298; 286 48; 287 5; 289 1; 291 1; 
293 2; 294 4; 296 9; 297 3; 300 1; 
302 1; 307 2; 308 15; 309 7; 310 12; 
311 3; 312 2; 314 30; 315 7; 316 2; 
317 1; 321 1; 322 1; 324 65; 325 31; 
326 59; 327 18; 328 6; 329 2; 331 2; 
332 1; 334 1; 337 1; 338 1; 340 2; 
343 628; 344 145; 345 21; 346 2; 347 1; 
