Name: 5-Fluoro-PB-22 N-(4-fluoropentyl) isomer
Synon: Quinolin-8-yl-1-(4-fluoropentyl)-1H-indole-3-carboxylate
Synon: 5F-PB-22 N-(4-fluoropentyl) isomer
InChIKey: OMYXQSSFQLPJBR-UHFFFAOYSA-N
Formula: C23H21FN2O2
MW: 376
ExactMass: 376.158707
CASNO: 0
ID: 3460
Comment: Provided by www.caymanchem.com/app/template/landing%2CForensic.vm / Item #14548  Lot #0449575
Num Peaks: 141
41 35; 42 1; 43 8; 44 2; 47 20; 
50 3; 51 5; 52 3; 53 3; 55 2; 
57 1; 59 3; 61 4; 62 8; 63 26; 
64 7; 65 7; 66 1; 67 4; 69 29; 
70 2; 73 6; 74 2; 75 10; 76 9; 
77 10; 78 4; 83 1; 86 2; 87 6; 
88 16; 89 104; 90 27; 91 3; 98 1; 
100 2; 101 14; 102 29; 103 11; 104 1; 
114 12; 115 46; 116 202; 117 47; 118 4; 
126 1; 127 5; 128 29; 129 44; 130 19; 
131 3; 135 3; 136 1; 140 3; 141 2; 
143 41; 144 217; 145 49; 146 6; 147 2; 
148 1; 149 1; 150 1; 151 2; 152 1; 
153 1; 154 6; 155 4; 156 6; 157 8; 
158 13; 159 1; 160 3; 161 1; 162 1; 
163 1; 164 1; 165 1; 166 2; 167 6; 
168 6; 170 11; 171 3; 174 1; 176 5; 
180 1; 182 2; 183 3; 184 6; 185 3; 
187 1; 188 1; 194 1; 195 1; 196 1; 
197 1; 202 1; 203 1; 204 1; 205 1; 
207 8; 208 1; 209 2; 210 5; 212 176; 
213 28; 214 3; 215 1; 216 2; 221 1; 
225 1; 230 10; 232 999; 233 153; 234 14; 
235 1; 239 1; 242 1; 249 1; 253 4; 
256 1; 258 1; 259 2; 260 1; 267 1; 
268 1; 281 1; 287 1; 301 2; 302 1; 
326 1; 327 1; 332 1; 341 2; 343 1; 
355 1; 356 5; 357 1; 376 14; 377 3; 
378 1; 
