Name: Phenylpiracetam
Synon: Carphedon
Synon: Phenotropil
Synon: 2-Oxo-4-phenyl-1-pyrrolidineacetamide
InChIKey: LYONXVJRBWWGQO-UHFFFAOYSA-N
Formula: C12H14N2O2
MW: 218
ExactMass: 218.105528
CASNO: 77472709
ID: 3470
Comment: Provided by www.caymanchem.com/app/template/landing%2CForensic.vm / Item #13897  Lot #0450583
Num Peaks: 110
40 19; 41 84; 42 215; 43 79; 44 307; 
45 7; 46 2; 49 1; 50 44; 51 110; 
52 33; 53 14; 54 9; 55 40; 56 18; 
58 20; 59 53; 60 1; 61 3; 62 16; 
63 65; 64 15; 65 94; 66 11; 67 10; 
68 33; 69 7; 70 5; 71 17; 72 3; 
73 7; 74 29; 75 31; 76 51; 77 376; 
78 314; 79 80; 80 6; 82 4; 84 1; 
85 3; 87 24; 88 11; 89 57; 91 401; 
92 35; 93 2; 94 1; 96 8; 97 2; 
98 3; 99 3; 100 1; 101 16; 102 93; 
103 458; 104 889; 105 257; 106 22; 107 2; 
113 2; 115 273; 116 76; 117 591; 118 90; 
119 11; 120 76; 121 7; 122 1; 124 1; 
127 126; 128 50; 129 312; 130 162; 131 132; 
132 161; 133 17; 134 1; 140 1; 142 4; 
143 21; 144 125; 145 522; 146 113; 147 12; 
154 2; 156 34; 157 25; 159 121; 160 892; 
161 106; 162 7; 169 1; 170 1; 172 24; 
174 999; 175 184; 176 18; 177 2; 191 1; 
200 35; 201 136; 202 20; 203 1; 207 2; 
209 1; 216 2; 218 208; 219 31; 220 3; 
