Name: AKB48 N-(4-hydroxypentyl) metabolite
Synon: N-((3s,5s,7s)-adamantan-1-yl)-1-(4-hydroxypentyl)-1H-indazole-3-carboxamide
Synon: APINACA N-(4-hydroxypentyl) metabolite
InChIKey: RTBQZNKCFFBCBJ-UHFFFAOYSA-N
Formula: C23H31N3O2
MW: 381
ExactMass: 381.241627
CASNO: 0
ID: 3474
Comment: Provided by www.caymanchem.com/app/template/landing%2CForensic.vm / Item #14221  Lot #0450653
Num Peaks: 272
41 194; 42 35; 43 132; 45 285; 46 7; 
48 1; 50 8; 51 13; 52 9; 53 35; 
54 23; 55 75; 56 24; 57 32; 58 35; 
59 4; 61 2; 62 8; 63 14; 64 9; 
65 38; 66 33; 67 133; 68 28; 69 199; 
70 19; 71 31; 72 3; 73 6; 74 3; 
75 18; 76 38; 77 209; 78 59; 79 235; 
80 49; 81 80; 82 22; 83 6; 85 131; 
86 7; 87 8; 88 43; 89 54; 90 105; 
91 226; 92 173; 93 297; 94 181; 95 28; 
96 9; 97 2; 99 1; 102 70; 103 234; 
104 90; 105 65; 106 41; 107 80; 108 71; 
109 34; 110 6; 111 1; 112 1; 113 1; 
114 2; 115 18; 116 26; 117 88; 118 42; 
119 50; 120 41; 121 10; 122 9; 123 4; 
126 8; 127 9; 128 19; 129 106; 130 135; 
131 346; 132 80; 133 52; 135 614; 136 124; 
137 9; 139 2; 140 4; 141 4; 142 11; 
143 34; 145 999; 146 99; 147 21; 148 11; 
150 493; 151 87; 152 14; 154 13; 155 14; 
156 25; 157 51; 158 52; 159 50; 160 15; 
161 22; 162 25; 163 6; 165 3; 166 2; 
167 3; 168 5; 169 17; 171 103; 172 27; 
173 10; 174 92; 175 120; 176 14; 177 9; 
178 1; 179 3; 180 3; 181 4; 182 5; 
183 12; 185 132; 186 33; 187 54; 188 16; 
189 3; 191 9; 193 4; 194 1; 195 7; 
196 7; 197 5; 198 6; 199 11; 200 15; 
201 20; 202 63; 203 73; 204 12; 205 22; 
207 26; 208 6; 209 9; 210 10; 211 8; 
213 691; 214 120; 215 64; 216 28; 218 87; 
219 16; 220 7; 221 8; 222 12; 223 6; 
224 4; 225 3; 226 3; 227 4; 229 372; 
230 75; 231 371; 232 72; 233 8; 234 2; 
235 2; 236 3; 237 4; 238 17; 239 6; 
240 3; 241 2; 242 3; 243 3; 244 6; 
246 350; 247 48; 248 7; 249 8; 250 24; 
251 21; 252 23; 253 12; 254 2; 255 4; 
256 2; 257 6; 258 3; 259 4; 260 1; 
261 2; 263 31; 264 18; 265 40; 266 15; 
267 14; 268 6; 269 3; 270 7; 271 2; 
272 1; 274 1; 275 3; 278 77; 279 23; 
280 49; 281 47; 282 12; 283 2; 284 2; 
286 8; 287 11; 288 6; 289 1; 290 2; 
292 23; 294 524; 295 128; 296 159; 297 50; 
298 8; 301 1; 302 1; 303 2; 306 27; 
308 152; 309 224; 310 49; 311 8; 312 10; 
313 4; 319 7; 320 7; 321 12; 322 16; 
324 49; 325 14; 326 4; 327 3; 328 2; 
329 2; 333 1; 334 26; 336 159; 337 196; 
338 86; 339 21; 340 10; 341 2; 343 2; 
346 2; 347 2; 348 14; 349 4; 351 71; 
353 247; 354 58; 355 10; 363 33; 364 9; 
366 19; 367 5; 368 1; 379 22; 381 117; 
382 33; 383 7; 
