Name: AKB48 N-(5-hydroxypentyl) metabolite
Synon: APINACA N-(5-hydroxypentyl) metabolite
Synon: N-((3s,5s,7s)-adamantan-1-yl)-1-(5-hydroxypentyl)-1H-indazole-3-carboxamide
InChIKey: JHUVNYPOUNCRTP-UHFFFAOYSA-N
Formula: C23H31N3O2
MW: 381
ExactMass: 381.241627
CASNO: 0
ID: 3475
Comment: Provided by www.caymanchem.com/app/template/landing%2CForensic.vm / Item #14223  Lot #0448715
Num Peaks: 291
41 244; 42 34; 43 51; 44 17; 45 9; 
50 4; 51 19; 52 14; 53 37; 54 26; 
55 118; 56 30; 57 44; 58 31; 61 3; 
62 7; 63 15; 64 11; 65 42; 66 34; 
67 159; 68 27; 69 189; 70 22; 71 4; 
73 6; 74 6; 75 16; 76 33; 77 221; 
78 70; 79 263; 80 57; 81 96; 82 28; 
83 8; 84 5; 85 31; 86 3; 87 9; 
88 77; 89 74; 90 150; 91 252; 92 217; 
93 376; 94 209; 95 34; 96 14; 97 3; 
99 2; 100 1; 102 78; 103 184; 104 91; 
105 68; 106 42; 107 87; 108 87; 109 44; 
110 12; 111 1; 112 1; 114 3; 115 21; 
116 35; 117 107; 118 48; 119 67; 120 53; 
121 14; 122 7; 123 7; 125 19; 126 2; 
127 6; 128 19; 129 92; 130 68; 131 426; 
132 93; 133 52; 135 565; 136 104; 137 9; 
139 4; 140 1; 141 5; 142 10; 143 31; 
145 999; 146 95; 147 22; 148 16; 150 589; 
151 79; 152 14; 153 9; 154 14; 155 15; 
156 28; 157 49; 158 36; 159 29; 160 15; 
161 32; 162 12; 163 2; 164 4; 165 4; 
166 1; 167 4; 168 8; 169 13; 171 143; 
172 39; 173 50; 174 137; 175 166; 176 22; 
177 20; 178 2; 179 9; 180 1; 181 6; 
182 8; 183 12; 185 114; 186 26; 187 22; 
188 11; 189 4; 190 3; 191 8; 192 5; 
193 4; 194 1; 195 8; 196 4; 197 8; 
199 74; 200 25; 201 110; 202 22; 203 35; 
204 10; 205 46; 207 44; 208 14; 209 6; 
210 7; 211 7; 213 825; 214 128; 215 37; 
216 87; 217 23; 218 87; 219 17; 220 4; 
221 5; 222 7; 223 2; 224 5; 225 4; 
226 3; 227 5; 229 124; 231 371; 232 62; 
233 10; 234 2; 236 3; 237 9; 238 18; 
239 4; 240 1; 241 2; 242 3; 243 2; 
244 1; 246 163; 247 27; 249 8; 250 18; 
251 16; 252 20; 253 14; 254 2; 255 6; 
256 4; 257 7; 259 9; 260 3; 263 29; 
265 46; 266 26; 267 39; 268 5; 269 6; 
270 5; 271 3; 273 1; 274 1; 275 1; 
276 2; 277 9; 278 18; 280 62; 281 35; 
282 19; 284 8; 286 10; 287 15; 288 8; 
290 1; 291 2; 292 5; 294 594; 295 188; 
296 260; 297 71; 298 9; 299 3; 300 3; 
302 2; 303 1; 304 3; 305 11; 306 30; 
307 33; 308 123; 309 35; 310 14; 311 6; 
312 9; 313 5; 314 1; 315 4; 316 3; 
318 6; 319 2; 320 6; 321 9; 323 125; 
324 132; 325 19; 326 1; 327 1; 328 2; 
329 2; 331 1; 332 5; 333 1; 334 5; 
336 175; 337 53; 338 23; 339 6; 340 7; 
341 6; 342 3; 344 3; 345 2; 346 2; 
347 3; 348 3; 349 4; 351 210; 353 330; 
354 76; 355 15; 357 2; 359 2; 360 1; 
361 1; 362 4; 363 9; 364 4; 366 3; 
367 1; 368 1; 369 1; 371 1; 373 1; 
376 1; 379 7; 381 117; 382 34; 383 4; 
385 1; 
