Name: 5-Fluoro-PB-22 N-(2-fluoropentyl) isomer
Synon: Quinolin-8-yl-1-(2-fluoropentyl)-1H-indole-3-carboxylate
Synon: 5F-PB-22 N-(2-fluoropentyl) isomer
InChIKey: UICLYSQZTBGUIE-UHFFFAOYSA-N
Formula: C23H21FN2O2
MW: 376
ExactMass: 376.158707
CASNO: 0
ID: 3476
Comment: Provided by www.caymanchem.com/app/template/landing%2CForensic.vm / Item #14546  Lot #0451561
Num Peaks: 105
41 16; 42 1; 43 7; 44 1; 47 6; 
50 1; 51 2; 52 1; 53 1; 55 2; 
59 2; 61 2; 62 5; 63 14; 64 3; 
65 2; 67 2; 69 11; 73 2; 74 2; 
75 5; 76 5; 77 7; 78 2; 87 3; 
88 8; 89 53; 90 11; 91 1; 101 9; 
102 24; 103 8; 114 9; 115 25; 116 122; 
117 23; 118 2; 127 2; 128 20; 129 41; 
130 17; 131 2; 133 4; 134 1; 140 1; 
141 1; 143 28; 144 116; 145 24; 146 3; 
147 1; 148 1; 150 1; 151 2; 153 1; 
154 7; 155 4; 156 3; 157 7; 158 9; 
159 1; 160 2; 161 1; 162 1; 167 3; 
168 4; 169 1; 170 1; 174 1; 175 1; 
176 3; 177 1; 182 3; 184 2; 185 1; 
188 8; 189 1; 191 1; 193 1; 202 2; 
203 2; 204 1; 205 1; 207 9; 208 1; 
209 1; 210 1; 212 18; 213 3; 214 2; 
215 1; 216 2; 228 1; 230 17; 232 999; 
233 153; 234 12; 253 2; 259 1; 281 1; 
282 1; 287 1; 301 1; 376 23; 377 5; 
