Name: UR-144 N-(3-chloropentyl) analog
Synon: (1-(3-Chloropentyl)-1H-indol-3-yl)(2,2,3,3-tetramethylcyclopropyl)methanone
Synon: 3-Cl-UR-144
InChIKey: MDLQCKHWJOOCCG-UHFFFAOYSA-N
Formula: C21H28ClNO
MW: 345
ExactMass: 345.185942
CASNO: 0
ID: 3478
Comment: Provided by www.caymanchem.com/app/template/landing%2CForensic.vm / Item #13116  Lot #0447591
Num Peaks: 215
41 147; 42 15; 43 39; 49 2; 50 2; 
51 6; 52 3; 53 23; 55 92; 56 9; 
57 18; 58 3; 59 19; 61 1; 62 4; 
63 15; 65 13; 66 6; 67 30; 69 132; 
70 8; 71 1; 73 3; 74 2; 75 11; 
76 9; 77 29; 78 9; 79 22; 81 44; 
83 47; 84 5; 87 2; 88 8; 89 27; 
90 9; 91 7; 92 1; 93 1; 94 1; 
95 7; 96 7; 97 25; 98 3; 99 1; 
100 2; 101 20; 102 60; 103 26; 104 6; 
106 2; 107 1; 109 34; 110 4; 113 17; 
114 11; 115 45; 116 60; 117 21; 118 8; 
120 14; 125 11; 126 7; 127 16; 128 59; 
129 99; 130 103; 131 18; 132 3; 137 1; 
139 7; 140 7; 141 10; 142 12; 143 40; 
144 196; 145 22; 146 2; 147 1; 150 1; 
151 3; 152 9; 153 11; 154 41; 155 19; 
156 25; 157 27; 158 11; 159 2; 164 3; 
165 9; 166 15; 167 56; 168 40; 169 15; 
170 20; 171 4; 172 7; 173 3; 177 1; 
178 6; 180 88; 181 41; 182 47; 183 16; 
184 17; 185 8; 186 8; 187 1; 190 1; 
191 5; 192 6; 193 9; 194 46; 195 18; 
196 55; 197 20; 198 15; 199 3; 203 1; 
204 2; 205 2; 206 5; 207 9; 208 10; 
210 54; 212 160; 213 26; 214 11; 215 1; 
217 1; 218 2; 219 2; 221 22; 222 25; 
223 13; 224 39; 225 9; 226 5; 227 4; 
228 1; 229 1; 234 5; 235 1; 236 6; 
237 2; 238 7; 239 11; 240 4; 241 1; 
242 1; 246 5; 248 999; 249 158; 250 328; 
251 50; 252 29; 253 8; 254 32; 255 6; 
260 1; 263 73; 264 18; 265 24; 266 7; 
267 2; 268 5; 270 1; 272 27; 273 5; 
274 10; 275 1; 276 2; 277 2; 278 2; 
279 2; 280 2; 281 3; 282 1; 286 55; 
287 43; 288 32; 289 18; 290 3; 291 1; 
292 2; 294 25; 295 6; 296 2; 302 27; 
303 7; 304 25; 305 5; 306 5; 307 2; 
309 12; 310 2; 311 2; 314 1; 315 3; 
316 1; 317 1; 327 1; 328 7; 330 136; 
331 30; 332 43; 333 10; 342 1; 343 1; 
345 93; 346 24; 347 29; 348 7; 349 1; 
