Name: N-methyl-2AI
Synon: N-Methyl-2-aminoindane
Synon: NM-2AI
Synon: 2,3-Dihydro-N-methyl-1H-inden-2-amine
InChIKey: SXWZQUCTTOBHJT-UHFFFAOYSA-N
Formula: C10H13N
MW: 147
ExactMass: 147.104799
CASNO: 10408852
ID: 3480
Comment: Provided by www.caymanchem.com/app/template/landing%2CForensic.vm / Item #14897  Lot #0451262
Num Peaks: 88
40 19; 42 657; 43 27; 44 25; 45 1; 
46 1; 47 1; 50 31; 51 68; 52 28; 
53 16; 54 17; 55 11; 56 40; 57 17; 
58 11; 59 10; 60 6; 61 10; 62 39; 
63 123; 64 33; 65 91; 67 9; 68 12; 
69 2; 70 9; 72 31; 73 44; 74 36; 
75 34; 76 30; 77 194; 78 107; 79 57; 
80 14; 81 5; 82 2; 83 1; 85 5; 
86 12; 87 22; 88 14; 89 123; 91 355; 
92 38; 93 6; 94 5; 96 1; 98 3; 
99 1; 100 1; 101 9; 102 45; 103 127; 
104 97; 105 173; 106 470; 107 40; 108 3; 
109 2; 110 1; 111 1; 113 14; 115 482; 
116 291; 117 270; 118 55; 119 11; 120 10; 
121 3; 122 1; 123 1; 127 1; 128 10; 
130 144; 131 91; 132 232; 133 24; 140 1; 
141 1; 142 2; 143 8; 144 89; 145 40; 
147 999; 148 96; 149 7; 
