Name: LY2183240
Synon: 5-([1,1'-biphenyl]-4-ylmethyl)-N,N-dimethyl-1H-tetrazole-1-carboxamide
InChIKey: GZNIYOXWFCDBBJ-UHFFFAOYSA-N
Formula: C17H17N5O
MW: 307
ExactMass: 307.14331
CASNO: 874902199
ID: 3481
Comment: Provided by www.caymanchem.com/app/template/landing%2CForensic.vm / Item #10008663  Lot #0447876
Num Peaks: 128
40 9; 41 14; 42 61; 43 30; 44 12; 
45 1; 50 8; 51 16; 52 6; 53 3; 
54 4; 55 5; 56 37; 57 21; 58 9; 
61 1; 62 8; 63 28; 64 4; 65 12; 
66 1; 69 31; 70 23; 72 360; 73 17; 
74 13; 75 18; 76 22; 77 28; 78 6; 
82 25; 83 16; 85 4; 86 6; 87 11; 
88 9; 89 26; 90 4; 91 7; 96 3; 
97 5; 98 9; 99 5; 100 3; 101 7; 
102 20; 103 4; 104 1; 110 1; 112 42; 
113 12; 114 8; 115 56; 116 14; 117 2; 
124 2; 125 14; 126 28; 127 20; 128 39; 
129 4; 131 1; 132 2; 133 1; 134 1; 
135 1; 137 3; 139 49; 141 15; 142 2; 
146 25; 147 4; 149 2; 150 21; 151 57; 
152 237; 153 43; 154 9; 161 1; 163 30; 
165 460; 166 133; 167 999; 168 139; 169 9; 
174 26; 175 6; 176 28; 177 28; 178 103; 
179 97; 180 35; 181 12; 182 2; 188 1; 
190 23; 191 16; 192 70; 193 199; 194 85; 
195 40; 196 6; 197 1; 205 1; 207 36; 
208 77; 209 18; 210 4; 219 1; 220 3; 
222 131; 223 24; 224 2; 234 2; 235 9; 
236 6; 237 2; 250 98; 251 18; 252 2; 
253 3; 263 2; 264 4; 265 1; 279 976; 
280 185; 281 23; 282 2; 
