Name: JWH-081 4-hydroxynaphthyl metabolite
Synon: (4-Hydroxy-1-naphthalenyl)(1-pentyl-1H-indol-3-yl)-methanone
InChIKey: SVZBBFXTYNKESE-UHFFFAOYSA-N
Formula: C24H23NO2
MW: 357
ExactMass: 357.172878
CASNO: 1393345760
ID: 3482
Comment: Provided by www.caymanchem.com/app/template/landing%2CForensic.vm / Item #14347  Lot #0448713
Num Peaks: 269
41 173; 43 312; 44 14; 45 5; 46 1; 
48 2; 49 1; 50 5; 51 15; 52 3; 
53 16; 55 58; 56 5; 57 2; 59 4; 
61 4; 62 19; 63 43; 65 33; 66 2; 
67 5; 69 10; 70 2; 71 10; 73 21; 
74 18; 75 37; 76 37; 77 51; 78 15; 
79 3; 81 4; 82 1; 84 2; 85 3; 
86 11; 87 25; 88 65; 89 174; 90 27; 
91 9; 92 2; 93 2; 94 8; 95 11; 
96 9; 97 1; 98 5; 99 4; 100 16; 
101 65; 102 152; 103 61; 104 13; 105 2; 
107 20; 109 14; 110 6; 111 1; 113 55; 
114 152; 115 682; 116 258; 117 46; 118 24; 
119 7; 121 36; 122 13; 123 3; 124 2; 
125 5; 126 22; 127 73; 128 159; 129 156; 
130 149; 131 36; 132 19; 133 6; 134 3; 
135 39; 137 42; 139 13; 140 8; 141 22; 
143 366; 144 563; 145 59; 146 4; 147 4; 
148 4; 150 110; 152 14; 153 5; 154 26; 
155 26; 156 43; 157 38; 158 28; 159 6; 
160 3; 162 3; 163 21; 164 14; 165 11; 
166 10; 167 14; 168 17; 169 13; 171 671; 
172 82; 173 9; 174 13; 175 6; 176 27; 
177 9; 179 32; 180 3; 181 6; 183 275; 
184 49; 185 27; 186 55; 187 42; 188 8; 
189 15; 190 10; 191 3; 192 4; 193 7; 
195 5; 196 4; 197 11; 200 59; 201 70; 
202 138; 203 47; 204 16; 205 1; 207 33; 
208 8; 209 4; 210 5; 211 6; 212 18; 
214 748; 215 155; 216 33; 217 21; 218 8; 
219 2; 221 3; 223 1; 224 5; 225 8; 
226 31; 227 52; 228 137; 229 60; 230 154; 
231 56; 232 9; 233 1; 234 1; 236 2; 
237 5; 238 12; 239 10; 240 87; 241 135; 
242 64; 243 23; 244 29; 245 6; 246 3; 
249 5; 250 3; 251 3; 252 4; 253 21; 
254 77; 255 34; 256 48; 257 144; 258 131; 
259 38; 260 5; 261 1; 263 3; 264 1; 
265 8; 267 11; 268 11; 270 159; 271 82; 
272 112; 273 25; 274 9; 276 1; 278 1; 
279 3; 281 14; 282 38; 283 44; 284 64; 
286 380; 287 95; 288 27; 289 2; 290 2; 
292 2; 293 1; 294 2; 295 6; 296 25; 
297 15; 298 33; 300 738; 301 174; 302 36; 
303 2; 304 1; 305 2; 306 3; 309 3; 
310 9; 311 4; 312 5; 313 5; 314 20; 
315 12; 316 2; 318 1; 319 2; 320 1; 
322 8; 323 2; 324 6; 325 4; 328 131; 
329 54; 330 12; 331 4; 332 1; 333 1; 
336 1; 338 35; 340 528; 341 152; 342 42; 
343 8; 344 2; 345 1; 346 3; 347 1; 
348 1; 349 1; 350 1; 351 2; 352 1; 
353 3; 354 7; 356 491; 357 999; 358 242; 
359 34; 360 4; 362 3; 363 1; 
