Name: MDPV metabolite
Synon: 3,4-Dihydroxypyrovalerone
Synon: 3,4-Hydroxy-.alpha.-pyrrolidinopentiophenone
Synon: 1-(3,4-Dihydroxyphenyl)-2-(pyrrolidin-1-yl)pentan-1-one
InChIKey: KKTUFJIEHNEGDF-UHFFFAOYSA-N
Formula: C15H21NO3
MW: 263
ExactMass: 263.152143
CASNO: 0
ID: 3486
Comment: Provided by www.caymanchem.com/app/template/landing%2CForensic.vm / Item #12004  Lot #0451747
Num Peaks: 89
40 3; 41 24; 42 26; 43 8; 44 1; 
50 2; 51 5; 52 7; 53 15; 54 13; 
55 37; 56 10; 57 2; 62 2; 63 8; 
64 2; 65 2; 66 1; 67 4; 68 14; 
69 28; 70 20; 71 2; 72 2; 73 15; 
74 1; 75 1; 77 4; 78 2; 79 4; 
80 6; 81 30; 82 7; 84 30; 85 1; 
89 1; 91 6; 92 1; 93 1; 94 4; 
96 37; 97 28; 98 11; 103 1; 105 1; 
107 4; 108 5; 109 34; 110 43; 111 3; 
115 1; 117 1; 119 2; 121 1; 122 1; 
123 5; 124 17; 126 999; 127 90; 128 3; 
133 2; 134 1; 135 6; 137 43; 138 3; 
147 4; 148 1; 149 1; 154 1; 156 1; 
163 1; 165 2; 177 1; 191 3; 192 1; 
193 2; 194 1; 195 1; 197 2; 207 20; 
208 4; 209 3; 218 1; 220 4; 221 1; 
249 1; 253 8; 254 2; 255 1; 
