Name: AB-PINACA N-(5-hydroxypentyl) metabolite
Synon: N-(1-amino-3-methyl-1-oxobutan-2-yl)-1-(5-hydroxypentyl)-1H-indazole-3-carboxamide
InChIKey: MGOXVYQZCJIMRX-UHFFFAOYSA-N
Formula: C18H26N4O3
MW: 346
ExactMass: 346.20049
CASNO: 0
ID: 3488
Comment: Provided by www.caymanchem.com/app/template/landing%2CForensic.vm / Item #15050  Lot #0451956
Num Peaks: 210
40 8; 41 96; 42 19; 43 43; 44 89; 
45 12; 46 1; 50 2; 51 5; 52 3; 
53 7; 54 4; 55 39; 56 18; 57 20; 
58 2; 59 4; 62 4; 63 8; 64 4; 
65 4; 66 1; 67 11; 68 6; 69 82; 
70 18; 71 23; 72 57; 73 15; 74 1; 
75 5; 76 15; 77 21; 78 8; 79 3; 
80 1; 82 2; 83 2; 84 2; 85 13; 
86 3; 87 8; 88 58; 89 35; 90 81; 
91 14; 92 6; 93 2; 96 5; 98 7; 
99 2; 100 2; 101 3; 102 34; 103 92; 
104 35; 105 4; 106 1; 109 1; 112 1; 
114 5; 115 8; 116 13; 117 45; 118 23; 
119 15; 121 8; 124 1; 127 2; 128 6; 
129 46; 130 34; 131 127; 132 20; 133 6; 
134 4; 135 5; 136 1; 137 1; 142 5; 
143 20; 144 62; 145 516; 146 49; 147 13; 
150 1; 151 2; 152 1; 153 2; 154 3; 
155 9; 156 5; 157 13; 158 11; 159 8; 
160 2; 161 8; 162 1; 163 5; 165 3; 
168 2; 169 3; 171 76; 172 20; 173 9; 
175 114; 176 17; 177 3; 179 1; 180 1; 
181 1; 183 2; 184 1; 185 20; 186 5; 
187 7; 188 1; 192 4; 193 2; 195 1; 
196 1; 197 3; 199 18; 200 8; 201 23; 
202 7; 203 2; 204 1; 206 2; 207 46; 
208 7; 209 1; 210 3; 211 4; 213 770; 
214 118; 215 14; 216 14; 217 3; 218 2; 
220 1; 221 1; 223 1; 225 1; 226 2; 
228 11; 229 24; 231 457; 232 71; 233 10; 
236 1; 241 1; 242 4; 243 2; 245 1; 
246 2; 247 2; 248 1; 249 3; 251 1; 
253 10; 254 4; 255 1; 256 1; 257 3; 
258 1; 260 2; 261 1; 266 1; 267 5; 
268 1; 269 2; 270 6; 271 2; 272 6; 
273 5; 274 1; 281 8; 282 4; 283 1; 
284 4; 285 2; 286 2; 287 2; 289 1; 
295 2; 297 1; 300 12; 302 999; 303 204; 
304 23; 305 1; 311 1; 314 2; 316 1; 
317 1; 325 1; 327 1; 328 5; 329 1; 
330 1; 331 8; 333 2; 338 1; 340 1; 
342 3; 344 2; 346 4; 347 3; 348 1; 
