Name: ADBICA
Synon: N-(1-amino-3,3-dimethyl-1-oxobutan-2-yl)-1-pentyl-1H-indole-3-carboxamide
InChIKey: IXUYMXAKKYWKRG-KRWDZBQOSA-N
Formula: C20H29N3O2
MW: 343
ExactMass: 343.225977
CASNO: 1445583481
ID: 3491
Comment: Provided by www.caymanchem.com/app/template/landing%2CForensic.vm / Item #14293  Lot #0448608
Num Peaks: 147
41 56; 42 10; 43 41; 44 28; 45 2; 
51 2; 52 1; 53 2; 54 2; 55 12; 
56 7; 57 38; 58 2; 59 1; 62 1; 
63 3; 64 1; 65 1; 67 2; 68 1; 
69 20; 70 7; 71 4; 72 1; 73 6; 
74 1; 75 3; 76 2; 77 7; 78 2; 
81 1; 82 2; 83 2; 84 1; 86 2; 
88 5; 89 18; 90 3; 91 2; 100 1; 
101 6; 102 21; 103 11; 104 2; 105 1; 
106 1; 112 1; 114 5; 115 26; 116 49; 
117 10; 118 6; 119 1; 122 1; 127 3; 
128 18; 129 42; 130 35; 131 6; 132 2; 
135 2; 140 1; 141 3; 143 44; 144 176; 
145 17; 146 2; 149 1; 150 2; 153 1; 
154 4; 155 8; 156 10; 157 11; 158 8; 
159 1; 163 1; 166 1; 167 1; 168 2; 
169 2; 170 12; 171 5; 173 11; 174 3; 
177 1; 178 1; 181 1; 182 1; 183 3; 
184 6; 185 4; 186 7; 187 9; 188 4; 
189 1; 191 2; 193 1; 194 1; 195 1; 
196 2; 197 2; 198 2; 199 2; 200 1; 
207 10; 208 3; 209 6; 210 2; 211 3; 
212 23; 214 999; 215 155; 216 14; 217 2; 
228 1; 230 5; 231 1; 240 1; 241 7; 
242 12; 243 2; 253 3; 255 1; 267 2; 
268 5; 269 27; 270 68; 271 11; 272 1; 
281 5; 282 1; 285 1; 286 4; 287 9; 
288 1; 299 29; 300 6; 311 4; 312 1; 
325 7; 326 6; 327 2; 328 1; 343 32; 
344 6; 345 1; 
