Name: Methylbenzylpiperazine
Synon: MBZP
Synon: 1-Benzyl-4-methylpiperazine
InChIKey: MLJOKPBESJWYGL-UHFFFAOYSA-N
Formula: C12H18N2
MW: 190
ExactMass: 190.146998
CASNO: 374898007
ID: 3493
Comment: ENFSI / NBI Finland; Alfa-Aesar
Num Peaks: 98
37 1; 38 4; 39 47; 40 10; 41 59; 
42 301; 43 289; 44 259; 45 6; 50 10; 
51 34; 52 13; 53 4; 54 30; 55 41; 
56 334; 57 58; 58 128; 59 34; 60 6; 
61 2; 62 8; 63 33; 64 11; 65 182; 
66 13; 67 1; 68 9; 69 6; 70 172; 
71 120; 72 110; 73 2; 74 3; 75 2; 
76 4; 77 19; 78 10; 79 3; 80 1; 
81 2; 82 6; 83 7; 84 9; 85 36; 
86 2; 89 44; 90 21; 91 999; 92 87; 
93 4; 94 2; 95 5; 96 1; 97 42; 
98 20; 99 328; 100 17; 102 1; 103 8; 
104 58; 105 19; 106 10; 107 2; 111 3; 
112 1; 113 16; 115 5; 116 3; 117 22; 
118 228; 119 407; 120 82; 121 5; 129 1; 
130 6; 131 17; 132 112; 133 40; 134 30; 
135 3; 144 7; 145 6; 146 168; 147 28; 
148 10; 158 1; 159 1; 160 5; 161 27; 
162 6; 173 2; 175 8; 188 3; 189 24; 
190 359; 191 43; 192 2; 
