Name: Acetyl norfentanyl
Synon: N-phenyl-N-4-piperidinyl-acetamide
InChIKey: CYTIQZKDSHKYGB-UHFFFAOYSA-N
Formula: C13H18N2O
MW: 218
ExactMass: 218.141913
CASNO: 22352825
ID: 3496
Comment: Provided by www.caymanchem.com/app/template/landing%2CForensic.vm / Item #14711  Lot #0449773 / SWGDRUG Monograph available
Num Peaks: 128
40 13; 41 44; 42 173; 43 531; 44 39; 
45 4; 50 26; 51 103; 52 29; 53 46; 
54 73; 55 181; 56 290; 57 188; 58 10; 
59 1; 60 4; 61 2; 62 7; 63 37; 
64 35; 65 97; 66 54; 67 49; 68 442; 
69 33; 70 23; 71 5; 72 3; 73 1; 
74 11; 75 11; 77 370; 78 60; 79 32; 
80 89; 82 950; 83 999; 84 400; 85 32; 
86 4; 87 2; 88 3; 89 14; 90 17; 
91 131; 93 661; 94 103; 95 7; 96 1; 
97 3; 98 5; 99 1; 100 1; 101 1; 
102 3; 103 20; 104 83; 105 24; 106 55; 
107 14; 108 1; 110 1; 111 1; 112 1; 
113 37; 114 6; 115 13; 116 17; 117 92; 
118 305; 119 121; 120 369; 121 34; 122 4; 
125 2; 126 1; 127 19; 128 7; 130 78; 
131 42; 132 178; 133 62; 134 28; 135 102; 
136 174; 137 23; 138 2; 140 1; 142 23; 
143 8; 144 28; 145 18; 146 125; 147 52; 
148 3; 153 1; 154 1; 156 3; 157 3; 
159 372; 160 55; 161 5; 162 16; 163 2; 
169 1; 170 2; 171 7; 172 3; 173 6; 
175 567; 176 77; 185 3; 186 1; 187 1; 
189 32; 190 3; 193 1; 199 9; 200 12; 
201 4; 203 1; 207 2; 208 1; 216 1; 
218 34; 219 5; 220 1; 
