Name: 3C-P
Synon: 3,5-Methoxy-4-propoxyamphetamine
Synon: 1-(3,5-Dimethoxy-4-propoxyphenyl)propan-2-amine
Synon: 4-Propoxy-3,5-Dimethoxyamphetamine
Synon: 4-Propoxy-3,5-DMA
Synon: Proscaline Amphetamine
InChIKey: KKMCHCCXGKYEKJ-UHFFFAOYSA-N
Formula: C14H23NO3
MW: 253
ExactMass: 253.167793
CASNO: 0
ID: 3499
Comment: Provided by www.caymanchem.com/app/template/landing%2CForensic.vm / Item #14954  Lot #0452249
Num Peaks: 128
40 7; 41 69; 42 45; 44 999; 45 27; 
50 5; 51 12; 52 17; 53 20; 54 3; 
55 6; 56 3; 57 7; 58 2; 59 1; 
62 2; 63 11; 64 16; 65 33; 66 24; 
67 15; 68 5; 69 7; 70 1; 71 1; 
74 1; 75 3; 76 10; 77 49; 78 47; 
79 36; 80 25; 81 18; 82 7; 83 1; 
84 1; 85 4; 89 10; 90 13; 91 29; 
92 23; 93 20; 94 22; 95 17; 96 6; 
97 4; 98 2; 102 1; 103 5; 104 8; 
105 21; 106 36; 107 37; 108 13; 109 18; 
110 11; 111 3; 115 2; 116 1; 117 2; 
118 7; 119 7; 120 25; 121 25; 122 57; 
123 59; 124 22; 125 32; 126 2; 130 1; 
131 3; 132 4; 133 6; 134 15; 135 17; 
136 44; 137 52; 138 13; 139 16; 140 1; 
146 4; 148 54; 149 14; 150 8; 151 37; 
152 17; 153 125; 154 15; 155 2; 160 1; 
161 2; 162 4; 163 6; 164 5; 165 21; 
167 448; 168 859; 169 84; 170 8; 175 1; 
176 2; 177 2; 178 6; 179 13; 180 7; 
181 6; 182 1; 190 1; 191 1; 192 1; 
193 5; 194 13; 195 8; 196 2; 207 1; 
208 6; 210 863; 211 111; 212 12; 221 1; 
236 1; 237 1; 238 6; 239 1; 251 3; 
252 4; 253 20; 254 3; 
