Name: MN-18
Synon: N-1-naphthalenyl-1-pentyl-1H-indazole-3-carboxamide
InChIKey: UJKHLVOEXULDRU-UHFFFAOYSA-N
Formula: C23H23N3O
MW: 357
ExactMass: 357.184113
CASNO: 1391484802
ID: 3501
Comment: Provided by www.caymanchem.com/app/template/landing%2CForensic.vm / Item #14817  Lot #0451967 / SWGDRUG Monograph available
Num Peaks: 128
41 35; 42 6; 43 45; 44 1; 50 2; 
51 6; 52 2; 53 2; 54 1; 55 11; 
56 1; 62 5; 63 10; 64 4; 65 6; 
67 1; 69 4; 71 2; 73 3; 74 2; 
75 8; 76 13; 77 27; 78 4; 86 1; 
87 3; 88 22; 89 36; 90 70; 91 9; 
92 1; 96 1; 101 6; 102 28; 103 56; 
104 17; 105 2; 113 9; 114 22; 115 182; 
116 29; 117 31; 118 6; 119 2; 122 1; 
126 8; 127 32; 128 9; 129 23; 130 16; 
131 39; 132 6; 133 1; 135 3; 136 2; 
140 26; 141 17; 142 64; 143 55; 145 435; 
146 43; 147 4; 150 10; 153 1; 154 3; 
155 3; 156 4; 157 3; 158 3; 159 2; 
169 20; 170 9; 171 7; 172 1; 177 1; 
179 4; 183 1; 185 4; 187 2; 188 1; 
191 1; 193 1; 199 2; 200 1; 201 1; 
202 3; 203 1; 207 15; 208 2; 209 3; 
213 12; 215 999; 216 149; 217 12; 218 1; 
227 1; 228 3; 229 1; 230 1; 231 1; 
242 1; 243 1; 244 1; 253 4; 254 1; 
255 1; 256 2; 257 2; 258 1; 270 2; 
271 1; 272 1; 281 3; 282 1; 283 1; 
285 1; 286 5; 287 1; 300 3; 301 1; 
315 1; 327 1; 331 2; 341 1; 355 1; 
357 323; 358 84; 359 12; 
