Name: MN-25-2-methyl derivative
Synon: 7-Methoxy-2-methyl-1-[2-(4-morpholinyl)ethyl]-N-[(1S,2S,4R)-1,3,3-trimethylbicyclo[2.2.1]hept-2-yl]-1H-indole-3-carboxamide
InChIKey: XWGGGOMMJKYRJR-PDPYFOFASA-N
Formula: C27H39N3O3
MW: 453
ExactMass: 453.299143
CASNO: 501927293
ID: 3504
Comment: Provided by www.caymanchem.com/app/template/landing%2CForensic.vm / Item #9001455  Lot #0450266
Num Peaks: 163
40 1; 41 13; 42 12; 43 7; 44 5; 
45 1; 51 1; 53 4; 54 3; 55 15; 
56 29; 57 4; 58 1; 63 1; 65 2; 
66 1; 67 10; 68 5; 69 16; 70 33; 
71 5; 72 8; 73 1; 75 1; 77 9; 
78 2; 79 11; 80 4; 81 30; 82 7; 
83 5; 84 7; 85 2; 86 2; 88 1; 
89 2; 90 1; 91 7; 92 1; 93 8; 
94 3; 95 4; 96 2; 98 17; 100 999; 
101 60; 102 7; 103 6; 104 1; 105 2; 
106 1; 107 5; 108 2; 109 1; 110 1; 
112 9; 114 123; 115 15; 116 5; 117 6; 
118 1; 119 1; 120 1; 121 3; 122 2; 
123 1; 124 3; 125 2; 127 1; 128 6; 
129 4; 130 14; 131 6; 132 2; 133 1; 
135 2; 136 2; 137 1; 140 1; 141 1; 
142 7; 143 17; 144 17; 145 5; 146 3; 
147 1; 150 2; 152 2; 154 2; 155 1; 
156 5; 157 8; 158 11; 159 4; 160 1; 
168 1; 169 1; 170 4; 171 9; 172 19; 
173 18; 174 8; 175 1; 184 2; 186 45; 
187 8; 188 11; 189 2; 197 1; 198 1; 
200 31; 201 18; 202 8; 203 1; 207 4; 
212 1; 213 1; 214 7; 215 1; 216 1; 
217 1; 228 1; 230 1; 243 6; 244 1; 
253 1; 255 1; 257 1; 270 1; 271 1; 
272 1; 273 2; 274 1; 281 1; 283 2; 
284 1; 299 3; 301 19; 302 3; 340 1; 
353 9; 354 8; 355 2; 366 2; 367 2; 
380 8; 381 2; 392 3; 393 1; 408 2; 
409 1; 420 1; 422 16; 423 22; 424 5; 
425 1; 435 8; 436 2; 437 1; 438 1; 
451 1; 453 4; 454 1; 
