Name: MN-25
Synon: UR-12
Synon: 7-Methoxy-1-[2-(4-morpholinyl)ethyl]-N-[(1S,2S,4R)-1,3,3-trimethylbicyclo[2.2.1]hept-2-yl]-1H-indole-3-carboxamide
InChIKey: VQGDMQICNRCQEH-ZNSGIYGDSA-N
Formula: C26H37N3O3
MW: 439
ExactMass: 439.283491
CASNO: 501926825
ID: 3505
Comment: Provided by www.caymanchem.com/app/template/landing%2CForensic.vm / Item #14249  Lot #0451455
Num Peaks: 182
40 2; 41 16; 42 18; 43 8; 44 5; 
45 2; 50 1; 51 1; 52 1; 53 4; 
54 6; 55 18; 56 33; 57 4; 58 2; 
59 1; 63 1; 65 2; 66 1; 67 10; 
68 5; 69 17; 70 39; 71 5; 72 7; 
73 5; 75 1; 76 2; 77 8; 78 3; 
79 13; 80 4; 81 28; 82 8; 83 5; 
84 8; 85 1; 86 2; 87 1; 89 4; 
90 1; 91 7; 92 1; 93 8; 94 3; 
95 4; 96 3; 98 20; 100 999; 101 67; 
102 9; 103 6; 104 2; 105 3; 106 1; 
107 4; 108 2; 109 2; 110 1; 111 1; 
112 8; 114 137; 115 15; 116 7; 117 5; 
118 1; 119 1; 120 1; 121 4; 122 2; 
123 1; 124 3; 125 2; 127 1; 128 5; 
129 17; 130 25; 131 7; 132 2; 133 1; 
134 1; 135 2; 136 2; 137 1; 141 1; 
142 3; 143 12; 144 19; 145 5; 146 2; 
147 2; 148 1; 152 3; 153 1; 154 1; 
156 4; 157 7; 158 14; 159 26; 160 7; 
161 1; 162 1; 170 2; 172 27; 173 8; 
174 12; 175 2; 184 1; 185 5; 186 21; 
187 15; 188 7; 189 2; 191 1; 192 1; 
193 1; 197 1; 198 1; 199 2; 200 9; 
201 3; 202 2; 203 2; 204 2; 207 10; 
208 3; 209 1; 210 1; 213 1; 214 2; 
215 1; 216 1; 217 1; 227 1; 229 7; 
230 3; 241 2; 243 1; 244 1; 253 3; 
254 1; 255 1; 257 2; 258 3; 259 5; 
260 2; 267 1; 268 1; 269 1; 270 3; 
271 1; 281 2; 282 1; 284 1; 285 3; 
287 14; 288 4; 326 1; 327 1; 340 26; 
341 6; 352 11; 353 2; 355 1; 366 1; 
378 25; 379 7; 380 1; 394 1; 396 6; 
397 1; 405 1; 409 50; 410 12; 411 1; 
421 12; 422 3; 423 1; 429 1; 437 1; 
439 5; 440 1; 
