Name: JWH-018 8-quinolinyl carboxamide
Synon: 1-Pentyl-N-8-quinolinyl-1H-indole-3-carboxamide
InChIKey: LSDZETPTKCENTH-UHFFFAOYSA-N
Formula: C23H23N3O
MW: 357
ExactMass: 357.184113
CASNO: 1400742393
ID: 3507
Comment: Provided by www.caymanchem.com/app/template/landing%2CForensic.vm / Item #14891  Lot #0451365
Num Peaks: 127
41 33; 43 66; 44 2; 50 1; 51 4; 
52 2; 53 2; 55 10; 62 3; 63 8; 
64 3; 65 2; 69 2; 71 2; 73 3; 
74 2; 75 7; 76 6; 77 10; 78 4; 
79 1; 85 1; 86 1; 87 3; 88 9; 
89 43; 90 10; 91 3; 101 15; 102 31; 
103 11; 104 2; 113 1; 114 12; 115 42; 
116 124; 117 21; 118 3; 121 1; 122 1; 
126 1; 127 4; 128 31; 129 43; 130 34; 
131 4; 132 1; 133 1; 136 9; 137 26; 
140 1; 142 20; 143 51; 144 242; 145 24; 
146 2; 147 2; 149 7; 151 1; 153 1; 
154 5; 155 13; 156 9; 157 8; 158 6; 
165 8; 167 2; 168 2; 170 17; 171 34; 
172 4; 176 1; 177 1; 179 3; 183 2; 
184 4; 185 2; 186 2; 187 15; 188 1; 
191 2; 192 1; 193 1; 195 1; 196 1; 
197 1; 198 2; 207 15; 208 5; 209 1; 
210 1; 212 22; 214 999; 215 158; 216 14; 
217 1; 229 2; 230 1; 231 3; 242 1; 
244 1; 253 3; 254 1; 255 1; 256 3; 
257 6; 258 29; 259 6; 268 1; 269 1; 
270 1; 271 1; 272 1; 281 3; 282 1; 
284 1; 285 1; 286 5; 287 1; 300 3; 
327 1; 331 1; 341 3; 355 1; 357 132; 
358 34; 359 5; 
