Name: 4-Bromo-2,5-DMMA
Synon: 4-Bromo-2,5-dimethoxymethamphetamine
InChIKey: GURVSGCCXMIFMQ-UHFFFAOYSA-N
Formula: C12H18BrNO2
MW: 287
ExactMass: 287.052092
CASNO: 155638805
ID: 3510
Comment: Provided by www.caymanchem.com/app/template/landing%2CForensic.vm / Item #14788  Lot #0450738
Num Peaks: 143
40 2; 41 9; 42 30; 43 14; 44 4; 
50 8; 51 14; 52 4; 53 16; 54 4; 
56 50; 58 999; 59 38; 61 1; 62 5; 
63 17; 64 10; 65 13; 66 3; 67 5; 
68 1; 69 1; 70 1; 71 1; 72 1; 
74 5; 75 10; 76 12; 77 58; 78 15; 
79 12; 80 4; 81 2; 82 3; 86 1; 
87 2; 89 18; 90 15; 91 32; 92 17; 
93 6; 94 3; 95 1; 101 1; 102 4; 
103 7; 104 6; 105 35; 106 10; 107 8; 
108 5; 109 1; 115 3; 116 2; 117 4; 
118 6; 119 10; 120 11; 121 13; 122 6; 
123 1; 129 4; 130 4; 131 5; 132 4; 
133 7; 134 7; 135 7; 136 3; 137 1; 
143 13; 145 12; 146 3; 147 6; 148 5; 
149 3; 150 5; 151 2; 152 1; 155 2; 
156 3; 157 4; 158 3; 159 2; 160 2; 
161 4; 162 8; 163 4; 164 1; 169 6; 
170 2; 171 10; 172 2; 173 5; 174 1; 
175 1; 176 3; 177 2; 178 6; 179 1; 
183 1; 184 4; 185 3; 186 12; 187 3; 
188 8; 189 1; 192 2; 193 1; 199 21; 
200 3; 201 21; 202 2; 203 1; 206 1; 
213 1; 214 3; 215 5; 216 3; 217 5; 
218 1; 226 1; 227 4; 229 17; 230 24; 
231 16; 232 22; 233 2; 240 2; 241 2; 
242 5; 243 1; 244 3; 254 2; 255 1; 
256 5; 257 3; 258 2; 259 2; 272 1; 
274 1; 286 1; 288 1; 
