Name: Acetildenafil
Synon: Hongdenafil
Synon: 5-[2-Ethoxy-5-[2-(4-ethyl-1-piperazinyl)acetyl]phenyl]-1,6-dihydro-1-methyl-3-propyl-7H-pyrazolo[4,3-d]pyrimidin-7-one
InChIKey: RRBRQNALHKQCAI-UHFFFAOYSA-N
Formula: C25H34N6O3
MW: 466
ExactMass: 466.26924
CASNO: 831217017
ID: 3511
Comment: Provided by www.caymanchem.com/app/template/landing%2CForensic.vm / Item #12049  Lot #0448359
Num Peaks: 201
40 3; 41 11; 42 56; 43 13; 44 6; 
45 1; 50 1; 51 1; 52 2; 53 4; 
54 6; 55 11; 56 43; 57 25; 58 18; 
59 1; 62 1; 63 3; 64 1; 65 1; 
66 2; 67 9; 68 15; 70 176; 71 14; 
72 34; 73 4; 74 1; 75 1; 76 2; 
77 3; 78 1; 79 2; 80 3; 81 5; 
82 7; 84 157; 85 16; 86 3; 89 2; 
90 4; 91 3; 92 3; 93 2; 94 4; 
95 4; 96 9; 97 26; 98 39; 99 7; 
101 2; 102 3; 103 2; 104 2; 105 2; 
106 1; 107 2; 108 1; 109 3; 110 3; 
111 16; 112 43; 113 14; 114 4; 115 3; 
116 1; 117 2; 118 4; 119 4; 120 4; 
121 1; 122 2; 123 1; 125 17; 127 999; 
128 89; 129 4; 130 1; 131 2; 132 5; 
133 3; 134 2; 136 26; 137 2; 138 1; 
141 1; 143 2; 144 1; 145 3; 146 5; 
147 7; 148 2; 149 1; 150 1; 151 1; 
152 1; 155 2; 156 2; 157 2; 158 3; 
159 1; 160 1; 161 1; 162 2; 163 1; 
164 2; 166 18; 167 2; 168 2; 169 1; 
170 2; 171 2; 172 1; 173 1; 174 1; 
175 1; 176 2; 177 1; 180 1; 182 2; 
183 2; 184 1; 185 1; 186 1; 188 1; 
191 3; 193 2; 194 1; 195 1; 196 1; 
197 3; 198 3; 199 1; 207 6; 208 2; 
209 2; 210 2; 211 3; 212 1; 213 1; 
215 1; 221 1; 223 1; 224 1; 225 4; 
226 2; 227 2; 233 2; 237 2; 238 2; 
239 4; 240 3; 241 1; 251 1; 253 7; 
254 6; 255 3; 256 1; 263 1; 264 2; 
265 1; 266 1; 267 7; 268 5; 269 2; 
279 1; 281 7; 282 10; 283 9; 284 5; 
285 2; 293 1; 294 2; 295 4; 297 13; 
298 3; 306 1; 308 1; 309 3; 311 15; 
312 9; 313 2; 321 2; 322 1; 325 4; 
326 7; 327 1; 328 1; 335 1; 336 1; 
339 8; 340 1; 352 1; 354 10; 355 6; 
356 1; 380 1; 450 1; 464 1; 466 21; 
467 6; 
