Name: 5-Fluoro-AKB48 N-(5-hydroxypentyl) metabolite
Synon: 5-Fluoro-APINACA N-(4-hydroxypentyl) metabolite
Synon: N-((3s,5s,7s)-adamantan-1-yl)-1-(5-fluoro-4-hydroxypentyl)-1H-indazole-3-carboxamide
Synon: 5F-AKB48 N-(5-hydroxypentyl) metabolite
Synon: 5F-APINACA N-(4-hydroxypentyl) metabolite
InChIKey: BOGHQNVNYXAOJR-UHFFFAOYSA-N
Formula: C23H30FN3O2
MW: 399
ExactMass: 399.232206
CASNO: 0
ID: 3512
Comment: Provided by www.caymanchem.com/app/template/landing%2CForensic.vm / Item #14222  Lot #0450652
Num Peaks: 296
41 133; 42 24; 43 92; 44 15; 45 2; 
46 1; 47 1; 49 3; 50 5; 51 13; 
52 9; 53 34; 54 20; 55 63; 56 20; 
57 32; 58 23; 59 18; 61 17; 63 85; 
64 7; 65 35; 66 29; 67 148; 68 21; 
69 24; 70 11; 71 43; 72 4; 73 9; 
74 4; 75 14; 76 29; 77 164; 78 49; 
79 199; 80 40; 81 54; 82 15; 83 5; 
85 36; 86 4; 87 25; 88 39; 89 54; 
90 97; 91 189; 92 155; 93 257; 94 154; 
95 29; 96 6; 99 1; 102 56; 103 162; 
104 68; 105 60; 106 37; 107 61; 108 55; 
109 31; 110 5; 112 1; 114 1; 115 13; 
116 20; 117 79; 118 31; 119 37; 120 29; 
121 9; 122 8; 123 2; 125 11; 126 11; 
127 5; 128 15; 129 71; 130 71; 131 257; 
132 52; 133 30; 135 456; 136 91; 137 7; 
139 1; 140 2; 141 1; 142 11; 143 22; 
145 999; 146 103; 147 12; 148 7; 150 404; 
151 55; 152 8; 153 7; 154 8; 155 12; 
156 19; 157 32; 158 30; 159 25; 160 7; 
161 9; 162 5; 163 1; 165 3; 166 2; 
167 4; 168 5; 169 13; 170 12; 171 59; 
172 15; 174 87; 175 64; 176 11; 177 42; 
178 3; 179 4; 180 2; 181 5; 182 5; 
183 11; 185 39; 186 25; 187 21; 188 6; 
189 3; 191 5; 192 1; 193 2; 194 1; 
195 3; 196 3; 197 5; 198 5; 199 9; 
200 14; 201 21; 202 17; 203 9; 204 3; 
205 4; 207 13; 208 5; 209 5; 210 7; 
211 7; 213 25; 215 55; 216 17; 217 1; 
218 1; 219 1; 220 3; 221 9; 222 8; 
223 40; 224 9; 225 2; 226 2; 227 3; 
229 40; 231 80; 232 18; 233 5; 234 4; 
236 105; 237 17; 238 22; 239 2; 240 2; 
241 1; 242 1; 243 2; 244 9; 245 2; 
246 3; 247 31; 249 876; 250 154; 251 22; 
252 11; 253 6; 254 1; 255 1; 257 3; 
258 2; 259 1; 260 1; 261 1; 263 15; 
264 12; 265 29; 266 13; 267 4; 268 2; 
269 2; 270 1; 273 2; 274 4; 275 3; 
276 4; 277 11; 278 11; 279 8; 280 34; 
281 28; 282 3; 283 2; 286 4; 287 2; 
288 3; 289 3; 290 2; 291 4; 292 9; 
294 425; 295 99; 296 33; 297 17; 298 4; 
299 2; 300 2; 301 2; 302 1; 304 8; 
305 12; 306 12; 308 67; 309 119; 310 25; 
311 5; 312 3; 314 160; 315 43; 316 5; 
317 1; 318 1; 319 3; 320 3; 321 6; 
322 10; 323 6; 324 4; 325 1; 326 2; 
327 2; 328 3; 330 8; 331 6; 332 1; 
333 1; 334 8; 335 7; 336 14; 337 38; 
338 90; 339 20; 342 82; 343 23; 344 4; 
347 1; 348 1; 349 2; 351 27; 352 8; 
354 114; 355 36; 356 26; 357 8; 358 5; 
359 1; 361 1; 362 2; 363 5; 364 2; 
366 28; 367 6; 369 11; 371 241; 372 62; 
374 1; 379 10; 380 5; 381 2; 382 1; 
384 2; 396 1; 397 8; 399 153; 400 43; 
401 7; 
