Name: 3,4-Methylenedioxy-5-methylethcathinone
Synon: R-MMC
Synon: 3,4-Methylenedioxy-5-methyl-N-ethylcathinone
Synon: 2-(Ethylamino)-1-(7-methyl-1,3-benzodioxol-5-yl)-1-propanone
InChIKey: YCLKQJDSTUZDKJ-UHFFFAOYSA-N
Formula: C13H17NO3
MW: 235
ExactMass: 235.120843
CASNO: 0
ID: 3513
Comment: Provided by www.caymanchem.com/app/template/landing%2CForensic.vm / Item #14078  Lot #0451552
Num Peaks: 71
40 2; 41 6; 42 30; 44 141; 45 3; 
50 13; 51 40; 52 6; 53 8; 54 2; 
55 5; 56 24; 57 6; 61 1; 62 6; 
63 7; 64 3; 65 7; 66 3; 67 5; 
68 2; 70 22; 72 999; 73 51; 74 9; 
75 7; 76 15; 77 82; 78 14; 79 63; 
80 5; 81 3; 89 2; 90 2; 91 4; 
92 1; 93 2; 102 1; 103 4; 104 3; 
105 23; 106 4; 107 2; 115 1; 117 1; 
118 1; 119 1; 131 1; 132 1; 133 6; 
135 62; 136 13; 137 1; 149 11; 150 1; 
160 1; 161 2; 163 89; 164 11; 165 1; 
176 1; 177 1; 190 3; 191 2; 192 10; 
193 1; 202 1; 204 1; 217 1; 220 1; 
236 1; 
