Name: 3,4-MDPA
Synon: MDPR
Synon: .alpha.-Methyl-N-propyl-1,3-benzodioxole-5-ethanamine
InChIKey: LBXMQBTXOLBCCA-UHFFFAOYSA-N
Formula: C13H19NO2
MW: 221
ExactMass: 221.141579
CASNO: 74341778
ID: 3514
Comment: Provided by www.caymanchem.com/app/template/landing%2CForensic.vm / Item #13972  Lot #0444241
Num Peaks: 77
41 32; 42 22; 43 34; 44 165; 45 4; 
50 6; 51 30; 52 6; 53 4; 54 3; 
55 3; 56 25; 57 18; 58 5; 62 3; 
63 9; 64 3; 65 9; 66 3; 67 3; 
68 4; 70 18; 71 1; 73 1; 74 3; 
75 3; 77 91; 78 24; 79 21; 80 3; 
82 1; 84 47; 86 999; 87 60; 88 2; 
89 8; 90 3; 91 8; 92 2; 93 1; 
96 5; 102 4; 103 18; 104 12; 105 31; 
106 10; 107 3; 115 1; 117 2; 118 3; 
119 1; 120 2; 121 4; 122 2; 130 1; 
131 7; 132 3; 133 7; 135 115; 136 19; 
137 2; 146 1; 147 5; 148 4; 149 2; 
161 6; 162 8; 163 16; 164 2; 176 1; 
190 1; 192 2; 206 4; 207 1; 219 4; 
220 3; 221 1; 
