Name: N-Acetylmethylone
Synon: N-Acetyl-MDMC
Synon: N-[2-(1,3-benzodioxol-5-yl)-1-methyl-2-oxoethyl]-N-methyl-acetamide
Synon: N-acetyl-3,4-methylenedioxymethcathinone
InChIKey: SFBOFEWMUYVYDF-UHFFFAOYSA-N
Formula: C13H15NO4
MW: 249
ExactMass: 249.100108
CASNO: 1227293153
ID: 3518
Comment: Provided by www.caymanchem.com/app/template/landing%2CForensic.vm / Item #9001492  Lot #0452444
Num Peaks: 79
40 3; 41 9; 42 63; 43 156; 44 6; 
49 1; 50 8; 51 12; 52 3; 53 14; 
54 7; 55 11; 56 74; 58 999; 59 38; 
60 1; 61 8; 62 42; 63 116; 65 157; 
66 11; 71 2; 73 1; 74 7; 75 3; 
76 3; 77 6; 78 3; 79 7; 80 1; 
88 1; 89 5; 91 63; 92 10; 93 2; 
100 621; 101 36; 102 3; 103 1; 104 1; 
105 1; 117 1; 119 15; 121 125; 122 15; 
123 1; 132 1; 133 1; 134 1; 135 10; 
136 1; 145 1; 146 1; 147 4; 149 196; 
150 20; 151 2; 160 3; 161 1; 162 2; 
163 1; 164 2; 174 1; 175 1; 176 7; 
177 4; 178 17; 179 2; 190 1; 191 2; 
192 2; 206 4; 207 2; 208 1; 231 1; 
234 1; 249 72; 250 11; 251 1; 
