Name: NRG-3
Synon: 2-(Methylamino)-1-(naphthalen-2-yl)pentan-1-one
InChIKey: DBQUMXBQDKCIAJ-UHFFFAOYSA-N
Formula: C16H19NO
MW: 241
ExactMass: 241.146665
CASNO: 0
ID: 3520
Comment: Provided by www.caymanchem.com/app/template/landing%2CForensic.vm / Item #14115  Lot #0450138
Num Peaks: 70
41 19; 42 43; 44 152; 45 4; 50 5; 
51 9; 52 2; 53 2; 54 4; 55 17; 
56 30; 57 35; 58 21; 62 3; 63 10; 
68 5; 70 24; 71 5; 74 13; 75 23; 
76 14; 77 46; 78 5; 82 1; 84 27; 
86 999; 87 64; 88 2; 89 2; 98 5; 
99 7; 100 6; 101 30; 102 7; 113 1; 
115 5; 126 82; 127 292; 128 55; 129 7; 
139 6; 140 2; 141 8; 142 1; 150 1; 
151 2; 152 6; 153 4; 155 58; 156 9; 
163 1; 164 1; 165 5; 166 2; 167 2; 
168 2; 170 5; 178 1; 180 1; 181 2; 
182 2; 183 2; 194 1; 195 1; 196 2; 
197 2; 198 12; 199 2; 212 1; 242 1; 
