Name: Estragole
Synon: Tarragon
Synon: Anisole, p-allyl-
Synon: Chavicol, O-methyl-
Synon: p-Allylanisole
Synon: p-Methoxyallylbenzene
Synon: Chavicol methyl ether
Synon: Esdragol
Synon: Esdragole
Synon: Esdragon
Synon: Estragol
Synon: Isoanethole
Synon: Methyl chavicol
Synon: 1-Allyl-4-methoxybenzene
Synon: 3-(p-Methoxyphenyl)propene
Synon: 4-Allylanisole
Synon: 4-Allylmethoxybenzene
Synon: 4-Methoxyallylbenzene
Synon: 4-Allyl-1-methoxybenzene
Synon: p-Allylmethoxybenzene
Synon: 1-Methoxy-4-(2-propenyl)benzene
InChIKey: ZFMSMUAANRJZFM-UHFFFAOYSA-N
Formula: C10H12O
MW: 148
ExactMass: 148.088815
CASNO: 140670
ID: 3524
Comment: DEA SWL
Num Peaks: 83
37 3; 38 14; 39 77; 40 6; 41 23; 
42 1; 43 4; 45 1; 49 2; 50 54; 
51 119; 52 58; 53 36; 54 3; 55 49; 
56 1; 57 3; 61 8; 62 32; 63 97; 
64 34; 65 87; 66 10; 67 4; 68 1; 
69 1; 73 4; 74 31; 75 25; 76 32; 
77 350; 78 229; 79 183; 80 12; 81 1; 
85 3; 86 8; 87 9; 88 4; 89 74; 
90 25; 91 290; 92 38; 93 17; 94 2; 
95 1; 98 2; 101 5; 102 46; 103 207; 
104 66; 105 300; 106 37; 107 31; 108 9; 
109 1; 110 1; 113 3; 114 4; 115 297; 
116 128; 117 462; 118 56; 119 35; 120 6; 
121 484; 122 41; 123 2; 127 3; 128 5; 
129 4; 130 3; 131 56; 132 49; 133 276; 
134 26; 135 1; 145 7; 146 11; 147 670; 
148 999; 149 125; 150 8; 
