Name: N,N-di(.beta.-phenylisopropyl)amine
InChIKey: XIZFJFZATSHCAL-UHFFFAOYSA-N
Formula: C18H23N
MW: 253
ExactMass: 253.18305
CASNO: 0
ID: 3527
Comment: Bundeskriminalamt, Germany / impurity amphetamine synthesis; For.Sci.Rev. 1:1; 1989 pp 1-11
Num Peaks: 106
40 18; 41 48; 42 22; 43 11; 44 241; 
45 7; 46 1; 50 4; 51 24; 52 5; 
53 2; 54 2; 55 1; 56 12; 57 1; 
59 1; 61 1; 62 8; 63 20; 64 4; 
65 69; 66 5; 67 1; 68 6; 69 1; 
70 60; 71 4; 72 1; 73 1; 74 5; 
75 3; 76 4; 77 36; 78 19; 79 15; 
81 1; 82 2; 84 1; 85 1; 86 1; 
89 17; 90 6; 91 794; 92 121; 93 9; 
97 1; 101 1; 102 5; 103 11; 104 8; 
105 8; 106 1; 107 1; 115 33; 116 6; 
117 39; 118 18; 119 203; 120 32; 121 1; 
127 2; 128 1; 129 2; 130 5; 131 3; 
132 3; 133 1; 134 5; 135 3; 141 1; 
144 4; 146 3; 149 1; 150 1; 152 1; 
153 1; 154 2; 155 1; 158 1; 160 44; 
161 10; 162 999; 163 127; 164 9; 165 2; 
166 1; 172 1; 173 1; 176 1; 177 1; 
178 1; 179 1; 180 1; 181 3; 183 1; 
190 1; 191 1; 193 1; 197 1; 203 1; 
207 4; 208 1; 238 10; 239 2; 252 4; 
253 2; 
