Name: 2-Amino-1-phenylbutane
InChIKey: IOLQWLOHKZENDW-UHFFFAOYSA-N
Synon: Butanphenamine
Synon: AEPEA
Synon: .alpha.-Ethylphenethylamine
Synon: Phenylisobutylamine
Formula: C10H15N
MW: 149
ExactMass: 149.120449
CASNO: 53309890
ID: 3538
Comment: Provided by www.caymanchem.com/app/template/landing%2CForensic.vm / Item #9001864  Lot #0453400
Num Peaks: 77
41 127; 42 33; 43 37; 44 1; 45 3; 
47 1; 49 1; 50 11; 51 33; 52 14; 
53 8; 54 5; 55 3; 56 26; 58 999; 
59 45; 61 2; 62 9; 63 35; 65 102; 
66 13; 67 2; 68 3; 70 3; 71 1; 
73 1; 74 8; 75 8; 76 7; 77 61; 
78 14; 79 2; 80 5; 82 1; 84 1; 
85 1; 86 5; 87 2; 89 39; 91 258; 
92 51; 93 8; 94 1; 95 1; 96 1; 
97 2; 100 2; 101 2; 102 9; 103 46; 
104 19; 106 4; 107 1; 109 2; 115 14; 
116 5; 117 30; 118 25; 120 149; 121 15; 
122 1; 127 1; 128 3; 129 6; 130 2; 
131 2; 132 7; 133 2; 134 3; 136 1; 
141 1; 144 1; 147 2; 148 4; 149 2; 
150 1; 151 1; 
