Name: 3-Chloroamphetamine
Synon: 3-CA
Synon: m-CA
InChIKey: ORWQJKNRYUIFJU-UHFFFAOYSA-N
Formula: C9H12ClN
MW: 169
ExactMass: 169.065827
CASNO: 35378155
ID: 3540
Comment: Provided by www.caymanchem.com/app/template/landing%2CForensic.vm / Item #9001855  Lot #0455607
Num Peaks: 88
40 9; 41 18; 42 73; 44 999; 45 28; 
47 1; 49 3; 50 17; 51 20; 52 4; 
53 1; 54 2; 56 2; 57 3; 59 16; 
60 11; 61 7; 62 23; 63 68; 64 15; 
65 25; 66 4; 67 2; 68 1; 72 3; 
73 21; 74 14; 75 37; 76 8; 77 23; 
78 4; 79 1; 80 2; 84 2; 85 6; 
86 10; 87 9; 89 128; 90 45; 91 65; 
92 7; 93 2; 97 4; 99 33; 100 3; 
101 17; 102 8; 103 5; 104 2; 105 1; 
108 1; 110 1; 111 4; 112 3; 113 1; 
114 3; 115 29; 116 12; 117 22; 118 22; 
119 24; 120 2; 123 2; 125 99; 126 13; 
127 33; 128 4; 130 2; 131 1; 132 2; 
133 2; 137 2; 138 3; 139 1; 140 1; 
149 1; 151 2; 152 6; 153 4; 154 27; 
155 4; 156 7; 165 1; 166 1; 167 3; 
168 9; 169 1; 170 3; 
