Name: AB-PINACA N-(2-fluoropentyl) isomer
Synon: 2-Fluoro-AB-PINACA
Synon: N-(1-amino-3-methyl-1-oxobutan-2-yl)-1-(2-fluoropentyl)-1H-indazole-carboxamide
Synon: 2F-AB-PINACA
InChIKey: VKIBZLGSWZHFJD-UHFFFAOYSA-N
Formula: C18H25FN4O2
MW: 348
ExactMass: 348.196154
CASNO: 0
ID: 3546
Comment: Provided by www.caymanchem.com/app/template/landing%2CForensic.vm / Item #15439  Lot #0455318
Num Peaks: 143
40 3; 41 41; 42 6; 43 28; 44 58; 
45 4; 47 13; 50 1; 51 4; 52 1; 
53 3; 54 3; 55 28; 56 12; 57 6; 
59 6; 60 1; 61 2; 62 3; 63 4; 
64 1; 65 2; 67 3; 68 3; 69 21; 
70 10; 71 10; 72 28; 73 6; 74 1; 
75 7; 76 14; 77 19; 78 3; 82 1; 
83 2; 84 1; 85 1; 86 1; 87 4; 
88 25; 89 17; 90 37; 91 5; 92 1; 
98 3; 102 29; 103 82; 104 24; 105 2; 
107 1; 114 2; 115 4; 116 5; 117 22; 
118 6; 119 1; 127 2; 128 3; 129 35; 
130 25; 131 83; 132 11; 133 1; 134 1; 
135 3; 142 2; 143 6; 145 219; 146 21; 
147 3; 154 1; 155 3; 156 4; 157 4; 
158 7; 159 5; 161 5; 162 2; 163 2; 
168 2; 169 3; 170 1; 171 3; 172 2; 
173 2; 174 10; 175 3; 176 1; 177 1; 
182 1; 183 2; 184 1; 185 4; 186 3; 
187 1; 189 7; 190 1; 191 1; 200 3; 
201 1; 203 3; 204 1; 205 4; 207 2; 
208 1; 209 1; 210 1; 211 2; 212 1; 
213 9; 214 3; 215 3; 216 2; 217 2; 
228 5; 229 2; 231 16; 233 999; 234 145; 
235 14; 248 1; 249 5; 253 1; 255 1; 
260 1; 262 1; 273 1; 284 2; 286 1; 
287 2; 288 2; 289 2; 302 3; 304 471; 
305 94; 306 9; 307 1; 316 1; 330 1; 
331 1; 333 1; 348 2; 
