Name: AB-PINACA N-(4-hydroxypentyl) metabolite
Synon: N-(1-amino-3-methyl-1-oxobutan-2-yl)-1-(4-hydroxypentyl)-1H-indazole-3-carboxamide
InChIKey: FKWGAWHIQBKZHO-UHFFFAOYSA-N
Formula: C18H26N4O3
MW: 346
ExactMass: 346.20049
CASNO: 0
ID: 3547
Comment: Provided by www.caymanchem.com/app/template/landing%2CForensic.vm / Item #15049  Lot #0453557
Num Peaks: 193
41 96; 42 19; 43 97; 44 113; 45 172; 
46 5; 50 4; 51 9; 52 5; 53 7; 
54 6; 55 48; 56 28; 57 24; 58 7; 
59 1; 62 7; 63 10; 64 5; 65 5; 
66 2; 67 10; 69 128; 70 23; 71 35; 
72 84; 73 14; 74 2; 75 13; 76 29; 
77 46; 78 8; 79 1; 80 2; 81 1; 
82 4; 83 6; 85 47; 86 9; 87 9; 
88 40; 89 40; 90 90; 91 15; 92 6; 
93 1; 97 1; 98 11; 99 2; 100 3; 
102 58; 103 204; 104 66; 105 8; 106 1; 
107 2; 109 1; 114 2; 115 10; 116 16; 
117 65; 118 26; 119 12; 120 2; 121 12; 
127 3; 128 13; 129 75; 130 119; 131 163; 
132 26; 133 4; 134 1; 135 5; 140 1; 
141 1; 142 8; 143 21; 145 750; 146 75; 
147 10; 148 1; 154 1; 155 7; 156 10; 
157 24; 158 49; 159 19; 160 4; 161 5; 
162 4; 163 2; 166 1; 167 1; 168 3; 
169 7; 170 7; 171 45; 172 12; 173 6; 
174 17; 175 114; 176 13; 177 2; 181 1; 
182 1; 183 3; 185 48; 186 30; 187 20; 
188 3; 189 1; 192 1; 195 1; 197 2; 
198 2; 199 3; 200 4; 201 7; 202 11; 
203 6; 204 3; 207 2; 208 2; 209 2; 
210 3; 211 3; 213 780; 214 132; 215 53; 
216 18; 218 1; 225 1; 226 1; 228 23; 
229 66; 231 694; 232 114; 233 11; 239 1; 
242 6; 243 2; 244 1; 245 1; 246 6; 
247 3; 248 1; 249 1; 251 1; 253 4; 
254 2; 255 3; 256 9; 257 5; 258 6; 
259 2; 260 1; 269 1; 270 2; 273 11; 
274 3; 281 4; 282 2; 284 59; 285 15; 
286 37; 287 5; 288 1; 291 1; 296 1; 
297 1; 298 1; 300 34; 302 999; 303 191; 
304 21; 305 2; 313 1; 314 5; 315 2; 
316 1; 317 1; 327 2; 328 7; 329 4; 
330 2; 331 3; 341 3; 342 1; 343 1; 
346 23; 347 4; 348 1; 
