Name: ADBICA N-(5-hydroxypentyl) metabolite
Synon: N-(1-amino-3,3-dimethyl-1-oxobutan-2-yl)-1-(5-hydroxypentyl)-1H-indole-3-carboxamide
InChIKey: ICYIIRAAIJKCGW-KRWDZBQOSA-N
Formula: C20H29N3O3
MW: 359
ExactMass: 359.220892
CASNO: 0
ID: 3549
Comment: Provided by www.caymanchem.com/app/template/landing%2CForensic.vm / Item #15060  Lot #0455150
Num Peaks: 195
40 5; 41 72; 42 9; 43 14; 44 30; 
45 5; 51 1; 52 2; 53 3; 54 2; 
55 12; 56 8; 57 48; 58 3; 59 5; 
60 1; 62 2; 63 2; 65 2; 67 8; 
69 44; 70 9; 71 2; 73 14; 75 7; 
76 3; 77 9; 78 4; 79 2; 80 1; 
81 2; 82 2; 83 3; 84 1; 86 4; 
87 1; 88 6; 89 19; 90 5; 91 4; 
97 1; 98 1; 99 2; 100 2; 101 8; 
102 21; 103 12; 104 2; 105 1; 106 2; 
107 2; 111 1; 112 3; 113 6; 114 10; 
115 31; 116 58; 117 13; 118 6; 119 2; 
120 1; 126 1; 128 24; 129 39; 130 41; 
131 5; 132 3; 134 2; 135 10; 136 1; 
139 1; 140 2; 141 3; 143 69; 144 226; 
145 26; 146 4; 147 7; 148 3; 149 1; 
153 2; 154 7; 155 7; 156 12; 157 13; 
158 11; 159 2; 160 1; 162 1; 165 3; 
166 1; 167 1; 168 4; 169 2; 170 23; 
171 13; 172 5; 173 8; 174 2; 175 1; 
177 3; 179 3; 180 1; 182 1; 183 2; 
184 8; 185 4; 186 2; 187 1; 191 4; 
193 5; 195 4; 196 2; 197 6; 198 23; 
199 14; 200 11; 201 3; 202 3; 203 8; 
204 3; 207 1; 208 4; 210 4; 211 4; 
212 8; 213 3; 214 6; 217 1; 218 1; 
221 3; 222 1; 223 2; 225 1; 226 1; 
228 29; 230 999; 231 152; 232 17; 233 1; 
234 1; 236 1; 237 1; 239 1; 240 1; 
241 4; 242 2; 245 1; 249 1; 253 8; 
254 1; 255 2; 257 3; 258 1; 259 1; 
266 1; 267 2; 268 1; 269 2; 270 2; 
281 2; 282 2; 283 2; 284 6; 285 9; 
286 34; 287 6; 288 1; 289 1; 297 1; 
298 1; 299 1; 300 1; 302 2; 303 10; 
304 1; 311 1; 313 1; 315 22; 316 2; 
325 3; 327 10; 329 1; 330 1; 331 2; 
341 3; 342 4; 343 2; 345 1; 354 1; 
355 2; 356 1; 357 2; 359 41; 360 8; 
