Name: ADBICA N-(4-hydroxypentyl) metabolite
Synon: N-(1-amino-3,3-dimethyl-1-oxobutan-2-yl)-1-(4-hydroxypentyl)-1H-indole-3-carboxamide
InChIKey: IZMLODTWDCPVEI-RUINGEJQSA-N
Formula: C20H29N3O3
MW: 359
ExactMass: 359.220892
CASNO: 0
ID: 3550
Comment: Provided by www.caymanchem.com/app/template/landing%2CForensic.vm / Item #15240  Lot #0453290
Num Peaks: 182
41 56; 42 8; 43 27; 44 38; 45 67; 
46 1; 50 2; 51 2; 53 3; 54 1; 
55 7; 56 6; 57 42; 58 4; 59 3; 
62 2; 63 3; 64 1; 65 2; 66 1; 
67 3; 69 69; 70 12; 71 9; 73 9; 
74 3; 75 3; 76 4; 77 10; 78 3; 
79 1; 82 1; 83 2; 84 2; 85 12; 
86 6; 87 4; 88 3; 89 17; 90 3; 
91 2; 96 1; 97 1; 98 1; 99 1; 
100 2; 101 9; 102 27; 103 11; 104 1; 
105 1; 106 1; 112 1; 113 3; 114 9; 
115 32; 116 45; 117 12; 118 7; 119 5; 
120 1; 128 31; 129 78; 130 40; 131 4; 
132 4; 133 3; 134 1; 135 5; 140 1; 
141 2; 143 49; 144 314; 145 30; 146 5; 
147 4; 148 1; 149 2; 154 7; 155 10; 
156 19; 157 38; 158 13; 159 2; 160 1; 
165 2; 167 4; 168 7; 169 3; 170 16; 
171 5; 172 4; 173 9; 174 3; 175 1; 
179 1; 181 2; 182 2; 183 4; 184 31; 
185 27; 186 13; 187 2; 188 2; 191 1; 
193 1; 194 2; 195 2; 196 1; 197 3; 
198 2; 199 2; 200 1; 201 1; 202 1; 
203 5; 204 1; 207 3; 208 2; 209 2; 
210 7; 211 6; 212 28; 213 15; 214 28; 
215 5; 223 1; 225 2; 226 3; 228 31; 
230 999; 231 145; 232 15; 233 1; 240 1; 
241 7; 242 3; 243 1; 249 1; 250 1; 
251 1; 253 5; 254 1; 255 1; 257 1; 
259 1; 266 1; 267 2; 268 6; 269 3; 
270 1; 271 1; 281 1; 282 1; 283 1; 
284 4; 285 14; 286 33; 287 5; 298 1; 
299 1; 302 1; 303 7; 304 1; 312 1; 
313 1; 315 18; 316 6; 317 2; 325 2; 
327 9; 328 1; 329 2; 331 3; 332 1; 
342 6; 343 2; 344 2; 346 1; 357 2; 
359 43; 360 12; 
