Name: SDB-006
Synon: 1-Pentyl-N-(phenylmethyl)-1H-indole-3-carboxamide
InChIKey: OLACYTSBFXCDOH-UHFFFAOYSA-N
Formula: C21H24N2O
MW: 320
ExactMass: 320.188864
CASNO: 695213593
ID: 3553
Comment: Provided by www.caymanchem.com/app/template/landing%2CForensic.vm / Item #15156  Lot #0454293 / SWGDRUG Monograph available
Num Peaks: 159
41 49; 43 82; 44 2; 50 6; 51 19; 
52 5; 53 5; 55 15; 56 1; 61 1; 
62 4; 63 11; 64 4; 65 33; 66 3; 
67 1; 69 3; 71 2; 73 1; 74 4; 
75 12; 76 17; 77 82; 78 36; 79 66; 
80 5; 86 1; 87 3; 88 13; 89 56; 
90 23; 91 196; 92 17; 94 1; 101 22; 
102 50; 103 36; 104 64; 105 26; 106 33; 
107 10; 108 3; 114 19; 115 68; 116 126; 
117 35; 118 30; 119 2; 120 1; 122 1; 
126 1; 128 56; 129 90; 130 204; 131 54; 
132 32; 133 8; 135 2; 139 1; 140 3; 
141 4; 143 85; 144 354; 145 43; 146 3; 
151 1; 152 1; 153 1; 154 7; 155 27; 
156 24; 157 21; 158 34; 159 5; 160 6; 
163 1; 165 3; 166 1; 167 4; 168 4; 
169 4; 170 19; 171 15; 172 11; 173 8; 
174 2; 176 2; 177 2; 178 4; 179 3; 
180 2; 181 2; 182 2; 183 3; 184 11; 
185 8; 187 179; 188 158; 189 20; 190 2; 
191 2; 192 4; 193 2; 194 1; 195 2; 
196 1; 197 2; 198 3; 199 1; 200 3; 
201 1; 202 1; 204 14; 205 6; 206 11; 
207 8; 208 1; 209 1; 210 3; 212 19; 
214 999; 215 225; 216 25; 217 6; 218 5; 
219 4; 220 8; 221 2; 228 2; 229 2; 
231 6; 232 7; 233 2; 234 2; 235 4; 
236 1; 241 1; 243 1; 245 2; 246 2; 
247 1; 249 11; 250 3; 253 2; 261 1; 
263 136; 264 28; 265 3; 275 1; 276 5; 
281 2; 290 1; 291 1; 303 2; 317 1; 
318 3; 320 418; 321 95; 322 13; 
