Name: 4-APDB
Synon: 4-(2-Aminopropyl)-2,3-dihydrobenzofuran
InChIKey: LTXYRVJSOQKJAH-UHFFFAOYSA-N
Formula: C11H15NO
MW: 177
ExactMass: 177.115364
CASNO: 1203342420
ID: 3554
Comment: Provided by www.caymanchem.com/app/template/landing%2CForensic.vm / Item #9001891  Lot #0456129
Num Peaks: 80
40 9; 41 14; 42 46; 44 999; 45 27; 
50 11; 51 26; 52 11; 53 11; 54 3; 
55 4; 56 2; 57 4; 58 2; 60 1; 
61 1; 62 8; 63 36; 64 12; 65 37; 
67 4; 68 3; 72 6; 74 8; 75 10; 
76 17; 77 123; 78 53; 79 46; 81 9; 
86 2; 87 3; 89 23; 90 12; 91 60; 
92 7; 93 2; 94 1; 98 1; 102 26; 
103 65; 104 33; 105 32; 106 7; 107 4; 
113 1; 115 36; 116 11; 117 22; 118 17; 
119 19; 120 4; 126 1; 127 6; 128 8; 
129 5; 130 7; 131 73; 132 27; 133 105; 
134 52; 135 6; 141 1; 143 2; 144 5; 
145 15; 146 5; 147 2; 148 1; 157 1; 
158 2; 159 3; 160 8; 161 2; 162 5; 
174 3; 175 2; 177 62; 178 8; 179 1; 
