Name: ADB-PINACA N-(5-hydroxypentyl) metabolite
Synon: N-(1-amino-3,3-dimethyl-1-oxobutan-2-yl)-1-(5-hydroxypentyl)-1H-indazole-3-carboxamide
InChIKey: SATSPSXEJHKPRR-INIZCTEOSA-N
Formula: C19H28N4O3
MW: 360
ExactMass: 360.21614
CASNO: 0
ID: 3555
Comment: Provided by www.caymanchem.com/app/template/landing%2CForensic.vm / Item #15054  Lot #0455115
Num Peaks: 217
41 186; 42 22; 43 42; 44 126; 45 15; 
46 1; 49 1; 50 4; 51 6; 52 5; 
53 11; 55 43; 56 24; 57 130; 58 11; 
59 3; 62 7; 63 10; 64 5; 65 9; 
66 3; 67 27; 69 147; 70 40; 71 15; 
72 5; 73 18; 74 5; 75 10; 76 24; 
77 44; 78 8; 79 2; 81 1; 82 3; 
83 11; 84 17; 85 29; 86 61; 87 10; 
88 72; 89 50; 90 104; 91 21; 92 7; 
93 1; 94 1; 95 1; 96 2; 97 2; 
98 2; 99 1; 100 5; 101 9; 102 57; 
103 145; 104 66; 105 13; 106 2; 107 2; 
110 1; 112 4; 113 2; 115 5; 116 21; 
117 67; 118 44; 119 26; 120 3; 121 2; 
122 1; 127 2; 128 25; 129 66; 130 58; 
131 301; 132 58; 133 8; 135 6; 140 1; 
141 1; 142 8; 143 31; 145 715; 146 71; 
147 16; 148 2; 150 1; 152 1; 153 1; 
154 5; 155 9; 156 13; 157 27; 158 24; 
159 15; 160 6; 161 2; 162 3; 163 3; 
164 1; 168 2; 169 9; 171 105; 172 28; 
173 21; 175 122; 176 12; 177 2; 178 1; 
181 2; 183 7; 184 3; 185 36; 186 23; 
187 13; 188 3; 195 3; 196 1; 197 3; 
199 28; 200 20; 201 95; 202 17; 203 5; 
204 9; 206 1; 207 11; 208 7; 209 3; 
211 5; 213 820; 214 131; 215 17; 216 8; 
217 1; 218 1; 222 1; 225 2; 226 2; 
227 3; 229 53; 231 575; 232 78; 233 9; 
234 1; 239 1; 240 1; 241 3; 242 9; 
243 4; 244 8; 245 2; 246 2; 247 1; 
248 8; 249 3; 253 4; 254 3; 255 3; 
256 6; 257 3; 258 1; 259 2; 260 4; 
261 2; 262 1; 263 1; 267 1; 269 1; 
270 4; 271 3; 272 1; 273 1; 275 1; 
281 2; 282 5; 283 2; 284 7; 285 6; 
287 182; 288 30; 289 4; 296 1; 297 1; 
298 5; 299 1; 300 6; 302 2; 303 6; 
304 25; 305 3; 311 1; 312 1; 313 5; 
314 29; 316 999; 317 202; 318 22; 320 1; 
328 6; 329 4; 330 3; 331 3; 332 1; 
333 1; 341 1; 342 4; 343 2; 344 1; 
345 2; 346 3; 354 1; 355 1; 359 1; 
360 4; 361 1; 
