Name: ADB-PINACA N-(4-hydroxypentyl) metabolite
Synon: N-(1-amino-3,3-dimethyl-1-oxobutan-2-yl)-1-(4-hydroxypentyl)-1H-indazole-3-carboxamide
InChIKey: PLWUNCALBOFEBI-INSVYWFGSA-N
Formula: C19H28N4O3
MW: 360
ExactMass: 360.21614
CASNO: 0
ID: 3556
Comment: Provided by www.caymanchem.com/app/template/landing%2CForensic.vm / Item #15053  Lot #0453157
Num Peaks: 219
41 166; 42 30; 43 86; 44 122; 45 201; 
46 5; 50 4; 51 10; 52 4; 53 10; 
54 4; 55 29; 56 18; 57 125; 58 14; 
59 4; 61 1; 62 7; 63 9; 64 6; 
65 6; 66 3; 67 10; 69 173; 70 43; 
71 34; 72 5; 73 16; 74 3; 75 15; 
76 32; 77 52; 78 8; 79 1; 80 1; 
82 4; 83 7; 84 16; 85 63; 86 75; 
87 10; 88 46; 89 46; 90 90; 91 22; 
92 6; 93 1; 94 1; 95 1; 96 1; 
97 1; 98 2; 99 3; 100 6; 101 9; 
102 62; 103 221; 104 65; 105 11; 106 2; 
107 3; 111 1; 112 9; 113 1; 114 4; 
115 6; 116 17; 117 58; 118 31; 119 14; 
120 2; 121 2; 122 1; 127 6; 128 24; 
129 84; 130 129; 131 278; 132 47; 133 7; 
134 1; 135 2; 136 1; 140 1; 141 2; 
142 8; 143 21; 145 830; 146 85; 147 16; 
148 2; 149 2; 151 1; 153 1; 154 3; 
155 9; 156 9; 157 32; 158 68; 159 22; 
160 6; 161 5; 162 1; 163 2; 165 2; 
167 1; 168 4; 169 6; 171 78; 172 15; 
173 13; 175 105; 176 12; 177 1; 181 1; 
182 2; 183 5; 185 77; 186 56; 187 25; 
188 7; 189 1; 191 1; 193 1; 194 1; 
195 2; 196 2; 197 3; 198 3; 199 2; 
201 102; 202 24; 203 5; 204 7; 205 3; 
207 6; 208 3; 209 1; 210 2; 211 5; 
213 768; 214 129; 215 60; 216 7; 217 2; 
218 1; 219 1; 221 1; 224 1; 226 3; 
227 3; 229 64; 231 758; 232 107; 233 12; 
234 1; 239 1; 241 2; 242 13; 243 10; 
244 10; 245 1; 246 6; 248 7; 249 1; 
250 1; 251 1; 252 1; 253 2; 254 2; 
255 1; 256 9; 257 1; 258 4; 259 1; 
260 3; 261 2; 267 1; 269 36; 270 12; 
271 9; 272 4; 273 2; 281 1; 282 3; 
283 1; 284 2; 285 5; 287 93; 288 16; 
289 2; 298 19; 299 9; 300 40; 301 7; 
302 3; 303 7; 304 29; 305 4; 309 1; 
310 2; 311 2; 312 2; 314 40; 316 999; 
317 211; 318 28; 319 1; 327 4; 328 10; 
329 3; 341 4; 342 4; 343 2; 345 5; 
346 1; 360 9; 361 2; 362 1; 
