Name: ADB-PINACA isomer 3
Synon: (S)-N-(1-amino-1-oxohexan-2-yl)-1-pentyl-1H-indazole-3-carboxamide
InChIKey: BIAATZFCIKCULE-OAHLLOKOSA-N
Formula: C19H28N4O2
MW: 344
ExactMass: 344.221226
CASNO: 0
ID: 3557
Comment: Provided by www.caymanchem.com/app/template/landing%2CForensic.vm / Item #9001527  Lot #0456164
Num Peaks: 120
41 47; 42 10; 43 44; 44 52; 45 2; 
50 1; 51 2; 52 1; 53 2; 54 2; 
55 16; 56 8; 57 4; 58 1; 59 1; 
62 2; 63 3; 64 1; 65 2; 66 1; 
67 3; 68 6; 69 20; 70 4; 71 3; 
72 3; 73 5; 75 4; 76 9; 77 15; 
78 2; 82 1; 84 8; 85 3; 86 24; 
87 3; 88 21; 89 19; 90 41; 91 7; 
92 1; 102 19; 103 53; 104 21; 105 2; 
111 2; 112 2; 114 1; 115 1; 116 4; 
117 24; 118 8; 119 3; 127 1; 128 3; 
129 23; 130 21; 131 79; 132 11; 133 1; 
142 2; 143 6; 145 350; 146 34; 147 3; 
155 1; 156 2; 157 6; 158 8; 159 3; 
160 1; 161 4; 169 1; 170 1; 171 9; 
172 4; 173 2; 174 10; 175 5; 184 1; 
185 6; 186 5; 187 7; 188 2; 199 2; 
200 2; 201 1; 202 3; 207 3; 209 1; 
213 16; 215 999; 216 150; 217 14; 227 1; 
229 1; 230 6; 231 2; 240 1; 242 3; 
243 2; 244 1; 253 1; 256 2; 257 2; 
258 2; 270 1; 271 5; 272 1; 283 1; 
284 1; 287 2; 288 1; 298 3; 300 405; 
301 83; 302 10; 326 2; 327 1; 344 3; 
