Name: ADB-PINACA isomer 2
Synon: N-((2S,3S)-1-amino-3-methyl-1-oxopentan-2-yl)-1-pentyl-1H-indazole-3-carboxamide
InChIKey: QFGOKLQWEVQXAP-JBZHPUCOSA-N
Formula: C19H28N4O2
MW: 344
ExactMass: 344.221226
CASNO: 0
ID: 3558
Comment: Provided by www.caymanchem.com/app/template/landing%2CForensic.vm / Item #9001526  Lot #0455506
Num Peaks: 168
40 2; 41 51; 42 8; 43 40; 44 52; 
45 3; 49 1; 51 1; 52 1; 53 4; 
54 3; 55 15; 56 11; 57 25; 58 1; 
59 1; 62 3; 63 4; 64 2; 65 3; 
66 2; 67 4; 68 4; 69 29; 70 15; 
71 3; 72 1; 73 10; 74 1; 75 5; 
76 8; 77 20; 78 4; 79 1; 82 1; 
83 1; 84 12; 85 7; 86 17; 87 4; 
88 20; 89 17; 90 44; 91 9; 92 2; 
93 1; 97 1; 99 1; 100 1; 101 2; 
102 25; 103 62; 104 25; 105 4; 107 1; 
112 3; 114 2; 115 2; 116 7; 117 20; 
118 8; 119 3; 128 5; 129 24; 130 21; 
131 91; 132 12; 133 2; 135 2; 142 4; 
143 7; 145 343; 146 33; 147 4; 148 1; 
150 1; 154 3; 155 2; 156 3; 157 6; 
158 11; 159 6; 160 1; 161 8; 162 1; 
163 1; 166 1; 168 1; 169 1; 170 4; 
171 11; 172 4; 173 4; 174 22; 175 8; 
176 2; 177 3; 179 1; 183 1; 184 2; 
185 8; 186 6; 187 11; 188 1; 189 1; 
193 1; 194 1; 195 1; 196 1; 197 1; 
198 1; 199 2; 200 5; 201 1; 202 1; 
203 1; 207 6; 208 3; 209 3; 210 1; 
211 1; 212 1; 213 21; 215 999; 216 153; 
217 12; 218 1; 222 1; 227 5; 228 2; 
229 1; 230 8; 231 7; 232 4; 242 3; 
243 1; 244 1; 253 4; 254 2; 255 2; 
256 1; 257 1; 269 3; 270 3; 271 5; 
272 2; 281 1; 282 3; 283 2; 287 1; 
288 2; 295 1; 297 2; 298 7; 300 448; 
301 89; 302 8; 303 1; 315 2; 316 1; 
326 2; 327 2; 328 2; 331 3; 341 1; 
344 2; 345 1; 346 2; 
