Name: Pyrazolam
Synon: 8-Bromo-1-methyl-6-(2-pyridinyl)-4H-[1,2,4]triazolo[4,3-a][1,4]benzodiazepine
InChIKey: BGRWSFIQQPVEML-UHFFFAOYSA-N
Formula: C16H12BrN5
MW: 353
ExactMass: 353.027607
CASNO: 39243022
ID: 3561
Comment: Provided by www.caymanchem.com/app/template/landing%2CForensic.vm / Item #14901  Lot #0455692
Num Peaks: 271
40 75; 41 74; 42 124; 43 5; 44 2; 
45 3; 47 1; 48 1; 50 151; 51 336; 
52 159; 53 42; 54 12; 55 9; 56 3; 
57 2; 59 2; 61 27; 62 80; 63 149; 
64 97; 65 62; 66 38; 67 23; 70 17; 
71 2; 73 26; 74 168; 75 354; 76 234; 
77 187; 78 733; 79 272; 80 40; 81 13; 
83 43; 84 6; 85 12; 86 51; 87 91; 
88 112; 89 244; 92 23; 93 62; 94 6; 
95 9; 96 18; 97 7; 98 37; 99 76; 
100 239; 101 242; 102 279; 103 410; 105 115; 
106 22; 107 7; 108 3; 109 10; 110 17; 
111 29; 112 22; 113 55; 114 79; 115 111; 
116 86; 118 19; 119 18; 120 9; 121 2; 
122 16; 123 31; 124 27; 125 67; 126 69; 
127 128; 128 83; 129 109; 130 31; 131 9; 
132 10; 133 16; 134 81; 135 27; 136 16; 
137 62; 138 60; 139 47; 140 75; 141 55; 
142 96; 143 33; 144 19; 145 7; 146 4; 
147 3; 148 5; 150 60; 151 143; 152 194; 
153 123; 154 84; 155 81; 156 59; 157 67; 
158 14; 159 9; 160 2; 161 4; 162 7; 
163 23; 164 143; 165 111; 166 70; 167 34; 
168 50; 169 13; 170 35; 171 7; 173 14; 
174 4; 175 6; 176 29; 177 109; 178 235; 
179 407; 180 189; 181 109; 182 125; 183 95; 
184 24; 186 1; 189 9; 190 35; 191 69; 
192 97; 193 41; 194 25; 195 16; 196 29; 
197 12; 198 4; 199 4; 200 1; 201 1; 
202 7; 203 75; 204 295; 205 999; 206 690; 
207 194; 208 50; 209 52; 210 15; 211 3; 
212 1; 213 1; 215 2; 216 10; 217 17; 
218 26; 219 43; 220 154; 221 149; 223 128; 
224 14; 228 2; 229 7; 230 15; 231 32; 
232 122; 233 237; 234 52; 235 9; 236 7; 
240 2; 241 1; 242 2; 244 60; 245 105; 
246 146; 247 40; 248 12; 249 18; 250 4; 
251 11; 253 14; 254 5; 255 4; 256 2; 
257 16; 258 30; 259 29; 260 22; 261 16; 
262 5; 263 1; 264 1; 265 3; 266 1; 
267 2; 269 5; 270 22; 271 18; 272 27; 
274 770; 275 168; 276 22; 277 6; 279 1; 
281 5; 283 119; 284 233; 285 235; 286 264; 
287 111; 288 30; 289 4; 290 1; 291 1; 
294 1; 295 2; 296 9; 297 29; 298 72; 
299 93; 300 70; 301 66; 302 10; 303 1; 
305 1; 307 3; 308 1; 310 51; 311 77; 
312 134; 313 96; 314 66; 315 14; 316 3; 
317 1; 322 9; 324 159; 325 123; 326 159; 
327 107; 328 18; 329 14; 330 4; 331 2; 
332 2; 333 2; 335 1; 337 7; 338 12; 
339 7; 340 16; 341 12; 342 1; 343 3; 
346 2; 347 3; 348 3; 349 1; 350 4; 
352 240; 353 644; 354 351; 355 641; 356 111; 
357 9; 
