Name: JWH-019 N-(4-fluorohexyl) isomer
Synon: JWH-019 N-(4-fluorohexyl) analog
InChIKey: WOAHNCOAJLHCEZ-UHFFFAOYSA-N
Formula: C25H24FNO
MW: 373
ExactMass: 373.184193
CASNO: 0
ID: 3564
Comment: Provided by www.caymanchem.com/app/template/landing%2CForensic.vm / Item #15444  Lot #0455332
Num Peaks: 266
41 194; 42 13; 43 43; 45 3; 46 4; 
47 19; 50 8; 51 16; 52 7; 53 22; 
55 144; 56 9; 57 8; 59 36; 61 64; 
62 10; 63 20; 64 5; 65 7; 66 3; 
67 16; 68 6; 69 15; 70 2; 71 2; 
73 13; 74 18; 75 46; 76 34; 77 101; 
78 16; 79 8; 80 1; 81 10; 82 1; 
83 22; 85 3; 86 5; 87 14; 88 22; 
89 74; 90 9; 91 4; 93 2; 95 5; 
96 1; 98 5; 99 7; 100 14; 101 101; 
102 113; 103 36; 104 4; 107 10; 108 4; 
110 1; 111 1; 113 23; 114 37; 115 102; 
116 150; 117 37; 118 5; 119 7; 121 25; 
123 2; 124 1; 126 181; 127 999; 128 281; 
129 116; 130 87; 131 13; 132 9; 133 4; 
134 9; 135 11; 138 7; 139 30; 142 189; 
143 61; 144 372; 145 40; 146 6; 147 7; 
148 8; 149 4; 150 8; 151 14; 152 16; 
153 11; 155 547; 156 93; 157 18; 158 19; 
159 2; 160 1; 161 5; 162 5; 163 10; 
164 6; 165 6; 167 158; 168 34; 169 7; 
170 38; 171 6; 172 3; 173 1; 174 4; 
175 3; 176 15; 177 8; 178 4; 179 2; 
180 4; 181 5; 182 5; 183 3; 184 13; 
185 2; 186 5; 187 19; 188 15; 189 20; 
190 8; 192 3; 193 1; 194 3; 195 1; 
196 5; 197 7; 198 46; 199 11; 200 11; 
201 7; 202 10; 203 4; 204 1; 205 2; 
207 7; 208 6; 210 3; 211 9; 212 16; 
213 90; 214 57; 215 75; 216 17; 217 5; 
218 6; 219 2; 222 2; 223 3; 224 12; 
226 121; 227 37; 228 27; 229 13; 230 6; 
232 1; 233 1; 237 5; 238 13; 239 31; 
240 99; 241 234; 242 94; 243 26; 244 11; 
246 554; 247 90; 248 8; 249 2; 250 2; 
251 13; 252 15; 253 45; 254 184; 255 87; 
256 106; 257 23; 258 3; 259 1; 263 1; 
264 3; 265 11; 266 44; 267 55; 268 52; 
269 113; 270 328; 271 77; 272 12; 273 3; 
274 1; 277 1; 278 5; 280 29; 281 13; 
282 64; 284 791; 285 205; 286 30; 287 6; 
290 1; 291 2; 292 1; 294 10; 296 41; 
297 14; 298 18; 299 6; 300 1; 302 2; 
304 1; 305 1; 306 1; 307 2; 308 5; 
309 9; 310 16; 311 7; 312 4; 313 1; 
315 1; 316 1; 318 1; 320 1; 324 27; 
325 6; 326 3; 327 6; 328 1; 329 1; 
330 1; 331 2; 333 1; 334 3; 336 22; 
337 8; 338 6; 339 3; 341 2; 342 1; 
343 1; 344 4; 345 6; 346 3; 348 1; 
349 1; 350 1; 352 44; 353 135; 354 55; 
356 328; 357 87; 358 13; 359 2; 367 1; 
370 3; 372 283; 373 639; 374 157; 375 22; 
376 3; 
