Name: 2-Fluoropentylindole
Synon: 1-(2-Fluoropentyl)-1H-indole
InChIKey: SPWGOILFUYHPLW-UHFFFAOYSA-N
Formula: C13H16FN
MW: 205
ExactMass: 205.1266775
CASNO: 0
ID: 3565
Comment: Provided by www.caymanchem.com/app/template/landing%2CForensic.vm / Item #15451  Lot #0457049
Num Peaks: 94
41 19; 42 2; 43 3; 45 1; 46 4; 
47 9; 50 6; 51 14; 52 5; 53 4; 
54 1; 55 7; 57 2; 59 9; 60 2; 
61 1; 62 9; 63 28; 64 6; 65 6; 
66 1; 67 2; 69 1; 72 1; 73 1; 
74 6; 75 14; 77 98; 78 11; 83 1; 
85 1; 86 2; 87 4; 89 69; 90 25; 
91 7; 101 14; 102 40; 103 93; 104 11; 
107 1; 109 1; 113 1; 114 5; 115 13; 
116 46; 117 42; 118 10; 126 1; 128 44; 
130 999; 131 156; 132 15; 133 9; 134 1; 
135 1; 140 2; 141 2; 142 3; 143 4; 
144 3; 145 1; 146 1; 148 5; 154 11; 
155 3; 156 13; 157 3; 158 2; 159 1; 
160 2; 161 6; 162 5; 163 1; 167 2; 
168 4; 169 1; 170 1; 172 2; 174 3; 
175 3; 176 8; 177 1; 182 1; 184 1; 
185 4; 186 1; 188 1; 189 1; 190 8; 
191 1; 205 418; 206 58; 207 3; 
