Name: CP 47,497-C9-homolog
Synon: cis-5-(1,1-Dimethylnonyl)-2-(3-hydroxycyclohexyl)-phenol
InChIKey: BIGNODGYJZJTBM-AZUAARDMSA-N
Formula: C23H38O2
MW: 346
ExactMass: 346.28718
CASNO: 70435084
ID: 3569
Comment: Provided by www.caymanchem.com/app/template/landing%2CForensic.vm / Item #9001449  Lot #0450954
Num Peaks: 196
41 150; 43 193; 44 20; 45 3; 50 1; 
51 3; 53 13; 55 76; 56 15; 57 107; 
58 7; 59 1; 63 1; 64 1; 65 12; 
66 4; 67 18; 69 37; 70 6; 71 40; 
72 3; 73 3; 74 2; 77 33; 78 9; 
79 58; 81 178; 82 11; 83 12; 84 2; 
85 15; 86 3; 87 1; 88 1; 89 3; 
91 72; 92 10; 93 15; 94 4; 95 16; 
96 1; 97 14; 98 2; 99 4; 100 2; 
102 4; 103 20; 104 8; 105 45; 107 106; 
108 8; 109 5; 110 1; 111 1; 113 1; 
115 43; 116 17; 117 39; 118 9; 119 25; 
120 13; 121 55; 122 5; 123 5; 127 16; 
128 35; 129 29; 130 9; 131 46; 132 18; 
133 104; 134 22; 135 85; 136 10; 137 2; 
139 2; 141 16; 142 8; 143 12; 144 17; 
145 57; 146 19; 147 120; 148 45; 149 16; 
150 3; 151 2; 152 4; 153 5; 154 4; 
155 8; 156 4; 157 20; 158 16; 159 42; 
160 22; 161 126; 162 29; 163 5; 164 1; 
165 3; 166 2; 167 2; 168 1; 169 5; 
171 25; 172 21; 173 63; 174 25; 175 20; 
176 7; 177 2; 178 1; 179 1; 181 2; 
182 1; 183 3; 184 2; 185 17; 186 10; 
187 70; 188 17; 189 13; 190 3; 191 4; 
192 1; 193 2; 194 1; 195 1; 196 1; 
197 2; 198 1; 199 12; 200 8; 201 31; 
202 6; 203 6; 204 2; 205 5; 207 1; 
209 3; 210 1; 213 10; 215 999; 216 261; 
217 43; 218 7; 219 16; 220 2; 221 1; 
223 1; 227 3; 228 10; 229 4; 231 33; 
233 934; 234 167; 235 17; 236 1; 242 1; 
243 1; 244 1; 245 8; 246 2; 247 1; 
248 1; 253 1; 255 1; 257 9; 258 13; 
259 6; 260 1; 272 8; 274 34; 275 7; 
276 1; 285 5; 286 2; 299 1; 300 2; 
301 2; 313 6; 314 1; 315 2; 325 2; 
328 79; 329 16; 330 3; 331 2; 341 1; 
342 1; 343 2; 344 3; 346 88; 347 24; 
348 4; 
