Name: JWH-019 N-(6-fluorohexyl) isomer
Synon: JWH-019 N-(6-fluorohexyl) analog
InChIKey: TVYGCQWIIHUDGL-UHFFFAOYSA-N
Formula: C25H24FNO
MW: 373
ExactMass: 373.184193
CASNO: 0
ID: 3571
Comment: Provided by www.caymanchem.com/app/template/landing%2CForensic.vm / Item #15446  Lot #0455334
Num Peaks: 271
41 174; 42 12; 43 56; 45 3; 47 34; 
50 8; 51 15; 52 5; 53 20; 55 146; 
56 7; 57 23; 59 23; 60 4; 61 46; 
62 10; 63 20; 64 5; 65 8; 66 4; 
67 13; 68 2; 69 4; 71 3; 72 2; 
73 15; 74 14; 75 45; 76 42; 77 107; 
78 19; 79 8; 80 1; 81 3; 82 2; 
83 8; 84 1; 85 1; 86 3; 87 13; 
88 20; 89 67; 90 8; 91 3; 92 1; 
94 4; 95 3; 96 1; 98 2; 99 8; 
100 11; 101 86; 102 127; 103 34; 104 8; 
105 1; 107 11; 109 3; 111 2; 113 39; 
114 44; 115 96; 116 168; 117 41; 118 6; 
119 11; 121 35; 122 6; 126 183; 127 999; 
128 321; 129 126; 130 101; 131 14; 132 5; 
133 7; 134 7; 135 15; 136 6; 137 2; 
138 1; 139 38; 142 268; 144 462; 145 42; 
146 5; 147 4; 149 7; 150 11; 151 12; 
152 13; 153 9; 155 490; 156 77; 157 15; 
158 13; 159 1; 161 3; 162 4; 163 17; 
164 8; 165 7; 167 176; 168 35; 169 9; 
170 33; 171 5; 172 4; 173 5; 174 5; 
175 1; 176 13; 177 5; 178 3; 179 3; 
180 2; 181 4; 182 4; 183 4; 184 12; 
185 4; 186 5; 187 21; 188 11; 189 19; 
190 4; 191 3; 192 2; 193 4; 194 2; 
195 2; 196 1; 197 4; 198 20; 199 7; 
200 10; 201 8; 202 6; 204 3; 205 2; 
207 17; 208 2; 209 3; 211 12; 213 81; 
214 47; 215 68; 216 10; 217 5; 218 21; 
219 5; 220 1; 221 1; 223 4; 224 9; 
225 12; 226 69; 227 25; 228 23; 229 13; 
230 4; 231 2; 232 1; 234 1; 235 2; 
236 2; 238 19; 239 31; 240 112; 241 234; 
242 100; 243 32; 244 14; 246 629; 247 113; 
248 14; 249 4; 251 20; 252 17; 253 48; 
254 183; 255 94; 256 125; 257 25; 258 4; 
260 1; 262 1; 264 3; 266 47; 267 50; 
268 56; 269 119; 270 320; 271 68; 272 16; 
273 1; 275 1; 277 1; 278 2; 280 26; 
281 16; 282 51; 284 769; 285 184; 286 25; 
287 3; 291 2; 292 1; 293 2; 294 7; 
295 4; 296 19; 297 6; 298 16; 299 4; 
300 2; 302 2; 305 1; 306 1; 308 2; 
309 2; 310 11; 311 6; 312 10; 314 2; 
315 3; 317 1; 321 1; 322 1; 323 1; 
324 7; 325 3; 326 6; 327 3; 328 1; 
329 1; 330 1; 331 2; 332 3; 333 2; 
335 1; 336 12; 337 2; 338 3; 339 1; 
340 4; 341 6; 342 2; 343 2; 344 7; 
345 11; 346 4; 350 1; 352 16; 353 56; 
354 42; 356 462; 357 136; 358 12; 359 5; 
363 2; 367 1; 368 1; 369 2; 370 4; 
372 436; 373 864; 374 230; 375 30; 376 2; 
377 1; 
