Name: 4-Methoxy-PV8
Synon: 4-MeO-PV8
Synon: p-MeO-PV8
Synon: 4-Methoxy-PHPP
InChIKey: HYDJQOYJALXHLU-UHFFFAOYSA-N
Formula: C18H27NO2
MW: 289
ExactMass: 289.20418
CASNO: 0
ID: 3575
Comment: Provided by www.caymanchem.com/app/template/landing%2CForensic.vm / Item #15497  Lot #0455586
Num Peaks: 79
41 25; 42 14; 43 7; 44 2; 50 2; 
51 2; 52 1; 53 3; 54 8; 55 22; 
56 10; 57 2; 63 7; 64 13; 65 3; 
66 1; 67 3; 68 11; 69 27; 70 13; 
71 1; 72 1; 74 1; 75 1; 76 6; 
77 54; 78 7; 79 4; 80 4; 81 3; 
82 4; 84 32; 85 2; 89 1; 92 41; 
93 3; 94 4; 96 37; 97 23; 98 10; 
103 1; 104 1; 105 1; 107 23; 108 5; 
110 27; 111 2; 112 1; 115 1; 117 1; 
119 1; 120 1; 121 7; 122 1; 124 2; 
131 1; 132 1; 133 1; 135 74; 136 7; 
145 1; 146 1; 147 1; 150 9; 152 13; 
154 999; 155 110; 156 5; 159 1; 160 1; 
161 1; 163 3; 175 1; 186 1; 190 3; 
207 1; 216 1; 218 6; 219 1; 
