Name: 30C-NBOMe
Synon: 2-(4-Chloro-2,5-dimethoxyphenyl)-N-(3,4,5-trimethoxybenzyl)ethanamine
Synon: C30-NBOMe
InChIKey: ZQYYVTABADQBTJ-UHFFFAOYSA-N
Formula: C20H26ClNO5
MW: 395
ExactMass: 395.14995
CASNO: 1445574980
ID: 3577
Comment: Provided by www.caymanchem.com/app/template/landing%2CForensic.vm / Item #14528  Lot #0455137 / SWGDRUG Monograph available
Num Peaks: 139
41 1; 42 2; 43 1; 45 1; 50 1; 
51 3; 52 3; 53 4; 54 1; 55 1; 
62 1; 63 4; 64 3; 65 9; 66 3; 
67 4; 68 1; 69 1; 73 2; 74 1; 
75 3; 76 5; 77 26; 78 7; 79 15; 
80 8; 81 2; 82 1; 87 1; 89 9; 
90 13; 91 20; 92 8; 93 6; 94 2; 
95 10; 96 2; 97 1; 99 5; 100 1; 
101 2; 102 1; 103 2; 104 3; 105 16; 
106 9; 107 10; 108 7; 109 6; 110 3; 
111 3; 112 6; 113 4; 114 1; 115 1; 
117 1; 118 3; 119 4; 120 13; 121 12; 
122 6; 123 8; 125 10; 126 2; 127 5; 
128 1; 129 1; 132 2; 133 3; 134 8; 
135 9; 136 26; 137 24; 138 11; 139 5; 
140 3; 141 2; 142 7; 143 1; 144 1; 
146 1; 148 45; 149 11; 150 4; 151 14; 
152 3; 153 1; 155 27; 156 4; 157 12; 
159 1; 161 1; 162 5; 164 3; 165 12; 
166 6; 167 6; 168 2; 169 5; 170 2; 
171 8; 172 2; 173 2; 177 13; 178 5; 
179 3; 181 999; 182 114; 183 13; 184 8; 
185 26; 186 10; 187 9; 188 2; 190 1; 
191 1; 193 1; 194 1; 195 2; 196 2; 
197 1; 198 2; 199 6; 200 1; 201 2; 
207 7; 208 15; 209 54; 210 62; 211 7; 
212 1; 223 1; 224 1; 281 1; 362 6; 
363 1; 364 2; 365 1; 395 1; 
