Name: 25N-NBOMe
InChIKey: TXCKTIBHURMASQ-UHFFFAOYSA-N
Synon: 2C-N-NBOMe
Synon: 2-(2,5-Dimethoxy-4-nitrophenyl)-N-(2-methoxybenzyl)ethanamine
Synon: 25N-NB2OMe
Synon: 2C-N-NB2OMe
Formula: C18H22N2O5
MW: 346
ExactMass: 346.152872
CASNO: 0
ID: 3578
Comment: Provided by www.caymanchem.com/app/template/landing%2CForensic.vm / Item #14911  Lot #0454599 / SWGDRUG Monograph available
Num Peaks: 138
40 1; 41 7; 42 6; 43 3; 46 1; 
50 5; 51 15; 52 8; 53 9; 54 1; 
55 2; 58 1; 59 1; 61 1; 63 12; 
64 11; 65 56; 66 7; 67 4; 68 3; 
69 3; 70 1; 73 8; 74 1; 75 5; 
77 62; 78 48; 79 22; 80 7; 81 2; 
82 1; 87 1; 88 1; 89 27; 91 425; 
92 52; 93 44; 94 9; 95 8; 97 1; 
102 2; 103 3; 104 10; 105 17; 106 14; 
107 31; 108 7; 109 6; 110 1; 115 2; 
116 2; 117 6; 118 14; 119 20; 121 999; 
122 97; 123 8; 124 1; 126 1; 127 1; 
128 2; 130 1; 131 1; 132 5; 133 4; 
134 13; 135 13; 136 17; 137 10; 138 1; 
144 1; 147 5; 148 23; 150 417; 151 48; 
152 6; 153 1; 154 1; 156 1; 159 1; 
161 1; 162 1; 163 4; 164 5; 165 3; 
166 5; 167 16; 168 2; 173 1; 176 1; 
178 2; 179 1; 180 1; 181 2; 189 1; 
191 3; 193 4; 194 1; 195 4; 196 5; 
197 4; 198 2; 201 1; 208 1; 209 3; 
210 4; 211 1; 219 1; 221 1; 223 1; 
238 1; 249 1; 251 1; 253 6; 254 3; 
255 1; 265 1; 266 1; 267 1; 269 1; 
270 1; 281 4; 282 2; 285 1; 313 4; 
314 1; 315 2; 316 1; 325 1; 328 1; 
331 2; 332 1; 333 1; 341 4; 342 1; 
344 1; 345 1; 346 1; 
