Name: bk-2C-B
Synon: bk-4-Bromo-2,5-dimethoxyphenethylamine
InChIKey: HFYJGAIOBIDRPX-UHFFFAOYSA-N
Formula: C10H12BrNO3
MW: 273
CASNO: 0
ID: 3579
Comment: Provided by www.caymanchem.com/app/template/landing%2CForensic.vm / Item #15328  Lot #0456210
Num Peaks: 187
40 6; 41 3; 42 5; 43 8; 44 3; 
45 1; 46 1; 47 1; 48 1; 50 34; 
51 23; 53 87; 54 12; 55 3; 57 3; 
59 1; 60 5; 61 27; 62 70; 63 89; 
64 16; 65 28; 66 13; 67 5; 68 2; 
69 3; 70 2; 73 15; 74 44; 75 62; 
76 75; 77 67; 78 109; 79 54; 80 30; 
81 17; 82 25; 83 1; 84 1; 85 1; 
86 2; 87 2; 88 2; 89 6; 90 11; 
91 17; 92 22; 93 27; 94 9; 95 3; 
96 3; 97 1; 98 1; 99 1; 101 1; 
102 2; 103 4; 104 13; 105 13; 106 21; 
107 30; 108 53; 109 6; 110 4; 111 1; 
116 2; 117 5; 118 4; 119 12; 120 8; 
121 20; 122 8; 123 6; 124 2; 126 1; 
127 2; 128 3; 129 27; 131 32; 132 6; 
133 22; 134 38; 135 20; 136 34; 137 3; 
138 5; 140 3; 141 17; 142 18; 143 28; 
144 21; 145 11; 146 4; 147 4; 148 7; 
149 20; 150 6; 151 1; 153 2; 154 7; 
155 50; 157 112; 159 60; 160 11; 161 5; 
162 7; 163 43; 164 10; 165 13; 166 1; 
167 1; 170 65; 172 80; 173 14; 174 9; 
175 10; 176 1; 178 4; 179 2; 181 1; 
182 1; 183 6; 185 106; 187 114; 188 17; 
189 6; 190 1; 191 2; 192 1; 194 357; 
195 42; 196 4; 197 2; 198 6; 200 127; 
201 32; 202 114; 203 44; 204 5; 207 7; 
208 4; 209 1; 210 1; 211 3; 212 7; 
213 22; 214 13; 215 25; 216 15; 217 6; 
218 3; 219 1; 220 1; 221 1; 223 2; 
226 2; 228 56; 229 17; 230 54; 231 14; 
232 2; 233 1; 234 1; 236 1; 237 1; 
238 1; 239 3; 240 7; 241 7; 243 999; 
245 927; 246 110; 248 2; 253 6; 255 1; 
256 2; 257 6; 258 4; 259 3; 260 3; 
261 1; 267 1; 269 1; 273 64; 275 89; 
276 11; 277 1; 
