Name: Diclofensine
Synon: Ro 8-4650
InChIKey: ZJDCGVDEEHWEIG-UHFFFAOYSA-N
Formula: C17H17Cl2NO
MW: 321
ExactMass: 321.06872
CASNO: 34041844
ID: 3580
Comment: Provided by www.caymanchem.com/app/template/landing%2CForensic.vm / Item #15355  Lot #0455242
Num Peaks: 241
40 4; 42 199; 43 86; 44 28; 45 6; 
49 2; 50 17; 51 25; 52 8; 53 4; 
54 1; 55 1; 57 5; 58 1; 61 3; 
62 13; 63 43; 64 10; 65 18; 66 6; 
67 3; 68 2; 69 3; 72 2; 73 19; 
74 39; 75 56; 76 25; 77 36; 78 17; 
79 8; 80 4; 82 24; 84 8; 85 9; 
86 14; 87 27; 88 27; 89 50; 90 18; 
91 26; 92 6; 93 10; 94 6; 95 4; 
96 8; 97 6; 98 9; 99 22; 100 9; 
101 16; 102 34; 103 26; 104 63; 106 10; 
107 6; 109 29; 110 15; 111 23; 112 5; 
113 19; 114 13; 115 36; 116 25; 117 29; 
118 29; 119 7; 121 32; 123 19; 124 8; 
125 17; 126 22; 127 12; 128 11; 129 4; 
130 19; 131 80; 132 30; 133 12; 134 5; 
135 16; 136 12; 137 20; 138 19; 139 45; 
140 10; 141 3; 142 5; 143 8; 144 7; 
145 12; 146 29; 147 18; 148 35; 149 74; 
150 42; 151 36; 152 19; 153 4; 154 2; 
155 2; 156 1; 157 1; 159 21; 160 46; 
161 49; 162 39; 163 148; 164 138; 165 648; 
166 98; 167 9; 168 2; 170 5; 171 4; 
172 7; 173 19; 174 69; 175 49; 176 112; 
177 51; 178 59; 179 23; 180 6; 181 1; 
183 8; 184 4; 185 8; 186 22; 187 7; 
188 11; 189 10; 190 14; 191 11; 192 14; 
193 59; 194 15; 195 5; 196 6; 197 8; 
199 350; 200 90; 201 118; 202 32; 203 6; 
204 4; 205 7; 206 9; 208 901; 209 159; 
210 27; 212 186; 213 40; 214 69; 215 13; 
216 2; 217 1; 218 1; 220 12; 221 5; 
222 6; 223 2; 224 3; 225 7; 226 6; 
227 26; 228 63; 229 27; 230 22; 231 5; 
233 32; 234 12; 235 28; 236 7; 237 8; 
238 3; 239 4; 240 4; 242 290; 243 999; 
244 250; 245 326; 246 81; 247 108; 248 42; 
249 66; 250 18; 251 10; 252 4; 253 3; 
254 1; 255 2; 256 2; 257 1; 259 1; 
260 1; 262 16; 263 10; 264 12; 265 5; 
266 2; 267 2; 268 1; 269 1; 270 1; 
272 1; 274 1; 275 11; 277 141; 278 156; 
279 107; 280 93; 281 27; 282 15; 283 2; 
284 1; 285 3; 286 3; 287 3; 288 3; 
289 3; 290 17; 291 4; 292 10; 293 2; 
294 2; 304 4; 306 31; 307 5; 308 18; 
309 2; 310 2; 318 8; 320 64; 321 200; 
322 78; 323 134; 324 31; 325 24; 326 3; 
327 1; 
