Name: Deschloro-N-ethyl-ketamine
Synon: 2-(Ethylamino)-2-phenyl-cyclohexanone
InChIKey: IDLSBAANXISGEI-UHFFFAOYSA-N
Formula: C14H19NO
MW: 217
ExactMass: 217.146665
CASNO: 4551922
ID: 3582
Comment: Provided by www.caymanchem.com/app/template/landing%2CForensic.vm / Item #14105  Lot #0455833
Num Peaks: 104
40 6; 41 33; 42 41; 43 5; 44 34; 
45 1; 50 8; 51 27; 52 7; 53 5; 
54 13; 55 16; 56 6; 57 1; 58 3; 
62 3; 63 12; 65 19; 67 9; 68 4; 
69 2; 70 2; 72 3; 73 4; 74 5; 
75 7; 76 23; 77 167; 78 29; 79 13; 
80 3; 81 1; 82 4; 83 1; 84 7; 
85 1; 86 1; 87 2; 89 18; 91 102; 
92 9; 93 1; 94 1; 96 1; 101 3; 
102 19; 103 95; 104 305; 105 39; 106 5; 
107 1; 110 1; 112 21; 113 3; 115 89; 
116 25; 117 135; 118 20; 119 9; 120 1; 
127 9; 128 23; 129 13; 130 33; 131 29; 
132 75; 133 8; 134 7; 139 1; 140 3; 
141 4; 142 2; 143 11; 144 35; 145 32; 
146 152; 147 48; 148 5; 152 1; 153 1; 
154 1; 155 1; 156 2; 158 12; 160 999; 
161 119; 162 7; 170 2; 171 1; 172 4; 
173 5; 174 12; 175 1; 186 4; 188 131; 
189 233; 190 33; 191 2; 198 1; 199 1; 
200 1; 201 1; 217 7; 218 1; 
