Name: 4-Fluorobuphedrone
InChIKey: NEZHKHMZNSFKGS-UHFFFAOYSA-N
Synon: 4-FBP
Synon: 1-(4-Fluorophenyl)-2-(methylamino)butan-1-one
Synon: 4F-MAPB
Synon: 4-Fluoro-MAPB
Formula: C11H14FNO
MW: 195
ExactMass: 195.105943
CASNO: 0
ID: 3584
Comment: Provided by www.caymanchem.com/app/template/landing%2CForensic.vm / Item #15165  Lot #0454960
Num Peaks: 62
40 3; 41 33; 42 46; 43 8; 44 42; 
45 1; 50 9; 51 6; 52 2; 53 1; 
54 5; 55 6; 56 39; 57 87; 58 4; 
62 2; 63 4; 68 10; 69 19; 70 49; 
72 999; 73 51; 74 15; 75 88; 76 8; 
77 3; 81 1; 83 3; 86 1; 87 1; 
89 1; 92 1; 93 3; 95 173; 96 19; 
97 2; 101 2; 107 4; 108 1; 109 10; 
115 1; 120 2; 121 3; 123 81; 124 9; 
125 1; 133 3; 135 3; 136 2; 138 5; 
139 1; 146 1; 147 1; 148 2; 149 1; 
150 2; 151 6; 152 2; 162 1; 164 3; 
166 20; 167 2; 
