Name: 2C-TFM
Synon: 2C-CF3
Synon: 2,5-Dimethoxy-4-(trifluoromethyl)-benzeneethanamine
InChIKey: LYXGNMLWYONZID-UHFFFAOYSA-N
Formula: C11H14F3NO2
MW: 249
ExactMass: 249.097663
CASNO: 159277131
ID: 3590
Comment: Provided by www.caymanchem.com/app/template/landing%2CForensic.vm / Item #14471  Lot #0456583
Num Peaks: 188
41 20; 42 31; 43 17; 44 5; 45 4; 
47 3; 48 2; 50 24; 51 51; 52 22; 
53 35; 54 6; 55 8; 57 14; 58 6; 
59 6; 60 2; 62 24; 63 50; 64 18; 
65 19; 66 15; 67 41; 68 15; 69 43; 
70 11; 71 11; 73 4; 74 23; 75 85; 
76 33; 77 84; 78 37; 79 24; 80 15; 
81 27; 82 4; 83 52; 84 17; 85 6; 
86 8; 87 15; 88 26; 89 16; 91 61; 
92 20; 93 21; 94 35; 95 55; 96 81; 
97 9; 98 1; 99 26; 100 13; 101 51; 
102 15; 103 17; 104 16; 105 27; 106 7; 
107 47; 108 24; 109 108; 110 14; 111 4; 
112 12; 113 91; 114 67; 115 36; 116 10; 
117 11; 119 58; 120 27; 121 34; 122 42; 
123 69; 124 10; 125 32; 127 239; 128 22; 
129 12; 130 4; 132 30; 133 114; 134 35; 
135 18; 136 8; 137 25; 138 15; 139 25; 
140 29; 141 47; 142 29; 143 32; 144 5; 
145 122; 146 31; 147 33; 148 13; 149 10; 
150 19; 151 30; 152 18; 153 14; 154 12; 
155 51; 156 23; 157 29; 158 18; 159 59; 
160 13; 161 28; 162 17; 163 13; 164 6; 
165 3; 166 4; 167 3; 169 9; 170 70; 
171 28; 172 18; 173 24; 174 22; 175 19; 
176 53; 177 28; 179 3; 180 3; 181 5; 
182 7; 183 11; 184 6; 185 11; 186 8; 
187 10; 189 148; 190 36; 191 34; 193 4; 
195 4; 196 19; 197 6; 198 10; 199 36; 
200 129; 201 213; 202 40; 203 12; 204 28; 
205 212; 206 32; 207 5; 208 4; 209 4; 
210 2; 211 4; 212 5; 213 14; 214 6; 
216 21; 217 46; 218 54; 220 999; 221 113; 
222 13; 225 1; 226 3; 227 1; 229 5; 
230 7; 232 8; 233 10; 235 2; 236 1; 
239 1; 241 2; 242 1; 243 1; 244 1; 
245 3; 246 3; 247 3; 249 250; 250 23; 
251 3; 253 3; 255 1; 
