Name: 3,4-EDMC
Synon: bk-EDMA
Synon: 3,4-Ethylenedioxymethcathinone
InChIKey: MRFMNGZRIIBJTB-UHFFFAOYSA-N
Formula: C12H15NO3
MW: 221
ExactMass: 221.105193
CASNO: 30253442
ID: 3592
Comment: Provided by www.caymanchem.com/app/template/landing%2CForensic.vm / Item #15167  Lot #0454728
Num Peaks: 63
40 2; 41 11; 42 37; 43 19; 44 2; 
50 19; 51 63; 52 15; 53 9; 54 3; 
55 11; 56 53; 58 999; 59 36; 60 1; 
61 1; 62 8; 63 21; 64 4; 65 8; 
66 2; 67 1; 69 1; 74 13; 75 8; 
76 6; 77 27; 78 9; 79 55; 80 21; 
81 4; 89 1; 91 12; 92 4; 93 2; 
94 1; 103 1; 104 1; 105 2; 107 103; 
108 9; 109 2; 119 3; 120 3; 121 4; 
133 1; 135 44; 136 15; 137 4; 149 7; 
150 1; 161 1; 163 80; 164 10; 165 1; 
176 1; 178 2; 190 1; 191 1; 192 3; 
206 2; 220 1; 221 2; 
