Name: ORG 28611
Synon: [1-(Cyclohexylmethyl)-7-methoxy-1H-indol-3-yl](3,4-dimethyl-1-piperazinyl)-methanone
InChIKey: ONXJNAIZJKLJGA-UHFFFAOYSA-N
Formula: C23H33N3O2
MW: 383
ExactMass: 383.257277
CASNO: 784138085
ID: 3593
Comment: Provided by www.caymanchem.com/app/template/landing%2CForensic.vm / Item #15266  Lot #0453521
Num Peaks: 211
41 96; 42 160; 43 36; 44 24; 45 1; 
50 3; 51 3; 52 3; 53 12; 55 209; 
56 127; 57 77; 58 53; 59 3; 62 2; 
63 6; 64 2; 65 8; 67 24; 68 14; 
69 29; 70 198; 71 31; 72 59; 73 6; 
74 2; 75 8; 76 9; 77 17; 78 5; 
79 7; 80 4; 81 9; 82 39; 84 793; 
85 194; 86 13; 87 2; 88 5; 89 28; 
90 12; 91 9; 93 2; 94 1; 95 11; 
96 25; 97 105; 98 37; 99 8; 101 6; 
102 25; 103 39; 104 12; 105 1; 106 1; 
107 1; 109 2; 110 2; 111 25; 113 310; 
114 34; 115 25; 116 29; 117 30; 118 10; 
119 1; 120 1; 121 2; 122 1; 125 2; 
126 1; 127 16; 128 24; 129 44; 130 66; 
131 36; 132 18; 133 4; 134 2; 135 4; 
139 2; 140 6; 141 17; 142 14; 143 41; 
144 70; 145 40; 146 12; 147 5; 148 2; 
150 3; 152 1; 154 8; 155 4; 156 11; 
157 16; 158 37; 159 184; 160 73; 161 12; 
162 3; 166 2; 167 3; 168 3; 169 2; 
170 9; 172 51; 174 451; 175 53; 176 5; 
177 2; 179 1; 180 2; 181 1; 182 2; 
183 4; 184 9; 185 9; 186 30; 187 12; 
188 22; 189 4; 191 1; 193 1; 194 1; 
195 1; 196 2; 197 3; 198 7; 199 5; 
200 6; 201 5; 203 17; 204 4; 205 1; 
207 1; 209 1; 210 2; 211 2; 212 2; 
213 3; 214 5; 215 10; 217 17; 218 3; 
221 1; 222 1; 224 1; 225 1; 226 2; 
227 3; 228 2; 229 4; 230 1; 231 3; 
238 3; 239 1; 240 3; 241 6; 242 5; 
243 14; 244 4; 253 4; 254 4; 256 26; 
257 8; 258 2; 264 1; 265 1; 266 2; 
268 21; 270 999; 271 191; 272 21; 273 1; 
281 1; 283 3; 284 4; 286 293; 287 63; 
288 5; 295 1; 297 4; 298 7; 299 26; 
300 65; 301 16; 302 3; 308 1; 309 1; 
310 1; 312 174; 313 44; 314 7; 325 8; 
326 24; 327 11; 328 3; 341 2; 343 1; 
350 1; 364 1; 366 4; 368 96; 369 23; 
370 3; 380 1; 381 5; 383 59; 384 14; 
385 2; 
