Name: XLR11 6-hydroxyindole metabolite
Synon: 5-Fluoro-UR-144 6-hydroxyindole metabolite
Synon: 5F-UR-144 6-hydroxyindole metabolite
InChIKey: OZGNIKIHSWKZFS-UHFFFAOYSA-N
Formula: C21H28FNO2
MW: 345
ExactMass: 345.210407
CASNO: 0
ID: 3594
Comment: Provided by www.caymanchem.com/app/template/landing%2CForensic.vm / Item #14354  Lot #0451970
Num Peaks: 232
40 7; 41 105; 42 9; 43 43; 44 2; 
47 15; 50 2; 51 5; 53 15; 55 74; 
56 4; 57 14; 59 23; 60 1; 61 5; 
62 1; 63 7; 64 2; 65 12; 66 3; 
67 17; 69 36; 70 2; 73 3; 74 2; 
75 4; 76 14; 77 17; 78 7; 79 17; 
80 4; 81 26; 83 40; 84 5; 85 1; 
87 2; 88 2; 89 19; 90 12; 91 12; 
92 3; 93 2; 94 1; 95 4; 96 6; 
97 19; 98 2; 99 1; 101 3; 102 5; 
103 21; 104 10; 105 30; 106 6; 107 3; 
109 20; 110 1; 113 1; 114 4; 115 12; 
116 9; 117 31; 118 21; 119 4; 121 14; 
122 1; 123 1; 125 10; 126 1; 127 9; 
128 14; 129 6; 130 9; 131 35; 132 86; 
133 27; 134 5; 135 3; 136 1; 139 2; 
140 3; 141 6; 142 7; 143 6; 144 15; 
145 26; 146 60; 147 15; 148 3; 151 1; 
152 3; 153 4; 154 12; 155 5; 156 5; 
157 6; 158 10; 159 42; 160 159; 161 20; 
162 2; 163 1; 164 1; 165 13; 166 3; 
167 6; 168 8; 169 4; 170 18; 171 7; 
172 18; 173 14; 174 7; 175 1; 176 1; 
177 2; 178 1; 179 2; 180 4; 181 5; 
182 9; 183 27; 184 25; 185 7; 186 17; 
187 3; 188 3; 189 1; 190 1; 191 2; 
192 4; 193 1; 194 3; 195 5; 196 24; 
197 20; 198 28; 199 12; 200 12; 201 4; 
202 1; 204 1; 207 6; 208 4; 209 3; 
210 13; 211 8; 212 26; 213 12; 214 7; 
215 2; 216 1; 218 1; 219 5; 220 9; 
221 57; 222 20; 223 2; 224 5; 226 31; 
227 7; 228 16; 229 3; 230 1; 232 1; 
234 4; 235 2; 236 2; 238 3; 239 2; 
240 15; 241 9; 242 3; 243 1; 244 1; 
245 2; 246 5; 248 999; 249 166; 250 19; 
251 1; 252 1; 253 2; 254 2; 255 2; 
256 2; 258 1; 259 1; 262 21; 263 60; 
264 8; 265 1; 267 2; 268 2; 269 2; 
270 8; 272 52; 273 10; 274 4; 275 2; 
276 2; 281 2; 282 1; 283 1; 284 1; 
286 77; 287 34; 288 9; 289 2; 300 1; 
302 99; 303 20; 304 15; 305 3; 310 2; 
311 1; 312 3; 313 1; 314 4; 315 8; 
316 2; 325 2; 327 2; 328 7; 330 119; 
331 24; 332 3; 333 1; 341 1; 345 103; 
346 26; 347 4; 
