Name: 4-Methoxy-.alpha.-pyrrolidinobutiophenone
Synon: 4-MeOPBP
Synon: 1-(4-Methoxyphenyl)-2-(pyrrolidin-1-yl)butan-1-one
InChIKey: BXVBGQDJXXGMRX-UHFFFAOYSA-N
Formula: C15H21NO2
MW: 247
ExactMass: 247.157228
CASNO: 0
ID: 3597
Comment: Provided by www.caymanchem.com/app/template/landing%2CForensic.vm / Item #15354  Lot #0455803
Num Peaks: 72
41 45; 42 35; 43 10; 44 1; 50 6; 
51 6; 52 2; 53 6; 54 17; 55 35; 
56 10; 57 1; 58 7; 62 3; 63 20; 
64 32; 65 7; 66 2; 67 3; 68 15; 
69 17; 70 61; 71 3; 74 2; 75 3; 
76 14; 77 83; 78 10; 79 5; 80 3; 
81 1; 82 6; 83 3; 84 4; 89 2; 
90 1; 92 69; 93 6; 94 4; 96 28; 
97 15; 98 1; 102 1; 103 1; 104 3; 
105 1; 107 25; 108 6; 110 32; 112 999; 
113 82; 114 2; 115 2; 116 1; 117 1; 
118 1; 119 1; 120 1; 121 7; 131 1; 
132 1; 133 1; 135 68; 136 6; 146 1; 
147 1; 160 1; 161 1; 163 2; 190 1; 
218 4; 247 1; 
