Name: 4-Methyl-.alpha.-ethylaminopentiophenone
Synon: N-Ethyl-4'-methylnorpentedrone
InChIKey: IKIANZXWCBSIGA-UHFFFAOYSA-N
Formula: C14H21NO
MW: 219
ExactMass: 219.162314
CASNO: 18297057
ID: 3599
Comment: Provided by www.caymanchem.com/app/template/landing%2CForensic.vm / Item #15609  Lot #0456038 / SWGDRUG Monograph available
Num Peaks: 70
40 2; 41 18; 42 12; 43 13; 44 16; 
50 3; 51 5; 52 2; 53 3; 54 4; 
55 17; 56 39; 58 72; 59 3; 62 2; 
63 14; 64 5; 65 68; 66 4; 67 1; 
68 5; 70 22; 71 17; 72 11; 73 1; 
74 1; 75 2; 76 2; 77 6; 78 1; 
79 2; 82 1; 84 13; 85 1; 87 1; 
89 25; 91 135; 92 12; 93 3; 98 25; 
100 999; 101 75; 102 3; 103 2; 104 1; 
105 7; 106 1; 115 3; 116 1; 117 3; 
119 64; 120 8; 128 2; 129 1; 130 2; 
131 2; 132 2; 133 1; 134 2; 144 1; 
145 1; 146 2; 147 4; 148 5; 158 1; 
160 2; 161 1; 174 1; 176 11; 177 2; 
