Name: 5-Fluoropentylindole
Synon: 1-(5-Fluoropentyl)-1H-indole
InChIKey: CRRVPRNYXWCQPP-UHFFFAOYSA-N
Formula: C13H16FN
MW: 205
ExactMass: 205.1266775
CASNO: 0
ID: 3603
Comment: Provided by www.caymanchem.com/app/template/landing%2CForensic.vm / Item #15454  Lot #0455283
Num Peaks: 79
40 3; 41 24; 42 5; 43 2; 45 2; 
46 2; 47 10; 50 4; 51 8; 52 3; 
53 3; 54 1; 55 6; 57 1; 59 7; 
61 1; 62 7; 63 20; 64 7; 65 6; 
66 1; 67 1; 69 1; 72 1; 73 1; 
74 4; 75 8; 76 10; 77 69; 78 8; 
86 2; 87 3; 89 59; 90 34; 91 9; 
92 1; 101 7; 102 29; 103 67; 104 10; 
113 1; 114 4; 115 18; 116 46; 117 52; 
118 10; 127 4; 128 39; 130 999; 131 176; 
132 17; 133 1; 140 1; 141 2; 142 8; 
143 21; 144 19; 145 4; 148 2; 154 7; 
156 14; 157 6; 158 15; 159 2; 167 1; 
168 2; 169 1; 170 5; 171 2; 172 5; 
174 1; 176 3; 184 3; 185 11; 186 1; 
205 358; 206 48; 207 4; 209 1; 
