Name: 5-EAPB
Synon: 5-(2-Ethylaminopropyl)benzofuran
InChIKey: ZBZDDOARNPAMSP-UHFFFAOYSA-N
Formula: C13H17NO
MW: 203
ExactMass: 203.131014
CASNO: 0
ID: 3607
Comment: Provided by www.caymanchem.com/app/template/landing%2CForensic.vm / Item #15282  Lot #0455564 / SWGDRUG Monograph available
Num Peaks: 76
40 2; 41 7; 42 23; 44 106; 45 2; 
50 6; 51 16; 52 5; 53 3; 54 2; 
55 1; 56 17; 57 4; 58 1; 61 1; 
62 4; 63 16; 64 3; 65 5; 68 2; 
70 39; 72 999; 73 48; 74 5; 75 8; 
76 12; 77 78; 78 9; 79 2; 80 1; 
85 1; 86 1; 87 3; 88 1; 89 10; 
90 4; 91 10; 92 1; 101 4; 102 28; 
103 14; 104 3; 105 2; 113 1; 115 22; 
116 6; 117 3; 118 5; 126 1; 127 9; 
128 19; 129 17; 131 160; 132 23; 133 1; 
142 1; 143 2; 144 6; 145 2; 155 1; 
156 1; 157 6; 158 7; 159 11; 160 2; 
170 2; 172 2; 173 1; 174 1; 186 2; 
187 1; 188 10; 189 1; 200 1; 201 3; 
202 5; 
