Name: AB-FUBINACA 2-fluorobenzyl isomer
Synon: N-[(1S)-1-(aminocarbonyl)-2-methylpropyl]-1-[(2-fluorophenyl)methyl]-1H-indazole-3-carboxamide
InChIKey: AJGUHANHCUPXSK-UHFFFAOYSA-N
Formula: C20H21FN4O2
MW: 368
ExactMass: 368.164854
CASNO: 1185282169
ID: 3611
Comment: Provided by www.caymanchem.com/app/template/landing%2CForensic.vm / Item #9001524  Lot #0455357 / SWGDRUG Monograph available
Num Peaks: 220
40 5; 41 25; 42 8; 43 21; 44 72; 
45 1; 46 1; 49 1; 50 2; 51 4; 
52 4; 53 1; 55 9; 56 9; 57 7; 
58 1; 59 7; 60 2; 62 10; 63 10; 
64 2; 65 2; 67 3; 68 1; 69 6; 
70 12; 71 26; 72 35; 73 18; 74 2; 
75 15; 76 3; 77 11; 81 5; 82 4; 
83 81; 84 6; 85 3; 87 1; 88 39; 
89 28; 90 28; 91 11; 93 1; 96 5; 
97 5; 98 1; 99 3; 100 1; 101 1; 
102 26; 103 9; 104 7; 105 4; 107 13; 
109 981; 110 89; 111 4; 112 1; 113 1; 
114 3; 115 5; 116 5; 117 8; 118 8; 
121 2; 122 5; 123 1; 124 2; 129 10; 
130 2; 131 19; 132 4; 133 5; 135 4; 
136 1; 137 2; 140 1; 141 3; 142 1; 
143 3; 145 88; 146 8; 147 7; 150 4; 
151 5; 153 1; 155 4; 156 1; 158 2; 
159 1; 161 2; 162 1; 163 5; 164 1; 
167 2; 168 3; 169 4; 170 4; 171 3; 
172 6; 173 3; 174 1; 176 9; 177 22; 
178 4; 180 2; 181 3; 183 2; 185 3; 
186 3; 187 2; 188 2; 189 1; 191 8; 
193 7; 194 3; 195 2; 196 10; 197 13; 
199 3; 200 4; 201 1; 203 1; 205 5; 
207 79; 208 5; 209 3; 210 4; 211 3; 
214 4; 215 12; 216 4; 218 2; 223 16; 
224 5; 225 19; 226 4; 227 1; 228 1; 
230 1; 231 3; 232 1; 236 3; 239 2; 
241 2; 244 1; 246 3; 249 3; 250 1; 
251 2; 253 999; 254 158; 255 21; 256 3; 
257 1; 260 1; 262 1; 263 1; 266 3; 
267 6; 268 4; 269 13; 270 4; 271 1; 
275 2; 276 1; 279 1; 282 2; 283 4; 
285 1; 286 1; 289 1; 294 1; 296 2; 
298 2; 299 1; 300 3; 301 2; 302 2; 
307 1; 308 2; 309 3; 310 1; 311 1; 
313 2; 315 1; 317 2; 319 1; 321 3; 
323 4; 324 495; 325 91; 326 12; 327 7; 
328 3; 329 1; 330 1; 331 2; 333 2; 
334 2; 335 1; 336 4; 337 2; 339 1; 
341 5; 344 3; 345 2; 346 1; 347 2; 
348 2; 350 4; 354 2; 355 9; 357 4; 
358 1; 360 1; 362 1; 364 1; 368 3; 
