Name: Pseudoephedrine-HFBA Derivative
InChIKey: OQHSMAJCESLEEN-UHFFFAOYSA-N
Formula: C14H14F7NO2
MW: 361
ExactMass: 361.091276
CASNO: 0
ID: 3616
Comment: Broward Sheriff Office Drug Library (B. Lum) / Fluka 1167364
Num Peaks: 67
31 30; 32 85; 39 42; 41 28; 42 637; 
43 133; 44 83; 45 31; 50 86; 51 227; 
52 64; 53 26; 54 30; 55 57; 56 414; 
57 366; 58 962; 59 34; 63 52; 65 44; 
69 461; 76 36; 77 777; 78 182; 79 618; 
80 34; 84 24; 86 821; 87 39; 88 43; 
89 52; 90 31; 91 183; 92 51; 100 93; 
103 47; 105 363; 106 122; 107 457; 108 34; 
109 53; 115 87; 116 40; 117 114; 118 73; 
119 69; 130 26; 131 57; 132 40; 133 89; 
134 37; 135 34; 136 217; 146 76; 147 30; 
148 50; 150 26; 169 274; 192 26; 208 40; 
210 449; 211 26; 240 307; 241 26; 254 999; 
255 918; 256 83; 
