Name: PMMA-HFBA Derivative
InChIKey: UUQHGBGYLYGWNC-UHFFFAOYSA-N
Formula: C15H16F7NO2
MW: 375
ExactMass: 375.106926
CASNO: 0
ID: 3617
Comment: Broward Sheriff Office Drug Library (B. Lum) / Cayman 0438332-5
Num Peaks: 110
38 1; 39 19; 40 3; 41 21; 42 186; 
43 7; 44 2; 47 6; 50 11; 51 31; 
52 24; 53 11; 54 5; 55 14; 56 109; 
57 76; 58 34; 59 1; 60 1; 62 4; 
63 19; 64 10; 65 34; 66 4; 67 2; 
68 1; 69 123; 70 3; 71 2; 74 2; 
75 3; 76 6; 77 113; 78 132; 79 24; 
80 3; 81 3; 84 2; 87 1; 88 1; 
89 27; 90 18; 91 99; 92 15; 93 7; 
94 3; 95 1; 100 13; 101 1; 102 5; 
103 24; 104 9; 105 18; 106 15; 107 15; 
108 9; 109 14; 110 1; 113 1; 115 25; 
116 11; 117 28; 118 9; 119 26; 120 5; 
121 999; 122 113; 123 8; 128 1; 130 2; 
131 12; 132 7; 133 23; 134 10; 135 5; 
139 1; 145 2; 146 6; 147 61; 148 858; 
149 176; 150 16; 151 1; 159 1; 160 2; 
161 2; 162 5; 163 3; 166 1; 169 99; 
170 4; 176 1; 177 5; 178 4; 180 3; 
190 3; 192 2; 198 1; 206 3; 208 1; 
210 209; 211 11; 220 3; 226 1; 236 1; 
252 1; 254 488; 255 37; 256 2; 375 5; 
