Name: 5-MAPB
Synon: 5-(2-Methylaminopropyl)benzofuran
Synon: 1-(Benzofuran-5-yl)-N-methylpropan-2-amine
InChIKey: ZOVRTIPCNFERHY-UHFFFAOYSA-N
Formula: C12H15NO
MW: 189
ExactMass: 189.115364
CASNO: 135462930
ID: 3620
Comment: Provided by www.caymanchem.com/app/template/landing%2CForensic.vm / Item #14109  Lot #0452351 / SWGDRUG Monograph available
Num Peaks: 73
40 2; 41 9; 42 29; 43 13; 44 3; 
50 9; 51 24; 52 7; 53 4; 54 2; 
56 47; 58 999; 59 38; 61 1; 62 8; 
63 23; 64 5; 65 6; 70 2; 72 4; 
73 4; 74 8; 75 11; 76 16; 77 90; 
78 10; 79 3; 80 1; 86 3; 87 7; 
88 2; 89 14; 90 5; 91 8; 92 1; 
98 1; 101 5; 102 34; 103 16; 104 5; 
105 2; 113 1; 115 18; 116 4; 117 3; 
118 5; 126 1; 127 8; 128 17; 129 12; 
131 142; 132 21; 133 2; 142 1; 143 3; 
144 9; 145 3; 146 1; 155 1; 156 1; 
157 5; 158 6; 159 8; 160 1; 170 1; 
172 6; 173 4; 174 14; 175 1; 186 1; 
187 3; 188 5; 189 1; 
