Name: Atomoxetine
Synon: Strattera
Synon: (R)-N-methyl-3-(2-methylphenoxy)-3-phenylpropan-1-amine
InChIKey: VHGCDTVCOLNTBX-UHFFFAOYSA-N
Formula: C17H21NO
MW: 255
ExactMass: 255.162314
CASNO: 83015263
ID: 3626
Comment: DEA SWL
Num Peaks: 78
40 1; 41 8; 42 42; 44 999; 45 24; 
50 7; 51 26; 52 13; 53 12; 54 1; 
55 1; 56 5; 57 2; 58 1; 62 2; 
63 12; 64 4; 65 36; 66 2; 68 3; 
70 9; 74 2; 75 3; 77 110; 78 59; 
79 33; 80 6; 81 1; 89 15; 90 11; 
91 81; 92 6; 101 1; 102 9; 103 46; 
104 79; 105 17; 107 52; 108 66; 109 5; 
115 35; 116 8; 117 23; 118 27; 119 7; 
120 4; 121 1; 128 2; 129 1; 130 5; 
131 3; 132 9; 133 2; 141 2; 144 5; 
146 20; 148 133; 149 28; 151 67; 152 10; 
153 3; 154 4; 155 1; 164 3; 165 4; 
166 1; 167 1; 169 3; 178 2; 179 1; 
181 1; 182 1; 195 1; 197 5; 198 1; 
255 45; 256 9; 257 1; 
