Name: JWH-307 brominated analogue
Synon: (5-(2-bromophenyl)-1-pentyl-1H-pyrrol-3-yl)(naphthalen-1-yl)methanone
InChIKey: GYHBVANGMQFUKJ-UHFFFAOYSA-N
Formula: C26H24BrNO
MW: 445
ExactMass: 445.104126
CASNO: 0
ID: 3631
Comment: ENFSI / digitalized MS from EDND
Num Peaks: 316
26 9; 27 8; 29 18; 30 10; 32 14; 
36 9; 38 10; 39 9; 40 2; 41 24; 
42 10; 43 53; 49 9; 51 9; 52 9; 
53 9; 54 9; 55 18; 56 9; 57 15; 
59 9; 60 9; 61 9; 63 9; 64 9; 
65 9; 66 9; 67 9; 68 25; 69 18; 
70 8; 71 14; 73 10; 74 9; 75 9; 
77 21; 78 12; 79 9; 81 28; 82 21; 
83 18; 85 9; 86 31; 87 10; 88 9; 
89 9; 91 10; 93 10; 94 13; 95 29; 
96 15; 97 18; 98 9; 99 9; 100 9; 
101 13; 102 12; 103 9; 104 8; 105 9; 
107 9; 108 10; 109 18; 110 11; 111 14; 
112 9; 113 28; 114 35; 116 9; 117 8; 
119 35; 121 14; 122 9; 123 34; 124 29; 
126 81; 127 446; 128 48; 129 9; 130 9; 
131 9; 133 41; 134 12; 135 9; 136 9; 
137 10; 139 59; 140 40; 141 109; 142 21; 
143 9; 145 28; 146 9; 147 37; 148 14; 
149 8; 150 8; 151 21; 152 28; 153 84; 
155 999; 156 110; 157 21; 158 9; 159 9; 
160 22; 161 14; 162 9; 163 28; 164 21; 
165 81; 166 41; 167 28; 168 8; 169 165; 
170 24; 171 9; 172 9; 173 9; 174 13; 
175 9; 178 13; 179 18; 180 15; 181 12; 
182 62; 183 27; 184 30; 185 9; 187 22; 
189 14; 191 9; 192 22; 193 69; 194 48; 
195 34; 196 30; 197 14; 198 9; 199 9; 
201 13; 202 9; 203 13; 205 24; 206 27; 
208 28; 210 15; 211 15; 212 14; 213 9; 
214 10; 216 10; 217 10; 218 21; 220 76; 
221 15; 222 13; 224 13; 225 13; 226 9; 
227 9; 228 10; 230 9; 231 9; 232 18; 
233 18; 234 21; 235 9; 236 15; 237 19; 
238 9; 239 72; 240 13; 241 15; 245 9; 
246 9; 248 115; 249 16; 250 124; 251 33; 
252 87; 253 18; 254 27; 255 9; 256 9; 
258 21; 259 13; 260 8; 262 14; 263 9; 
264 28; 265 29; 266 44; 267 18; 268 27; 
269 20; 274 9; 275 10; 276 51; 277 19; 
278 28; 279 29; 280 21; 281 152; 282 42; 
283 10; 284 9; 286 9; 287 10; 288 9; 
290 131; 291 53; 292 51; 293 28; 294 152; 
295 99; 296 76; 297 21; 298 8; 299 13; 
304 9; 306 12; 307 12; 308 64; 309 41; 
310 51; 311 14; 312 10; 314 41; 315 15; 
316 9; 318 112; 319 21; 320 118; 321 28; 
322 21; 323 9; 324 14; 327 9; 328 22; 
329 12; 330 9; 333 9; 334 9; 336 9; 
337 9; 338 12; 340 9; 342 14; 346 14; 
347 9; 348 12; 349 9; 351 9; 352 9; 
353 9; 357 15; 358 12; 359 15; 360 41; 
361 28; 362 21; 363 9; 364 74; 366 318; 
367 96; 368 14; 369 9; 370 9; 371 9; 
372 18; 373 9; 374 140; 375 25; 376 149; 
377 34; 378 9; 379 9; 383 9; 384 49; 
385 24; 386 12; 388 167; 389 84; 390 108; 
391 53; 392 15; 393 9; 394 9; 395 9; 
399 9; 401 9; 403 12; 404 9; 405 8; 
407 9; 410 8; 414 9; 416 15; 417 9; 
418 9; 419 9; 420 9; 421 9; 426 9; 
428 49; 429 25; 430 31; 431 14; 432 9; 
444 199; 445 600; 446 395; 447 569; 448 121; 
449 24; 
