Name: Methoxypiperamide
Synon: MEOP
Synon: MEXP
Synon: (4-methoxyphenyl)(4-methylpiperazine-1-yl)methanone
InChIKey: DWPVVZZGGGCRRM-UHFFFAOYSA-N
Formula: C13H18N2O2
MW: 234
ExactMass: 234.136827
CASNO: 0
ID: 3636
Comment: ENFSI / Finnish NFP
Num Peaks: 108
30 16; 31 1; 32 1; 37 1; 38 9; 
39 12; 40 3; 41 18; 42 169; 43 123; 
44 53; 45 1; 50 18; 51 15; 52 3; 
53 8; 54 19; 55 25; 56 328; 57 44; 
58 294; 59 10; 61 1; 62 6; 63 46; 
64 73; 65 13; 66 5; 67 1; 68 5; 
69 7; 70 999; 71 150; 72 39; 73 2; 
74 5; 75 8; 76 28; 77 198; 78 20; 
79 10; 80 2; 81 3; 82 39; 83 525; 
84 42; 85 4; 89 2; 90 2; 91 6; 
92 151; 93 11; 94 1; 95 2; 96 1; 
97 12; 98 5; 99 330; 100 20; 103 2; 
104 10; 105 5; 106 3; 107 67; 108 8; 
109 1; 113 4; 117 1; 118 1; 119 2; 
120 3; 121 18; 122 2; 132 2; 133 4; 
134 6; 135 496; 136 43; 137 4; 145 1; 
146 10; 147 3; 148 3; 149 3; 150 3; 
151 1; 152 2; 160 2; 162 4; 163 1; 
164 18; 165 2; 166 1; 175 1; 176 12; 
177 14; 178 13; 179 1; 190 28; 191 4; 
192 2; 204 1; 219 1; 232 2; 233 2; 
234 87; 235 12; 236 1; 
