Name: 5-MeO-TMT
Synon: 5-Methoxy-2-N,N-trimethyltryptamine
Synon: 2-(5-methoxy-2-methyl-H-indol-3-yl)-N,N-dimethylethanamine
InChIKey: ACEHBQPPDDGCGZ-UHFFFAOYSA-N
Formula: C14H20N2O
MW: 232
ExactMass: 232.157563
CASNO: 67292686
ID: 3638
Comment: ENFSI / Uniklinik Freiburg, Germany
Num Peaks: 89
50 2; 51 7; 52 6; 53 4; 54 1; 
56 6; 57 15; 58 999; 59 38; 62 3; 
63 12; 64 3; 65 6; 66 1; 71 1; 
72 1; 74 3; 75 6; 76 7; 77 23; 
78 7; 79 2; 80 3; 86 1; 87 3; 
88 3; 89 18; 90 9; 91 9; 92 2; 
93 1; 94 2; 100 1; 101 5; 102 11; 
103 25; 104 9; 105 1; 113 2; 114 3; 
115 24; 116 12; 117 13; 118 5; 126 1; 
127 4; 128 11; 129 7; 130 83; 131 117; 
132 14; 133 1; 140 3; 141 5; 142 13; 
143 21; 144 27; 145 9; 146 3; 154 4; 
155 3; 156 7; 157 7; 158 49; 159 99; 
160 16; 161 2; 169 1; 170 2; 171 3; 
172 12; 173 31; 174 283; 175 36; 176 2; 
184 1; 185 2; 186 10; 187 11; 188 19; 
189 2; 199 1; 201 1; 215 3; 216 1; 
230 2; 232 189; 233 31; 234 2; 
