Name: Carfentanil
Synon: Carfentanyl
Synon: 4-((1-oxopropyl)phenylamino)-1-(2-phenethyl)-4-piperidinecarboxylic acid, methyl ester
Synon: Methyl 1-phenethyl-4-(N-phenylpropionamido)isonipecotate
InChIKey: YDSDEBIZUNNPOB-UHFFFAOYSA-N
Formula: C24H30N2O3
MW: 394
ExactMass: 394.225643
CASNO: 59708520
ID: 3649
Comment: ENFSI / Latvian NFP / SWGDRUG Monograph available
Num Peaks: 176
40 79; 41 9; 42 79; 43 11; 44 25; 
45 6; 50 4; 51 11; 52 5; 53 8; 
54 4; 55 9; 56 11; 57 56; 58 3; 
59 10; 63 5; 64 4; 65 19; 66 12; 
67 8; 68 5; 69 11; 70 6; 71 5; 
73 4; 74 3; 76 2; 77 56; 78 12; 
79 23; 80 6; 81 11; 82 10; 83 3; 
84 2; 85 4; 89 2; 91 39; 92 13; 
93 177; 94 29; 95 9; 96 68; 97 11; 
98 2; 99 2; 100 2; 103 20; 104 20; 
105 99; 106 29; 107 3; 108 1; 109 2; 
110 6; 111 1; 112 2; 113 17; 114 23; 
115 9; 116 2; 117 15; 118 25; 119 9; 
120 7; 122 4; 123 2; 124 4; 125 4; 
126 19; 127 4; 128 4; 129 5; 130 46; 
131 11; 132 27; 133 8; 134 16; 135 4; 
136 3; 137 5; 138 2; 139 3; 140 10; 
141 3; 142 5; 143 6; 144 12; 145 5; 
146 24; 147 6; 148 2; 149 43; 150 6; 
152 2; 153 7; 154 97; 155 19; 156 7; 
157 4; 158 39; 159 15; 160 19; 161 3; 
162 2; 165 1; 167 1; 168 1; 169 2; 
170 4; 171 4; 172 2; 173 2; 177 3; 
178 2; 179 2; 182 2; 183 2; 184 7; 
185 5; 186 38; 187 100; 188 17; 189 6; 
190 7; 191 4; 193 2; 197 4; 198 1; 
202 10; 203 3; 204 3; 207 37; 208 7; 
209 5; 215 4; 216 2; 219 7; 221 2; 
230 6; 231 2; 233 2; 242 3; 243 65; 
244 20; 245 7; 246 6; 247 50; 248 9; 
249 2; 253 6; 267 2; 271 3; 274 11; 
275 48; 276 8; 279 5; 281 14; 282 5; 
283 3; 289 7; 290 2; 301 2; 303 999; 
304 198; 305 24; 306 2; 327 1; 335 17; 
336 5; 343 2; 355 3; 363 5; 364 2; 
392 7; 
