Name: 25iP-NBOMe
InChIKey: KMZZEEDFQLXSQF-UHFFFAOYSA-N
Synon: 2-[2,5-Dimethoxy-4-(propan-2-yl)phenyl]-N-(2-methoxybenzyl)ethanamine
Synon: 4-Isopropyl-2,5-dimethoxy-N-(2-methoxybenzyl)phenethylamine
Synon: 25iP-NB2OMe
Synon: 2C-iP-NB2OMe
Synon: 2C-iP-NBOMe
Formula: C21H29NO3
MW: 343
ExactMass: 343.214745
CASNO: 0
ID: 3651
Comment: ENFSI / data from EDND webpage, provided by Finnish National Focal Point
Num Peaks: 101
32 4; 39 4; 40 1; 41 8; 42 3; 
43 5; 44 16; 45 1; 50 1; 51 5; 
52 4; 53 6; 54 1; 55 3; 57 1; 
63 4; 64 2; 65 30; 66 3; 67 3; 
69 2; 71 1; 75 1; 77 24; 78 16; 
79 10; 80 2; 89 5; 90 4; 91 240; 
92 25; 93 27; 94 3; 95 1; 96 1; 
102 2; 103 11; 104 5; 105 20; 106 5; 
107 14; 108 2; 109 1; 111 1; 115 14; 
116 8; 117 14; 118 8; 119 13; 120 9; 
121 999; 122 94; 123 9; 127 2; 128 3; 
129 4; 130 2; 131 11; 132 6; 133 14; 
134 8; 135 14; 136 7; 137 2; 141 1; 
145 2; 146 4; 147 7; 148 21; 149 12; 
150 382; 151 46; 152 5; 156 3; 157 1; 
161 3; 162 2; 163 10; 164 5; 165 2; 
171 1; 176 2; 177 7; 178 4; 179 25; 
180 3; 190 1; 191 3; 192 5; 193 24; 
194 202; 195 30; 196 2; 204 1; 206 1; 
207 13; 208 1; 209 1; 311 2; 312 14; 
313 3; 
