Name: Methallylescaline
Synon: MAL
Synon: 2-[3,5-dimethoxy-4-[(2-methyl-prop-2-en-1-yl)oxy]phenyl]ethanamine
Synon: 4-Methallyloxy-3,5-dimethoxyphenethylamine
InChIKey: FOXJFBFFGULACD-UHFFFAOYSA-N
Formula: C14H21NO3
MW: 251
ExactMass: 251.1521435
CASNO: 207740418
ID: 3652
Comment: ENFSI / data from EDND webpage, provided by Dutch National Focal Point
Num Peaks: 125
29 31; 30 201; 31 4; 32 2; 36 1; 
37 1; 38 3; 39 34; 40 6; 41 8; 
42 4; 43 6; 44 8; 45 2; 50 4; 
51 11; 52 14; 53 26; 54 4; 55 61; 
56 4; 57 2; 59 1; 62 1; 63 5; 
64 8; 65 17; 66 11; 67 8; 68 3; 
69 3; 70 1; 75 1; 76 4; 77 22; 
78 22; 79 16; 80 14; 81 9; 82 3; 
83 1; 85 1; 89 3; 90 4; 91 11; 
92 11; 93 9; 94 6; 95 10; 96 3; 
97 1; 103 1; 104 3; 105 8; 106 18; 
107 16; 108 5; 109 8; 110 4; 111 1; 
115 2; 116 1; 117 2; 118 2; 119 2; 
120 10; 121 12; 122 23; 123 31; 124 12; 
125 4; 128 1; 129 3; 130 1; 131 3; 
132 1; 133 2; 134 6; 135 5; 136 15; 
137 13; 138 3; 139 7; 145 1; 146 2; 
147 2; 148 19; 149 5; 150 2; 151 19; 
152 7; 153 9; 154 1; 157 2; 158 1; 
159 1; 161 2; 162 1; 163 1; 164 1; 
165 10; 166 6; 167 999; 168 128; 169 13; 
170 1; 174 2; 175 1; 176 1; 177 1; 
179 1; 180 1; 189 10; 190 2; 191 1; 
192 1; 194 2; 196 1; 197 2; 221 1; 
222 20; 223 3; 251 39; 252 7; 253 1; 
