Name: LSZ
Synon: LA-SS-Az
Synon: Lysergic acid 2,4-dimethylazetidide
Synon: Diazedine
Synon: Lambda
InChIKey: DUKNIHFTDAXJON-UHFFFAOYSA-N
Formula: C21H25N3O
MW: 335
ExactMass: 335.199762
CASNO: 470666310
ID: 3654
Comment: ENFSI / Identified by GC-MS and TOF LC-MS
Num Peaks: 70
56 8; 57 41; 58 41; 69 30; 70 187; 
71 48; 72 10; 76 25; 77 13; 83 1; 
84 20; 86 24; 89 51; 90 43; 98 41; 
99 9; 102 14; 110 73; 111 106; 123 20; 
124 16; 126 22; 127 90; 128 17; 135 12; 
139 38; 140 86; 141 21; 150 18; 151 93; 
152 148; 153 94; 154 146; 155 21; 164 12; 
166 37; 167 177; 168 45; 178 111; 179 62; 
180 179; 181 155; 182 44; 183 20; 190 13; 
192 51; 195 29; 196 253; 197 41; 205 161; 
206 108; 219 63; 220 231; 221 999; 222 484; 
223 216; 224 51; 233 16; 235 27; 236 20; 
239 35; 248 32; 255 32; 264 19; 277 71; 
292 69; 293 24; 335 646; 336 180; 337 24; 
