Name: 4-HO-DET
Synon: 4-hydroxydiethyltryptamine
Synon: 3-(2-diethylaminoethyl)-1H-indol-4-ol
InChIKey: OHHYMKDBKJPILO-UHFFFAOYSA-N
Formula: C14H20N2O
MW: 232
ExactMass: 232.157563
CASNO: 22204893
ID: 3657
Comment: ENFSI / Uniklinik Freiburg, Germany
Num Peaks: 81
51 6; 52 2; 53 2; 54 2; 55 1; 
56 16; 57 5; 58 74; 59 2; 62 2; 
63 9; 64 3; 65 11; 66 1; 70 3; 
71 2; 72 6; 73 1; 74 3; 75 3; 
76 4; 77 15; 78 6; 79 2; 80 1; 
84 4; 85 5; 86 999; 87 57; 88 3; 
89 17; 90 12; 91 19; 92 3; 93 1; 
101 3; 102 7; 103 10; 104 6; 105 3; 
109 2; 113 3; 114 3; 115 18; 116 10; 
117 33; 118 28; 119 2; 128 6; 129 4; 
130 32; 131 11; 132 4; 133 4; 140 3; 
141 1; 142 2; 143 1; 144 2; 145 6; 
146 79; 147 12; 148 1; 156 1; 157 3; 
158 8; 159 28; 160 27; 161 3; 171 1; 
172 1; 173 1; 174 2; 185 1; 202 1; 
215 1; 230 1; 231 2; 232 175; 233 28; 
234 2; 
