Name: 4-HO-DPT
Synon: 4-hydroxy-N,N-dipropyltryptamine
InChIKey: MZLRMPTVOVJXLW-UHFFFAOYSA-N
Formula: C16H24N2O
MW: 260
ExactMass: 260.188864
CASNO: 63065883
ID: 3658
Comment: ENFSI / SKL Sweden; confirmed by NMR
Num Peaks: 88
30 43; 39 8; 40 1; 41 40; 42 26; 
43 59; 44 16; 50 1; 51 4; 52 2; 
53 1; 54 2; 55 1; 56 5; 57 6; 
58 4; 62 1; 63 5; 64 2; 65 8; 
66 1; 68 1; 70 10; 71 2; 72 66; 
73 3; 75 2; 76 2; 77 10; 78 5; 
79 2; 80 1; 84 15; 85 2; 86 64; 
87 4; 88 1; 89 10; 90 7; 91 13; 
92 2; 93 1; 98 1; 100 4; 101 3; 
102 5; 103 8; 104 5; 105 3; 112 7; 
114 999; 115 103; 116 12; 117 21; 118 18; 
119 2; 128 3; 129 2; 130 25; 131 9; 
132 4; 133 4; 140 2; 141 1; 142 2; 
143 1; 144 1; 145 6; 146 73; 147 13; 
148 2; 156 1; 157 2; 158 6; 159 23; 
160 41; 161 5; 172 1; 173 1; 174 1; 
185 1; 187 1; 188 1; 229 1; 259 1; 
260 67; 261 13; 262 1; 
