Name: 25B-N(BOMe)2
InChIKey: RLAXQBUUAJLBAN-UHFFFAOYSA-N
Synon: 2-(4-bromo-2,5-dimethoxyphenyl)-N,N-bis(2-methoxybenyzl)ethanamine
Synon: 2C-B-N(BOMe)2
Formula: C26H30BrNO4
MW: 499
ExactMass: 499.13582
CASNO: 0
ID: 3660
Comment: ENFSI
Num Peaks: 123
41 3; 42 12; 43 2; 44 26; 45 1; 
50 2; 51 9; 52 3; 53 4; 55 1; 
62 1; 63 5; 64 3; 65 41; 66 3; 
67 1; 73 3; 75 2; 76 3; 77 42; 
78 26; 79 9; 80 1; 81 1; 82 1; 
89 13; 90 12; 91 460; 92 43; 93 49; 
94 4; 96 2; 102 1; 103 2; 104 4; 
105 24; 106 6; 107 10; 108 2; 115 1; 
116 1; 117 4; 118 4; 119 7; 120 9; 
121 999; 122 101; 123 6; 131 1; 132 3; 
133 8; 134 6; 135 5; 136 2; 143 2; 
145 2; 146 1; 147 3; 148 18; 149 4; 
150 5; 151 1; 152 1; 156 1; 157 1; 
158 1; 159 1; 162 1; 163 1; 164 1; 
165 2; 169 2; 170 1; 171 4; 173 1; 
177 1; 178 1; 184 2; 185 1; 186 4; 
187 1; 188 2; 191 2; 193 1; 195 1; 
199 12; 200 1; 201 12; 202 1; 207 22; 
208 5; 209 3; 213 2; 215 2; 227 1; 
228 2; 229 10; 230 3; 231 8; 232 1; 
238 1; 240 1; 241 29; 242 6; 243 1; 
244 1; 245 1; 253 2; 254 1; 255 1; 
267 1; 268 1; 269 1; 270 656; 271 128; 
272 14; 273 1; 281 7; 282 2; 283 1; 
327 1; 355 1; 405 1; 
