Name: Phenibut
Synon: 4-amino-3-phenyl-butanoic acid
Synon: Noofen
Synon: Fenibut
Synon: PhGABA
InChIKey: DAFOCGYVTAOKAJ-UHFFFAOYSA-N
Formula: C10H13NO2
MW: 179
ExactMass: 179.094628
CASNO: 1078213
ID: 3661
Comment: ENFSI / a cyclized byproduct 4-phenyl-2-pyrrolidinone; SKL Sweden
Num Peaks: 67
29 5; 30 55; 31 1; 37 1; 38 5; 
39 37; 40 3; 41 8; 42 4; 43 3; 
44 3; 49 1; 50 33; 51 91; 52 28; 
53 8; 54 6; 55 8; 56 9; 58 11; 
59 1; 61 2; 62 9; 63 29; 64 6; 
65 31; 66 3; 73 1; 74 12; 75 11; 
76 16; 77 104; 78 127; 79 11; 80 1; 
82 1; 83 9; 84 1; 86 1; 87 2; 
88 1; 89 19; 90 8; 91 60; 92 6; 
98 1; 101 3; 102 31; 103 151; 104 999; 
105 88; 106 4; 115 36; 116 10; 117 44; 
118 13; 119 2; 130 8; 131 44; 132 33; 
133 47; 134 4; 143 2; 159 1; 161 360; 
162 38; 163 2; 
