Name: N,N-Diethyl-2-(1-pentyl-1H-indol-3-yl)-4-thiazol-methanamine
InChIKey: PCNLLVFKBKMRDB-UHFFFAOYSA-N
Formula: C21H29N3S
MW: 355
ExactMass: 355.20822
CASNO: 1400742462
ID: 3665
Comment: ENFSI / Hungarian Institute of Forensic Sciences, confirmed by NMR
Num Peaks: 151
41 17; 42 10; 43 30; 44 9; 45 14; 
47 1; 51 1; 53 1; 54 2; 55 4; 
56 6; 58 11; 59 2; 69 2; 70 2; 
71 34; 72 69; 73 8; 75 1; 76 1; 
77 3; 80 2; 82 1; 83 1; 85 2; 
86 12; 87 1; 88 1; 89 2; 96 1; 
99 1; 100 1; 101 7; 102 3; 103 1; 
110 1; 113 19; 114 5; 115 10; 116 9; 
117 3; 118 1; 120 1; 125 1; 126 1; 
127 3; 128 14; 129 6; 130 10; 131 2; 
133 1; 135 3; 140 3; 142 59; 143 41; 
144 5; 145 1; 147 1; 148 2; 149 1; 
153 2; 154 4; 155 99; 156 31; 157 6; 
158 1; 159 1; 160 4; 161 1; 162 1; 
163 1; 166 1; 167 3; 168 7; 169 7; 
170 17; 172 2; 173 2; 174 1; 178 5; 
179 6; 180 3; 181 4; 182 3; 183 4; 
184 4; 185 5; 186 7; 187 2; 192 1; 
193 4; 194 3; 195 3; 196 1; 197 4; 
198 3; 199 1; 200 1; 207 6; 208 1; 
209 1; 210 1; 211 9; 212 39; 213 68; 
214 25; 215 4; 216 1; 221 1; 224 1; 
225 4; 226 14; 227 23; 228 8; 229 2; 
230 3; 239 4; 240 4; 241 4; 243 1; 
249 1; 250 1; 251 1; 252 1; 253 2; 
254 6; 255 3; 256 1; 267 1; 268 1; 
269 2; 281 9; 282 10; 283 122; 284 999; 
285 205; 286 63; 287 10; 297 1; 298 5; 
299 1; 325 1; 326 5; 327 1; 340 2; 
341 2; 353 1; 354 1; 355 39; 356 9; 
357 3; 
