Name: 1-(Cyclohexylmethyl)-2-[(4-ethoxyphenyl)methyl]-N,N-diethyl-1H-benzimidazol-5-carboxamide
InChIKey: WRVZBXHTUOPQJS-UHFFFAOYSA-N
Formula: C28H37N3O2
MW: 447
ExactMass: 447.288578
CASNO: 1046140322
ID: 3666
Comment: ENFSI / digitalized MS from EDND, HIFS Budapest
Num Peaks: 150
53 3; 55 53; 56 5; 63 2; 65 2; 
67 7; 69 4; 72 6; 76 4; 77 10; 
78 3; 81 4; 89 2; 90 3; 91 3; 
95 3; 97 2; 100 4; 102 3; 103 3; 
105 2; 107 71; 108 5; 111 2; 115 2; 
116 2; 117 3; 118 3; 125 2; 129 7; 
130 6; 131 5; 132 5; 133 1; 135 34; 
136 4; 140 1; 144 3; 145 1; 156 2; 
157 15; 158 5; 159 2; 161 2; 166 2; 
167 3; 168 4; 169 2; 174 19; 177 1; 
178 1; 180 1; 181 2; 182 2; 183 1; 
188 9; 191 1; 192 7; 193 13; 194 12; 
195 5; 196 2; 205 10; 206 8; 207 3; 
208 3; 212 6; 213 5; 216 6; 217 9; 
218 3; 219 3; 220 3; 221 18; 222 77; 
223 23; 224 5; 231 2; 232 1; 233 2; 
234 4; 235 5; 236 9; 237 3; 239 6; 
247 1; 248 2; 249 8; 250 32; 251 37; 
252 10; 253 2; 262 2; 263 6; 264 5; 
265 3; 266 1; 277 4; 278 2; 279 73; 
280 15; 281 1; 284 1; 288 1; 289 3; 
290 3; 291 1; 293 1; 303 3; 304 2; 
305 1; 309 1; 311 43; 312 43; 317 3; 
318 1; 321 8; 322 1; 333 1; 335 3; 
344 2; 345 14; 346 9; 347 7; 349 63; 
350 17; 351 4; 358 1; 361 7; 362 2; 
363 10; 364 5; 373 8; 375 999; 376 285; 
377 43; 378 4; 402 1; 404 3; 405 1; 
418 6; 419 2; 430 4; 432 2; 444 2; 
446 582; 447 457; 448 115; 449 17; 450 2; 
