Name: N-ethyl-1-phenyl-butane-2-amine
InChIKey: KHWYSUBVXWWBRB-UHFFFAOYSA-N
Formula: C12H19N
MW: 177
ExactMass: 177.15175
CASNO: 119486076
ID: 3667
Comment: ENFSI / SKL Sweden
Num Peaks: 75
29 18; 30 22; 32 2; 38 1; 39 18; 
40 3; 41 55; 42 16; 43 10; 44 18; 
45 1; 50 5; 51 15; 52 6; 53 5; 
54 6; 55 6; 56 56; 57 5; 58 120; 
59 6; 62 1; 63 12; 64 4; 65 52; 
66 4; 67 2; 68 3; 70 18; 71 4; 
72 1; 74 6; 75 2; 76 2; 77 22; 
78 8; 79 5; 80 2; 82 1; 84 56; 
85 8; 86 999; 87 66; 88 2; 89 11; 
90 4; 91 135; 92 20; 93 3; 102 2; 
103 15; 104 5; 105 8; 106 2; 115 11; 
116 4; 117 13; 118 11; 119 11; 120 13; 
121 1; 127 1; 128 2; 129 2; 130 3; 
131 2; 132 4; 133 1; 146 2; 147 1; 
148 55; 149 6; 150 1; 160 1; 176 3; 
