Name: THJ-018
Synon: 1-Naphthalenyl(1-pentyl-1H-indazol-3-yl)-methanone
Synon: JWH-018 indazole analog
InChIKey: VAKGBPSFDNTMDJ-UHFFFAOYSA-N
Formula: C23H22N2O
MW: 342
ExactMass: 342.173214
CASNO: 1364933550
ID: 3669
Comment: Provided by www.caymanchem.com/app/template/landing%2CForensic.vm / Item #11962  Lot #0447707 / SWGDRUG Monograph available
Num Peaks: 182
41 64; 42 12; 43 61; 44 2; 50 6; 
51 13; 52 3; 53 4; 55 17; 56 1; 
57 1; 62 4; 63 11; 64 5; 65 3; 
67 2; 69 9; 70 2; 71 3; 73 1; 
74 10; 75 35; 76 39; 77 82; 78 8; 
86 2; 87 8; 88 10; 89 12; 90 27; 
91 4; 92 1; 94 1; 95 2; 98 4; 
99 5; 100 8; 101 51; 102 64; 103 130; 
104 30; 105 2; 107 3; 109 1; 113 3; 
114 5; 115 8; 116 6; 117 17; 118 6; 
119 2; 120 1; 122 3; 127 999; 128 181; 
129 74; 130 35; 131 163; 132 17; 133 1; 
134 1; 135 1; 136 2; 137 1; 138 1; 
139 5; 140 3; 141 4; 142 13; 143 16; 
145 106; 146 10; 147 1; 149 1; 150 2; 
151 2; 152 7; 153 4; 155 470; 156 138; 
157 21; 158 5; 159 6; 160 1; 161 1; 
162 1; 163 6; 164 3; 165 3; 166 1; 
167 1; 168 1; 169 3; 170 14; 171 12; 
172 7; 173 1; 174 1; 175 2; 176 4; 
177 1; 180 3; 181 1; 182 2; 183 1; 
184 1; 185 8; 187 69; 188 17; 189 22; 
190 5; 191 2; 199 11; 200 6; 201 5; 
202 6; 203 2; 204 1; 207 1; 211 7; 
213 96; 214 42; 215 83; 216 21; 217 5; 
218 1; 224 1; 225 2; 226 6; 227 9; 
228 7; 229 5; 230 10; 231 2; 239 1; 
240 5; 241 16; 242 46; 243 85; 244 41; 
245 8; 246 1; 250 1; 252 1; 253 6; 
255 72; 256 51; 257 114; 258 44; 259 9; 
260 1; 266 1; 267 3; 268 5; 269 13; 
271 753; 272 185; 273 47; 274 7; 282 9; 
283 6; 285 142; 286 35; 287 6; 295 1; 
296 5; 297 3; 299 16; 300 4; 311 1; 
313 11; 314 4; 324 1; 325 2; 326 5; 
327 3; 328 1; 341 401; 342 486; 343 110; 
344 13; 345 1; 
