Name: Cocaine
InChIKey: ZPUCINDJVBIVPJ-UHFFFAOYSA-N
Synon: Benzoylmethylecgonine
Synon: 1.alpha.H,5.alpha.H-Tropane-2.beta.-carboxylic acid, 3.beta.-hydroxy-, methyl ester, benzoate (ester)
Formula: C17H21NO4
MW: 303
ExactMass: 303.147058
CASNO: 50362
ID: 3670
Comment: DEA SWL / SWGDRUG Monograph Available
Num Peaks: 121
37 1; 38 4; 39 38; 40 8; 41 70; 
42 247; 43 15; 44 36; 45 9; 50 23; 
51 98; 52 12; 53 38; 54 25; 55 75; 
56 36; 57 45; 58 9; 59 46; 60 1; 
61 1; 62 1; 63 2; 64 1; 65 23; 
66 11; 67 47; 68 54; 69 16; 70 25; 
71 6; 72 2; 73 1; 74 4; 75 4; 
76 15; 77 315; 78 34; 79 31; 80 33; 
81 103; 82 999; 83 389; 84 39; 85 5; 
86 3; 87 1; 91 38; 92 9; 93 37; 
94 400; 95 44; 96 277; 97 120; 98 12; 
99 2; 100 10; 101 2; 103 1; 104 5; 
105 321; 106 33; 107 15; 108 45; 109 10; 
110 18; 111 3; 112 1; 113 1; 114 3; 
115 3; 117 2; 118 6; 119 29; 120 19; 
121 8; 122 91; 123 16; 124 11; 125 3; 
126 4; 128 1; 132 1; 133 2; 134 2; 
135 5; 136 3; 137 1; 138 7; 139 1; 
140 12; 141 1; 142 1; 148 3; 149 1; 
150 20; 151 3; 152 39; 153 9; 154 13; 
155 27; 156 4; 166 29; 167 3; 170 2; 
180 17; 181 42; 182 754; 183 87; 184 8; 
198 79; 199 9; 200 2; 244 2; 259 1; 
272 47; 273 8; 274 1; 303 111; 304 20; 
305 2; 
