Name: 2C-B-BZP
Synon: 1-(4-bromo-2,5-dimethoxybenzyl)piperazine
InChIKey: OHXVYXBOJDDYJS-UHFFFAOYSA-N
Formula: C13H19BrN2O2
MW: 314
ExactMass: 314.06299
CASNO: 0
ID: 3682
Comment: ENFSI / NFI case sample / SWGDRUG Monograph available
Num Peaks: 224
35 1; 36 1; 37 1; 38 7; 39 44; 
40 8; 41 40; 42 178; 43 77; 44 85; 
45 21; 46 1; 47 1; 49 1; 50 32; 
51 75; 52 14; 53 64; 54 44; 55 53; 
56 845; 57 116; 58 166; 59 9; 60 1; 
61 4; 62 14; 63 68; 64 45; 65 44; 
66 13; 67 19; 68 13; 69 9; 70 26; 
71 55; 72 5; 73 3; 74 11; 75 34; 
76 39; 77 260; 78 53; 79 50; 80 11; 
81 9; 82 8; 83 44; 84 25; 85 786; 
86 43; 87 15; 88 6; 89 78; 90 98; 
91 132; 92 78; 93 23; 94 9; 95 3; 
96 2; 97 7; 98 10; 99 80; 100 4; 
101 2; 102 4; 103 11; 104 18; 105 191; 
106 40; 107 38; 108 22; 109 6; 110 1; 
113 1; 115 3; 116 3; 117 13; 118 11; 
119 39; 120 112; 121 50; 122 74; 123 10; 
129 20; 131 10; 132 11; 133 19; 134 15; 
135 45; 136 50; 137 45; 141 2; 142 3; 
143 58; 144 6; 145 57; 146 10; 147 9; 
148 47; 149 122; 150 89; 151 28; 152 3; 
154 1; 155 8; 156 12; 157 18; 158 14; 
159 12; 160 7; 161 6; 162 27; 163 13; 
164 7; 165 1; 167 2; 168 6; 169 32; 
170 13; 171 46; 172 10; 173 20; 174 8; 
175 5; 176 8; 177 13; 178 10; 179 1; 
180 1; 182 1; 183 5; 184 20; 185 9; 
186 47; 187 11; 188 31; 189 5; 190 4; 
191 3; 192 43; 193 5; 194 1; 197 2; 
198 7; 199 136; 200 18; 201 141; 202 14; 
203 7; 204 2; 205 2; 211 1; 212 3; 
213 6; 214 13; 215 20; 216 13; 217 14; 
218 2; 219 1; 224 1; 225 2; 226 26; 
227 52; 228 52; 229 999; 230 123; 231 946; 
232 101; 233 11; 234 1; 235 2; 238 3; 
239 2; 240 11; 241 3; 242 50; 243 11; 
244 58; 245 10; 246 14; 247 1; 252 2; 
254 26; 255 15; 256 42; 257 38; 258 128; 
259 41; 260 107; 261 18; 262 1; 266 7; 
267 2; 268 8; 269 31; 270 34; 271 42; 
272 182; 273 32; 274 136; 275 18; 276 1; 
281 1; 283 50; 284 14; 285 89; 286 15; 
287 36; 288 5; 297 6; 298 2; 299 16; 
300 2; 301 9; 302 1; 313 10; 314 116; 
315 26; 316 110; 317 16; 318 2; 
