Name: AM2233
Synon: 1-[(N-methylpiperidin-2-yl)methyl]-3-(2-iodobenzoyl)indole
Synon: (2-iodophenyl)[1-[(1-methyl-2-piperidinyl)methyl]-1H-indol-3-yl]-methanone
InChIKey: KSLCYQTUSSEGPT-UHFFFAOYSA-N
Formula: C22H23IN2O
MW: 458
ExactMass: 458.08551
CASNO: 444912758
ID: 3696
Comment: ENFSI / FCL Finland; confirmed by LC-MS and NMR / SWGDRUG Monograph available
Num Peaks: 149
32 21; 38 1; 39 6; 40 6; 41 5; 
42 33; 43 5; 44 24; 45 1; 50 3; 
53 3; 54 1; 55 9; 56 4; 57 4; 
64 1; 65 1; 66 1; 67 3; 68 10; 
69 1; 70 93; 71 7; 72 1; 73 3; 
75 8; 76 11; 77 6; 79 1; 80 1; 
81 5; 82 12; 83 2; 84 12; 87 1; 
89 4; 93 1; 94 5; 96 19; 97 18; 
98 999; 99 54; 100 2; 101 4; 102 8; 
103 4; 104 3; 105 8; 110 8; 111 8; 
112 5; 115 6; 119 1; 121 1; 125 1; 
126 1; 127 6; 128 14; 129 8; 130 6; 
133 1; 139 1; 140 1; 142 1; 143 2; 
147 2; 149 1; 150 2; 151 1; 152 7; 
154 1; 155 1; 156 3; 158 1; 162 1; 
163 10; 164 8; 165 7; 166 1; 169 1; 
170 1; 176 24; 177 12; 178 8; 180 1; 
182 1; 184 3; 189 2; 190 8; 191 5; 
192 1; 194 1; 202 4; 203 44; 204 57; 
205 18; 206 1; 207 33; 208 3; 209 9; 
215 1; 216 2; 217 1; 218 1; 219 1; 
220 4; 221 1; 224 1; 226 1; 228 1; 
230 1; 231 64; 232 26; 233 2; 243 1; 
244 1; 257 1; 268 1; 281 4; 283 1; 
284 1; 286 1; 288 1; 303 1; 318 1; 
327 1; 329 1; 330 1; 331 1; 341 1; 
356 1; 360 24; 361 7; 367 1; 369 1; 
373 1; 375 1; 381 1; 389 1; 401 1; 
402 1; 403 1; 428 1; 440 1; 456 1; 
457 1; 458 13; 459 1; 461 1; 
