Name: THJ2201
Synon: Fluoropentyl-JWH-018 indazole
Synon: AM2201 indazole analog
Synon: 5-Fluoro-THJ-018
Synon: (1-(5-fluoropentyl)-1H-indazol-3-yl)(naphthalen-1-yl)methanone
Synon: 5F-THJ-018
InChIKey: DULWRYKFTVFPTL-UHFFFAOYSA-N
Formula: C23H21FN2O
MW: 360
ExactMass: 360.163792
CASNO: 0
ID: 3697
Comment: DEA SWL / unconfirmed from sample / SWGDRUG Monograph available
Num Peaks: 218
38 1; 39 17; 40 2; 41 71; 42 7; 
43 24; 44 1; 45 1; 46 1; 47 23; 
50 6; 51 18; 52 4; 53 7; 54 1; 
55 14; 56 1; 59 9; 60 1; 61 4; 
62 5; 63 14; 64 5; 65 4; 66 1; 
67 7; 68 1; 69 17; 70 1; 73 2; 
74 10; 75 36; 76 37; 77 110; 78 11; 
79 1; 85 1; 86 3; 87 8; 88 11; 
89 17; 90 42; 91 8; 92 2; 93 1; 
94 4; 98 3; 99 5; 100 8; 101 59; 
102 60; 103 114; 104 29; 105 2; 106 3; 
107 3; 108 1; 109 1; 111 1; 113 3; 
114 8; 115 14; 116 9; 117 19; 118 6; 
119 2; 120 1; 121 5; 122 4; 125 10; 
126 137; 127 999; 128 181; 129 63; 130 24; 
131 136; 132 15; 133 1; 134 2; 135 3; 
136 2; 137 1; 138 1; 139 5; 140 3; 
141 12; 142 35; 144 5; 145 87; 146 9; 
147 1; 149 6; 150 2; 151 2; 152 6; 
153 5; 154 7; 155 455; 156 118; 157 17; 
158 3; 159 2; 161 1; 162 1; 163 5; 
164 2; 165 2; 166 1; 167 1; 168 2; 
169 2; 170 2; 171 5; 172 1; 173 3; 
174 1; 175 1; 176 2; 177 7; 178 1; 
180 3; 181 1; 182 3; 183 1; 185 10; 
186 3; 187 9; 188 7; 189 13; 190 5; 
191 1; 199 6; 200 3; 201 3; 202 4; 
203 3; 204 1; 205 3; 206 1; 207 1; 
211 4; 212 4; 213 54; 214 21; 215 37; 
216 11; 217 3; 218 1; 224 1; 225 1; 
226 5; 227 5; 228 5; 229 4; 230 8; 
231 7; 232 1; 233 4; 234 1; 239 1; 
240 3; 241 11; 242 27; 243 38; 244 17; 
245 4; 253 3; 254 4; 255 35; 256 38; 
257 97; 258 33; 259 6; 266 1; 267 2; 
268 5; 269 10; 270 18; 271 529; 272 122; 
273 25; 274 3; 281 1; 282 7; 283 5; 
284 5; 285 86; 286 20; 287 2; 296 2; 
297 3; 298 1; 299 9; 300 2; 311 8; 
312 2; 313 2; 314 1; 326 1; 327 1; 
331 3; 332 1; 339 3; 340 6; 341 2; 
342 1; 343 1; 344 4; 345 1; 346 3; 
347 1; 348 1; 358 2; 359 283; 360 288; 
361 66; 362 8; 363 1; 
