Name: AM694
Synon: (1-5-fluoropentyl)-3-(2-iodobenzoyl)indole
Synon: [1-(5-fluoropentyl)-1H-indol-3-yl](2-iodophenyl)-methanone
InChIKey: LFFIIZFINPPEMC-UHFFFAOYSA-N
Formula: C20H19FINO
MW: 435
ExactMass: 435.04954
CASNO: 335161030
ID: 3701
Comment: Jason Nawyn / standard from Cayman Chemicals (lot # 0425484-3) / SWGDRUG Monograph available
Num Peaks: 173
39 9; 40 1; 41 44; 42 2; 43 16; 
47 10; 50 10; 51 6; 52 1; 53 3; 
55 2; 59 4; 61 3; 62 4; 63 8; 
64 2; 65 2; 67 1; 69 11; 74 5; 
75 15; 76 49; 77 17; 78 3; 82 1; 
86 2; 87 5; 88 20; 89 27; 90 4; 
91 1; 96 2; 98 1; 99 1; 100 1; 
101 14; 102 36; 103 12; 104 14; 105 12; 
106 1; 109 1; 111 1; 113 3; 114 11; 
115 29; 116 50; 117 8; 123 1; 125 1; 
126 2; 127 6; 128 21; 129 24; 130 45; 
131 4; 137 5; 138 3; 139 5; 140 4; 
141 2; 142 1; 143 11; 144 132; 145 13; 
146 1; 149 1; 150 5; 151 13; 152 8; 
153 2; 154 4; 155 1; 156 5; 157 3; 
158 2; 161 1; 162 4; 163 44; 164 64; 
165 57; 166 10; 168 1; 169 1; 170 10; 
171 2; 174 2; 175 4; 176 37; 177 23; 
178 25; 179 5; 180 4; 182 1; 184 16; 
185 2; 187 1; 188 4; 189 7; 190 48; 
191 20; 192 9; 193 4; 194 1; 201 3; 
202 8; 203 82; 204 137; 205 30; 206 7; 
207 1; 212 17; 213 2; 214 1; 215 2; 
216 9; 217 15; 218 13; 219 34; 220 337; 
221 55; 222 5; 228 1; 231 126; 232 700; 
233 132; 234 40; 235 5; 242 1; 243 1; 
244 2; 245 1; 246 10; 247 3; 256 23; 
257 3; 258 3; 259 2; 260 3; 270 2; 
271 1; 272 1; 273 3; 274 1; 280 1; 
286 1; 287 1; 288 5; 289 1; 290 1; 
291 1; 306 1; 307 13; 308 68; 309 18; 
310 2; 318 4; 319 1; 331 15; 332 3; 
360 270; 361 63; 362 7; 402 1; 414 5; 
415 61; 416 13; 417 1; 418 3; 435 999; 
436 214; 437 24; 438 2; 
