Name: ADB-PINACA
Synon: N-(1-amino-3,3-dimethyl-1-oxobutan-2-yl)-1pentyl-1H-indazole-3-carboxamide
InChIKey: FWTARAXQGJRQKN-INIZCTEOSA-N
Formula: C19H28N4O2
MW: 344
ExactMass: 344.221226
CASNO: 0
ID: 3707
Comment: Provided by www.caymanchem.com/app/template/landing%2CForensic.vm / Item #14763  Lot #0451074 / SWGDRUG Monograph available
Num Peaks: 133
41 63; 42 10; 43 39; 44 52; 45 3; 
50 1; 51 3; 52 1; 53 4; 54 2; 
55 14; 57 51; 58 3; 62 2; 63 4; 
64 2; 65 3; 66 1; 67 2; 68 3; 
69 21; 70 14; 71 6; 72 1; 73 4; 
74 1; 75 5; 76 11; 77 17; 78 3; 
82 1; 83 2; 84 6; 85 6; 86 20; 
87 3; 88 20; 89 20; 90 46; 91 6; 
92 2; 100 1; 102 22; 103 64; 104 23; 
105 3; 112 2; 115 2; 116 5; 117 27; 
118 11; 119 4; 127 1; 128 4; 129 23; 
130 22; 131 136; 132 17; 133 1; 142 2; 
143 7; 145 338; 146 35; 147 3; 155 1; 
156 3; 157 6; 158 8; 159 5; 160 1; 
161 3; 168 1; 169 1; 170 3; 171 12; 
172 4; 173 5; 174 8; 175 2; 183 1; 
184 1; 185 8; 186 7; 187 5; 188 5; 
189 1; 198 1; 199 3; 200 7; 201 16; 
202 2; 207 2; 211 1; 213 19; 215 999; 
216 146; 217 12; 226 1; 227 5; 228 4; 
229 1; 230 3; 231 1; 232 5; 233 1; 
241 1; 242 3; 243 2; 244 3; 245 2; 
253 1; 254 3; 256 1; 257 1; 268 1; 
271 115; 272 20; 273 2; 281 2; 284 3; 
287 3; 288 12; 289 1; 298 2; 300 434; 
301 85; 302 10; 312 4; 313 1; 326 1; 
327 1; 329 2; 344 1; 
