Name: Acetyl fentanyl
InChIKey: FYIUUQUPOKIKNI-UHFFFAOYSA-N
Synon: Fentanyl acetyl analog
Synon: N-Phenyl-N-[1-(2-phenylethyl)-4-piperidinyl]acetamide
Synon: Acetanilide, N-(1-phenethyl-4-piperidyl)-
Synon: 1-(2-phenethyl)-4-(N-acetanilido)piperidine
Synon: N-(1-phenethylpiperidin-4-yl)-N-phenylacetamide
Synon: Desmethyl fentanyl
Formula: C21H26N2O
MW: 322
ExactMass: 322.204514
CASNO: 3258842
ID: 3710
Comment: DEA WRL / SWGDRUG Monograph available
Num Peaks: 90
12 9; 14 50; 15 23; 16 12; 20 13; 
21 11; 23 17; 24 6; 27 30; 28 11; 
29 10; 30 24; 36 6; 39 57; 40 9; 
42 217; 43 327; 44 26; 48 4; 49 4; 
50 24; 51 61; 52 14; 54 17; 55 47; 
57 22; 58 3; 61 11; 63 37; 65 141; 
66 4; 67 48; 69 27; 70 47; 71 17; 
77 267; 78 46; 79 121; 84 13; 88 7; 
89 8; 90 9; 91 259; 92 51; 93 37; 
94 25; 95 39; 96 116; 103 73; 104 111; 
105 196; 106 18; 107 8; 112 7; 115 18; 
116 14; 117 48; 118 156; 119 48; 120 9; 
123 6; 127 10; 128 11; 130 88; 131 73; 
132 122; 133 24; 139 13; 142 4; 143 6; 
144 16; 145 18; 146 700; 147 107; 148 26; 
157 11; 158 227; 159 24; 160 44; 169 7; 
179 7; 184 9; 187 7; 188 476; 189 257; 
190 41; 231 999; 232 140; 233 22; 273 7; 
