Name: 5-Fluoro-AB-PINACA
Synon: AB-PINACA 5-Fluoro analogue
Synon: (S)-N-(1-amino-3-methyl-1-oxobutan-2-yl)-1-(5-fluoropentyl)-1H-indazole-carboxamide
Synon: 5F-AB-PINACA
InChIKey: WCBYXIBEPFZUBG-UHFFFAOYSA-N
Formula: C18H25FN4O2
MW: 348
ExactMass: 348.196154
CASNO: 0
ID: 3711
Comment: Provided by www.caymanchem.com/app/template/landing%2CForensic.vm / Item #14755  Lot #0451072 / SWGDRUG Monograph available
Num Peaks: 172
41 89; 42 17; 43 49; 44 85; 45 5; 
46 2; 47 13; 50 2; 51 7; 52 2; 
53 7; 54 6; 55 39; 56 20; 57 8; 
58 1; 59 8; 60 1; 61 4; 62 6; 
63 9; 64 5; 65 4; 66 2; 67 7; 
68 5; 69 62; 70 21; 71 25; 72 42; 
73 11; 74 3; 75 11; 76 20; 77 32; 
78 5; 79 1; 82 2; 83 3; 84 1; 
85 1; 86 2; 87 5; 88 43; 89 37; 
90 81; 91 13; 92 3; 96 2; 97 1; 
98 5; 99 1; 100 2; 101 3; 102 41; 
103 91; 104 31; 105 4; 107 1; 114 4; 
115 8; 116 8; 117 37; 118 13; 119 5; 
121 2; 127 1; 128 7; 129 39; 130 29; 
131 110; 132 14; 133 2; 135 2; 142 5; 
143 11; 145 411; 146 41; 147 5; 149 1; 
152 1; 154 1; 155 3; 156 6; 157 12; 
158 12; 159 5; 160 1; 161 3; 167 1; 
168 2; 169 3; 171 18; 172 5; 173 3; 
174 27; 175 14; 177 61; 178 6; 181 1; 
182 1; 183 1; 184 3; 185 13; 186 5; 
187 2; 188 1; 191 1; 193 1; 197 1; 
198 1; 199 6; 200 4; 201 2; 203 4; 
204 1; 205 1; 207 7; 208 2; 209 1; 
210 1; 211 1; 213 89; 214 17; 215 3; 
216 5; 228 6; 229 3; 231 13; 233 999; 
234 163; 235 14; 242 1; 245 1; 248 5; 
249 9; 250 2; 253 2; 254 1; 255 2; 
256 1; 257 1; 260 1; 262 1; 267 1; 
269 1; 270 1; 272 2; 273 3; 274 1; 
275 1; 281 3; 282 1; 283 1; 284 2; 
286 2; 287 3; 288 3; 289 5; 290 1; 
302 4; 304 649; 305 124; 306 14; 307 1; 
316 1; 325 1; 327 1; 330 4; 331 2; 
333 1; 341 1; 
