Name: AB-FUBINACA
Synon: N-[(1S)-1-(aminocarbonyl)-2-methylpropyl]-1-[(4-fluorophenyl)methyl]-1H-indazole-3-carboxamide
Synon: N-(1-amino-3-methyl-1-oxobutan-2-yl)-1-(4-fluorobenzyl)-1H-indazole-3-carboxamide
InChIKey: AKOOIMKXADOPDA-UHFFFAOYSA-N
Formula: C20H21FN4O2
MW: 368
ExactMass: 368.164854
CASNO: 1185282012
ID: 3713
Comment: Provided by www.caymanchem.com/app/template/landing%2CForensic.vm / Item #14039  Lot #0444271 / SWGDRUG Monograph available
Num Peaks: 138
40 1; 41 17; 42 7; 43 19; 44 47; 
45 3; 50 2; 51 3; 52 2; 53 1; 
54 2; 55 8; 56 7; 57 9; 59 3; 
62 7; 63 11; 64 2; 65 1; 68 2; 
69 2; 70 12; 71 16; 72 26; 73 4; 
74 1; 75 10; 76 9; 77 8; 78 2; 
79 1; 81 2; 83 71; 84 4; 86 1; 
87 6; 88 35; 89 20; 90 21; 91 4; 
94 1; 95 6; 96 5; 97 1; 98 1; 
99 1; 100 1; 101 1; 102 19; 103 9; 
104 5; 105 5; 107 13; 109 999; 110 73; 
111 3; 115 1; 116 2; 117 7; 118 5; 
119 1; 120 1; 121 1; 122 4; 123 1; 
124 1; 127 1; 129 8; 130 1; 131 6; 
132 1; 133 1; 135 1; 143 1; 145 74; 
146 8; 150 1; 151 1; 156 1; 157 1; 
158 1; 161 1; 168 1; 169 3; 170 4; 
171 3; 172 6; 173 4; 174 1; 175 1; 
176 2; 177 2; 185 1; 186 2; 194 2; 
195 3; 196 6; 197 5; 198 3; 199 2; 
200 2; 205 2; 207 8; 208 1; 211 1; 
214 2; 215 6; 216 4; 223 14; 224 8; 
225 17; 226 9; 227 1; 241 2; 250 1; 
251 5; 253 731; 254 120; 255 11; 266 1; 
269 15; 270 3; 281 2; 283 1; 306 1; 
307 2; 308 2; 309 3; 322 1; 324 401; 
325 84; 326 10; 327 1; 350 3; 351 3; 
352 1; 354 1; 368 1; 
