Name: A-834,735
Synon: [1-[(tetrahydro-2H-pyran-4-yl)methyl]-1H-indol-3-yl](2,2,3,3-tetramethylcyclopropyl)-methanone
InChIKey: NQTMRZNYLIGQCF-UHFFFAOYSA-N
Formula: C22H29NO2
MW: 339
ExactMass: 339.21983
CASNO: 895155574
ID: 3716
Comment: Provided by www.caymanchem.com/app/template/landing%2CForensic.vm / Item #11163  Lot #0444427 / SWGDRUG Monograph available
Num Peaks: 209
41 171; 42 10; 43 61; 44 2; 45 3; 
50 1; 51 4; 52 3; 53 22; 55 126; 
56 8; 57 32; 58 3; 59 11; 62 2; 
63 3; 64 1; 65 8; 67 43; 69 166; 
70 11; 71 5; 73 5; 74 1; 75 5; 
76 7; 77 21; 78 6; 79 27; 81 70; 
82 10; 83 57; 84 8; 85 1; 87 2; 
88 6; 89 18; 90 5; 91 6; 93 1; 
95 7; 96 11; 97 35; 99 85; 100 6; 
101 14; 102 30; 103 18; 104 2; 105 1; 
106 2; 107 1; 109 35; 110 4; 111 1; 
112 2; 113 6; 114 9; 115 36; 116 41; 
117 18; 118 9; 119 1; 120 2; 121 1; 
125 17; 126 5; 127 12; 128 39; 129 54; 
130 82; 131 16; 132 9; 133 1; 135 1; 
136 1; 138 1; 139 5; 140 6; 141 6; 
142 11; 143 35; 144 137; 145 15; 146 4; 
147 2; 148 1; 149 1; 151 2; 152 8; 
153 7; 154 31; 155 11; 156 24; 157 12; 
158 14; 159 2; 160 1; 162 2; 163 2; 
164 1; 165 7; 167 55; 168 40; 169 9; 
170 11; 171 3; 172 11; 173 1; 174 2; 
177 2; 178 5; 179 8; 180 48; 181 40; 
182 91; 183 28; 184 22; 185 5; 186 2; 
190 1; 191 3; 192 3; 193 5; 194 28; 
195 15; 196 86; 197 23; 198 22; 199 3; 
203 1; 204 2; 205 1; 207 14; 208 11; 
209 5; 210 34; 211 8; 212 12; 213 16; 
214 9; 215 26; 216 12; 217 2; 218 1; 
219 1; 220 3; 221 1; 222 6; 224 27; 
225 9; 226 7; 227 7; 228 5; 229 1; 
232 1; 234 1; 236 1; 237 1; 238 5; 
239 6; 240 13; 242 999; 243 172; 244 18; 
245 3; 246 1; 248 1; 249 1; 250 1; 
251 1; 252 1; 253 3; 254 20; 255 6; 
257 84; 258 12; 259 1; 264 1; 265 3; 
266 10; 267 2; 268 2; 269 2; 270 1; 
271 3; 280 29; 281 43; 282 12; 283 2; 
296 22; 297 5; 298 10; 299 2; 306 1; 
308 1; 309 3; 310 2; 320 1; 322 11; 
324 185; 325 41; 326 5; 327 1; 331 1; 
337 1; 339 143; 340 34; 342 1; 
