Name: XLR11 N-(3-fluoropentyl) isomer
Synon: (1-(3-fluoropentyl)-1H-indol-3-yl)(2,2,3,3-tetramethylcyclopropyl)methanone
InChIKey: FAFWRNLRDMHCOR-UHFFFAOYSA-N
Formula: C21H28FNO
MW: 329
ExactMass: 329.215492
CASNO: 0
ID: 3730
Comment: Provided by www.caymanchem.com/app/template/landing%2CForensic.vm / Item #11768  Lot #0440655 / SWGDRUG Monograph available
Num Peaks: 186
41 47; 42 3; 43 15; 47 5; 51 2; 
52 1; 53 8; 55 35; 56 3; 57 7; 
59 12; 60 1; 61 7; 62 1; 63 3; 
65 4; 66 2; 67 10; 69 33; 70 2; 
74 1; 75 4; 76 3; 77 11; 78 3; 
79 9; 80 1; 81 19; 82 2; 83 23; 
87 1; 88 4; 89 16; 90 4; 91 4; 
92 1; 95 2; 96 3; 97 8; 98 1; 
100 1; 101 10; 102 24; 103 11; 104 3; 
106 1; 107 1; 109 23; 110 2; 113 16; 
114 7; 115 32; 116 48; 117 13; 118 4; 
119 1; 120 6; 122 4; 125 6; 126 2; 
127 8; 128 30; 129 45; 130 60; 131 12; 
132 2; 139 3; 140 4; 141 6; 142 7; 
143 34; 144 124; 145 13; 146 1; 148 3; 
151 1; 152 6; 153 4; 154 18; 155 7; 
156 10; 157 12; 158 9; 159 1; 165 4; 
166 6; 167 36; 168 28; 169 8; 170 14; 
171 4; 172 5; 173 2; 174 1; 176 7; 
177 1; 178 3; 180 67; 181 26; 182 27; 
183 8; 184 7; 185 3; 186 3; 188 1; 
191 2; 192 2; 194 38; 195 11; 196 39; 
197 11; 198 6; 199 1; 202 2; 203 3; 
204 4; 205 23; 206 15; 207 2; 208 6; 
210 35; 212 84; 213 13; 214 2; 216 1; 
217 1; 218 4; 219 2; 220 1; 221 1; 
222 3; 224 15; 225 4; 226 4; 227 4; 
230 5; 232 999; 233 158; 234 15; 235 1; 
236 2; 237 1; 238 5; 239 4; 240 2; 
242 1; 247 64; 248 10; 250 3; 251 2; 
252 3; 254 11; 256 27; 257 5; 258 3; 
259 1; 260 1; 261 2; 266 3; 267 1; 
268 2; 270 80; 271 48; 272 12; 273 1; 
274 1; 284 1; 286 28; 288 18; 289 3; 
292 1; 294 17; 295 4; 296 1; 297 1; 
299 7; 300 2; 309 12; 310 3; 312 7; 
314 134; 315 28; 316 3; 329 122; 330 27; 
331 4; 
