Name: URB602
Synon: [1,1'-biphenyl]-3-yl-carbamic acid, cyclohexyl ester
InChIKey: HHVUFQYJOSFTEH-UHFFFAOYSA-N
Formula: C19H21NO2
MW: 295
ExactMass: 295.157228
CASNO: 565460153
ID: 3734
Comment: DEA SWL / SWGDRUG Monograph available
Num Peaks: 113
37 10; 38 30; 39 208; 40 36; 41 368; 
42 65; 43 88; 44 197; 45 19; 49 4; 
50 71; 51 136; 52 42; 53 70; 54 203; 
55 716; 56 89; 57 450; 58 34; 59 3; 
61 12; 62 41; 63 100; 64 28; 65 40; 
66 13; 67 251; 68 17; 69 51; 70 48; 
71 51; 72 23; 73 6; 74 33; 75 38; 
76 46; 77 68; 78 18; 79 32; 80 6; 
81 57; 82 209; 83 318; 85 13; 86 14; 
87 27; 88 29; 89 38; 90 13; 91 13; 
96 6; 98 54; 99 21; 100 19; 101 20; 
102 33; 103 6; 104 2; 110 3; 111 6; 
112 5; 113 47; 114 39; 115 148; 116 24; 
117 3; 125 5; 126 24; 127 28; 128 21; 
129 4; 130 2; 137 9; 138 18; 139 231; 
140 180; 141 121; 142 27; 143 6; 150 16; 
151 46; 152 118; 153 67; 154 12; 156 4; 
164 26; 165 13; 166 280; 167 221; 168 96; 
169 545; 170 74; 171 5; 178 5; 180 2; 
182 10; 191 1; 193 7; 194 19; 195 999; 
196 144; 197 13; 207 4; 208 54; 209 11; 
212 8; 213 267; 214 42; 215 5; 222 1; 
295 68; 296 15; 297 1; 
