Name: RH-34
Synon: 3-[2-(2-methoxybenzylamino)ethyl]-1H-quinazoline-2,4-dione
InChIKey: NUAJBITWGGTZCM-UHFFFAOYSA-N
Formula: C18H19N3O3
MW: 325
ExactMass: 325.142641
CASNO: 1028307483
ID: 3744
Comment: ENFSI / Hungarian NFP / SWGDRUG Monograph available
Num Peaks: 68
39 9; 41 6; 42 7; 43 5; 50 5; 
51 13; 52 9; 56 5; 63 14; 64 17; 
65 50; 74 5; 75 7; 76 6; 77 40; 
78 27; 79 9; 83 5; 89 14; 90 53; 
91 333; 92 58; 93 38; 103 6; 104 9; 
105 6; 107 17; 117 9; 118 19; 119 46; 
120 20; 121 999; 122 91; 130 7; 132 105; 
133 16; 134 16; 135 12; 136 431; 137 41; 
145 8; 146 160; 147 21; 148 14; 149 11; 
150 169; 151 18; 162 13; 163 41; 165 7; 
177 1; 179 5; 187 14; 188 6; 189 32; 
191 2; 204 112; 205 21; 207 18; 251 9; 
253 12; 268 6; 269 3; 281 9; 282 5; 
283 3; 315 5; 325 7; 
