Name: RCS-8
Synon: 1-(2-cyclohexylethyl)-3-(2-methoxyphenylacetyl) indole
Synon: SR-18
Synon: BTM-8
Synon: 1-Cyclohexylethyl-3-(2-methoxyphenylacetyl)indole
InChIKey: BSQFBMXCQIKYNI-UHFFFAOYSA-N
Formula: C25H29NO2
MW: 375
ExactMass: 375.21983
CASNO: 1345970424
ID: 3745
Comment: Jason Nawyn / standard from Cayman Chemicals (lot # 0424283-1) / SWGDRUG Monograph available
Num Peaks: 88
39 3; 41 25; 42 1; 43 4; 51 2; 
52 1; 53 3; 54 1; 55 39; 56 1; 
57 2; 63 1; 65 7; 67 5; 69 33; 
70 2; 75 1; 76 1; 77 5; 78 5; 
79 3; 81 2; 83 3; 88 1; 89 7; 
90 1; 91 31; 92 2; 93 2; 101 2; 
102 10; 103 5; 105 1; 114 2; 115 12; 
116 21; 117 3; 121 15; 122 1; 128 8; 
129 23; 130 24; 131 3; 132 1; 135 2; 
142 1; 143 18; 144 110; 145 11; 146 1; 
154 1; 156 1; 157 5; 158 16; 159 2; 
165 1; 167 1; 168 1; 170 6; 171 1; 
176 1; 178 1; 182 1; 191 1; 198 1; 
204 2; 205 1; 206 1; 217 2; 218 2; 
220 2; 226 1; 232 1; 233 1; 234 1; 
250 1; 252 7; 253 4; 254 999; 255 187; 
256 18; 257 1; 278 7; 279 1; 359 1; 
375 44; 376 12; 377 1; 
