Name: RCS-4
Synon: 1-pentyl-3-(4-methoxybenzoyl)indole
Synon: 4-Methoxyphenyl-(1-pentyl-1H-indol-3-yl)methanone
Synon: 1-pentyl-3-[(4-methoxy)-benzoyl]indole
Synon: SR-19
InChIKey: OZCYJKDWRUIFFE-UHFFFAOYSA-N
Formula: C21H23NO2
MW: 321
ExactMass: 321.172878
CASNO: 1345966780
ID: 3746
Comment: Jason Nawyn / standard from Cayman Chemicals (lot # 0424539-1) / SWGDRUG Monograph available
Num Peaks: 167
39 6; 41 22; 42 2; 43 40; 44 1; 
50 2; 51 3; 52 1; 53 2; 55 5; 
62 2; 63 9; 64 11; 65 2; 69 1; 
74 1; 75 6; 76 9; 77 57; 78 6; 
79 3; 82 1; 84 1; 87 1; 88 5; 
89 16; 90 2; 91 1; 92 37; 93 3; 
96 2; 101 7; 102 21; 103 9; 104 3; 
105 1; 106 1; 107 30; 108 5; 109 1; 
111 1; 113 1; 114 5; 115 22; 116 37; 
117 5; 119 57; 121 3; 125 1; 126 2; 
127 3; 128 24; 129 24; 130 31; 131 3; 
132 4; 133 1; 134 1; 135 345; 136 29; 
137 3; 138 1; 139 2; 140 2; 141 1; 
142 1; 143 10; 144 114; 145 11; 147 7; 
150 3; 151 8; 152 16; 153 6; 154 4; 
155 1; 156 6; 157 3; 158 4; 163 5; 
164 5; 165 9; 166 3; 167 4; 168 1; 
170 10; 171 2; 172 1; 176 2; 177 4; 
178 13; 179 13; 180 8; 181 1; 184 4; 
185 1; 186 71; 187 10; 188 1; 189 1; 
190 5; 191 10; 192 16; 193 10; 194 2; 
195 1; 203 2; 204 10; 205 4; 206 5; 
207 13; 208 9; 209 1; 212 1; 213 1; 
214 294; 215 45; 216 4; 217 1; 218 1; 
219 3; 220 12; 221 9; 222 62; 223 11; 
224 1; 232 3; 233 9; 234 6; 235 3; 
236 9; 237 2; 246 2; 247 1; 248 4; 
249 6; 250 13; 251 11; 252 2; 262 3; 
263 3; 264 529; 265 146; 266 20; 267 2; 
276 1; 277 1; 278 14; 279 3; 288 1; 
289 1; 290 24; 291 5; 292 4; 293 1; 
304 19; 305 5; 306 39; 307 9; 308 1; 
318 1; 319 2; 320 88; 321 999; 322 222; 
323 28; 324 2; 
