Name: Psilocybin (breaks down to psilocin on mass spec)
InChIKey: QVDSEJDULKLHCG-UHFFFAOYSA-N
Formula: C12H17N2O4P
MW: 284
ExactMass: 284.092594
CASNO: 520525
ID: 3748
Comment: DEA SWL / SWGDRUG Monograph available
Num Peaks: 85
41 6; 42 35; 43 11; 44 14; 45 3; 
50 5; 51 13; 52 5; 53 2; 54 1; 
55 1; 56 6; 58 999; 59 37; 62 5; 
63 19; 64 6; 65 17; 66 1; 67 1; 
70 1; 73 3; 74 5; 75 9; 76 9; 
77 27; 78 12; 79 5; 87 4; 88 4; 
89 30; 90 19; 91 26; 92 6; 93 1; 
94 1; 100 1; 101 4; 102 17; 103 20; 
104 11; 105 6; 113 4; 114 5; 115 25; 
116 14; 117 45; 118 32; 119 3; 128 11; 
129 7; 130 51; 131 17; 132 5; 133 6; 
135 2; 140 5; 141 3; 142 3; 143 3; 
144 4; 145 8; 146 88; 147 15; 148 1; 
155 1; 156 3; 157 6; 158 14; 159 43; 
160 37; 161 4; 171 1; 185 1; 188 2; 
191 1; 193 1; 201 1; 202 3; 204 446; 
205 65; 206 4; 207 6; 208 1; 209 2; 
