Name: Psilocin
Synon: 4-Hydroxy-N,N-dimethyltryptamine
Synon: Psilocyn
Synon: TIHKAL #18
Synon: 4-Hydroxy-DMT
InChIKey: SPCIYGNTAMCTRO-UHFFFAOYSA-N
Formula: C12H16N2O
MW: 204
ExactMass: 204.126264
CASNO: 520536
ID: 3749
Comment: DEA SWL / SWGDRUG Monograph available
Num Peaks: 79
40 1; 41 4; 42 38; 43 10; 44 18; 
45 3; 46 1; 50 5; 51 12; 52 5; 
53 3; 54 1; 55 1; 56 5; 57 9; 
58 999; 59 37; 62 4; 63 16; 64 5; 
65 14; 66 2; 67 1; 71 1; 73 1; 
74 3; 75 6; 76 7; 77 19; 78 9; 
79 2; 80 1; 86 1; 87 2; 88 2; 
89 22; 90 14; 91 18; 92 4; 93 1; 
94 1; 100 1; 101 4; 102 10; 103 12; 
104 8; 105 3; 113 3; 114 3; 115 15; 
116 9; 117 32; 118 21; 119 2; 128 6; 
129 4; 130 32; 131 10; 132 2; 133 2; 
140 3; 141 1; 142 1; 143 1; 144 2; 
145 5; 146 48; 147 6; 155 1; 156 1; 
157 2; 158 6; 159 23; 160 15; 161 1; 
202 1; 204 123; 205 17; 206 1; 
