Name: Pseudoephedrine
Synon: PSE
Synon: Sudafed
Synon: (S,S)-2-methylamino-1-phenylpropan-1-ol
InChIKey: KWGRBVOPPLSCSI-UHFFFAOYSA-N
Formula: C10H15NO
MW: 165
ExactMass: 165.115364
CASNO: 90824
ID: 3750
Comment: DEA SWL / SWGDRUG Monograph available
Num Peaks: 45
40 2; 41 8; 42 31; 43 23; 44 20; 
50 10; 51 32; 52 10; 53 6; 54 3; 
55 4; 56 44; 58 999; 59 39; 62 2; 
63 6; 64 1; 65 5; 74 2; 75 2; 
77 55; 78 13; 79 23; 80 1; 88 1; 
89 4; 90 2; 91 12; 92 1; 102 1; 
103 3; 104 1; 105 17; 106 4; 107 5; 
115 6; 116 2; 117 12; 118 3; 130 3; 
131 4; 132 5; 133 2; 134 1; 146 2; 
