Name: Pravadoline
Synon: WIN 48,098
Synon: (4-methoxyphenyl)(2-methyl-1-(2-(4-morpholinyl)ethyl)-1H-indol-3-yl)methanone
InChIKey: MEUQWHZOUDZXHH-UHFFFAOYSA-N
Formula: C23H26N2O3
MW: 378
ExactMass: 378.194344
CASNO: 92623831
ID: 3751
Comment: Jason Nawyn / standard from Enzo Life Sciences (lot # BMC-CR110) / SWGDRUG Monograph available
Num Peaks: 133
39 1; 41 3; 42 10; 43 2; 44 4; 
45 1; 51 1; 54 3; 55 7; 56 50; 
57 3; 63 2; 64 4; 65 1; 68 1; 
69 1; 70 20; 71 2; 72 7; 75 1; 
76 3; 77 23; 78 3; 79 1; 82 1; 
84 1; 89 3; 90 1; 91 1; 92 14; 
98 12; 99 3; 100 999; 101 60; 102 7; 
103 1; 104 2; 105 1; 106 1; 107 11; 
108 1; 112 2; 113 2; 114 3; 115 14; 
116 4; 117 3; 118 1; 121 3; 127 1; 
128 6; 129 6; 130 2; 133 1; 135 97; 
136 9; 137 1; 140 1; 141 1; 142 6; 
143 7; 144 2; 150 1; 151 2; 152 2; 
154 2; 156 2; 157 2; 158 1; 163 1; 
165 2; 166 1; 167 1; 170 1; 176 1; 
177 1; 178 2; 179 1; 180 1; 184 1; 
189 1; 190 1; 191 3; 192 4; 193 1; 
203 1; 204 5; 205 3; 206 3; 217 2; 
218 3; 219 2; 220 3; 221 1; 232 1; 
233 2; 234 6; 235 1; 236 2; 246 1; 
247 2; 248 2; 249 1; 250 1; 254 1; 
260 1; 262 2; 263 1; 264 2; 265 2; 
266 1; 276 2; 277 2; 278 11; 279 3; 
290 3; 291 1; 292 1; 305 2; 327 1; 
333 1; 341 1; 347 12; 348 22; 349 5; 
360 12; 361 3; 363 3; 364 1; 376 2; 
377 2; 378 53; 379 13; 
