Name: Pentylone
Synon: bk-MBDP
Synon: bk-Methyl-K
Synon: .beta.-keto-Methylbenzodioxolylpentanamine
Synon: 1-(1,3-Benzodioxol-5-yl)-2-(methylamino)pentan-1-one
InChIKey: DFMLULIEUUXXSA-UHFFFAOYSA-N
Formula: C13H17NO3
MW: 235
ExactMass: 235.120843
CASNO: 698963778
ID: 3756
Comment: ENFSI / NFI case sample / SWGDRUG Monograph available
Num Peaks: 73
37 1; 38 2; 39 17; 40 2; 41 15; 
42 59; 43 16; 44 200; 45 5; 50 4; 
51 8; 52 1; 53 10; 54 4; 55 25; 
56 31; 57 41; 58 27; 59 1; 61 2; 
62 15; 63 48; 64 7; 65 64; 66 4; 
67 1; 68 4; 69 1; 70 17; 71 4; 
72 2; 74 2; 75 1; 76 2; 77 5; 
78 1; 79 2; 82 1; 84 43; 85 6; 
86 999; 87 59; 88 2; 89 2; 90 1; 
91 23; 92 5; 93 2; 96 4; 103 1; 
104 1; 105 1; 117 1; 119 5; 120 4; 
121 51; 122 6; 134 2; 135 5; 145 1; 
146 1; 147 2; 148 1; 149 59; 150 6; 
162 7; 163 1; 164 5; 174 1; 175 1; 
176 1; 177 1; 192 7; 
