Name: Pentedrone
Synon: 2-(methylamino)-1-phenylpentan-1-one
Synon: .alpha.-methylamino-valerophenone
InChIKey: WLIWIUNEJRETFX-UHFFFAOYSA-N
Formula: C12H17NO
MW: 191
ExactMass: 191.131014
CASNO: 879669951
ID: 3757
Comment: ENFSI / IES Krakow, Poland / SWGDRUG Monograph available
Num Peaks: 59
30 15; 32 4; 38 1; 39 10; 40 1; 
41 14; 42 39; 43 16; 44 206; 45 5; 
50 12; 51 46; 52 4; 53 3; 54 4; 
55 25; 56 32; 57 40; 58 59; 59 2; 
62 1; 63 2; 65 3; 68 3; 69 1; 
70 18; 71 5; 74 4; 75 3; 76 6; 
77 113; 78 10; 79 2; 84 12; 86 999; 
87 62; 88 1; 89 2; 90 1; 91 8; 
102 1; 103 3; 105 44; 106 3; 115 2; 
116 1; 117 1; 119 1; 128 1; 130 2; 
131 1; 132 1; 133 6; 134 1; 146 2; 
147 1; 148 22; 149 3; 162 1; 
