Name: PB-22
Synon: 1-Pentyl-8-quinolinyl ester-1H-indole-3-carboxylic acid
Synon: QUPIC
Synon: Quinolin-8-yl 1-pentyl-1H-indole-3-carboxylate
InChIKey: ZAVGICCEAOUWFM-UHFFFAOYSA-N
Formula: C23H22N2O2
MW: 358
ExactMass: 358.168127
CASNO: 1400742177
ID: 3759
Comment: Provided by www.caymanchem.com/app/template/landing%2CForensic.vm / Item #14096  Lot #0445570 / SWGDRUG Monograph available
Num Peaks: 74
41 19; 43 34; 44 1; 50 2; 51 3; 
52 1; 53 1; 55 5; 61 1; 62 7; 
63 21; 64 5; 65 4; 69 2; 71 1; 
73 1; 74 2; 75 7; 76 7; 77 7; 
78 3; 86 1; 87 4; 88 14; 89 88; 
90 20; 91 2; 101 12; 102 27; 103 9; 
104 1; 114 13; 115 40; 116 194; 117 39; 
118 3; 128 21; 129 37; 130 19; 131 2; 
140 1; 141 1; 144 241; 145 37; 146 3; 
151 9; 154 3; 155 2; 156 6; 157 8; 
158 11; 159 1; 167 1; 168 1; 170 9; 
171 2; 172 1; 183 1; 184 5; 185 2; 
186 1; 198 2; 212 17; 214 999; 215 152; 
216 13; 217 1; 229 1; 259 4; 260 1; 
287 2; 301 2; 358 20; 359 4; 
