Name: Naphyrone
Synon: 2-Naphyrone
Synon: .beta.-Naphyrone
Synon: O-2482
Synon: NRG-1
Synon: Naphthylpyrovalerone
Synon: 1-naphthalen-2-yl-2-pyrrolidin-1-ylpentan-1-one
Synon: 1-(naphthalen-2-yl)-2-(pyrrolidin-1-yl)pentan-1-one
InChIKey: DTNUPBSOODGRKW-UHFFFAOYSA-N
Formula: C19H23NO
MW: 281
ExactMass: 281.177965
CASNO: 850352533
ID: 3767
Comment: UK Forensic Science Service Lab, Huntingdon / SWGDRUG Monograph available
Num Peaks: 72
29 3; 30 2; 39 3; 41 9; 42 14; 
43 3; 51 2; 53 2; 54 6; 55 19; 
56 6; 57 1; 63 1; 67 1; 68 5; 
69 14; 70 9; 72 1; 74 1; 75 4; 
76 2; 77 11; 78 1; 80 1; 81 1; 
82 3; 84 22; 85 1; 87 1; 94 2; 
95 1; 96 26; 97 23; 98 10; 99 1; 
100 1; 101 8; 102 1; 110 9; 111 1; 
115 2; 124 14; 126 999; 127 196; 128 21; 
129 2; 139 2; 140 1; 141 7; 142 1; 
151 1; 152 4; 153 3; 154 2; 155 29; 
156 3; 165 4; 166 2; 167 2; 170 1; 
178 1; 179 1; 180 1; 181 2; 183 1; 
195 1; 210 1; 236 2; 238 7; 239 1; 
279 1; 280 2; 
