Name: Methylone
Synon: 3,4-methylenedioxy-N-methylcathinone
Synon: bk-MDMA
Synon: MDMC
Synon: M1
Synon: 1-(1,3-benzodioxol-5-yl)-2-(methylamino)-1-propanone
Synon: 3,4-MDMC
Synon: 3,4-Methylenedioxymethcathinone
InChIKey: VKEQBMCRQDSRET-UHFFFAOYSA-N
Formula: C11H13NO3
MW: 207
ExactMass: 207.089543
CASNO: 186028795
ID: 3770
Comment: DEA SFL1 / SWGDRUG Monograph available
Num Peaks: 57
37 2; 38 3; 39 15; 40 2; 41 8; 
42 33; 43 20; 44 2; 50 5; 51 8; 
52 2; 53 9; 54 3; 55 5; 56 65; 
57 15; 58 999; 59 40; 60 1; 61 3; 
62 16; 63 44; 64 6; 65 44; 66 3; 
74 3; 75 1; 76 1; 77 3; 78 1; 
79 2; 89 2; 90 1; 91 17; 92 3; 
93 1; 96 1; 119 4; 120 3; 121 38; 
122 5; 130 1; 131 1; 132 1; 134 1; 
135 5; 147 1; 148 1; 149 38; 150 4; 
162 2; 176 1; 177 1; 178 1; 188 1; 
189 3; 207 1; 
