Name: Mephedrone
Synon: 4-MMC
Synon: 4-Methylephedrone
Synon: 4-Methylmethcathinone
InChIKey: YELGFTGWJGBAQU-UHFFFAOYSA-N
Formula: C11H15NO
MW: 177
ExactMass: 177.115364
CASNO: 1189805466
ID: 3771
Comment: DEA SWL / SWGDRUG Monograph available
Num Peaks: 54
40 3; 41 14; 42 37; 43 21; 44 2; 
50 6; 51 12; 52 3; 53 2; 54 2; 
55 5; 56 63; 57 16; 58 999; 59 35; 
62 5; 63 17; 64 4; 65 48; 66 3; 
74 1; 75 1; 76 1; 77 5; 78 1; 
86 1; 87 1; 89 15; 90 6; 91 65; 
92 6; 93 1; 103 2; 104 1; 105 4; 
115 3; 116 1; 117 2; 118 1; 119 35; 
120 3; 130 1; 131 1; 132 1; 133 2; 
134 2; 144 1; 146 2; 147 3; 148 1; 
160 1; 161 1; 162 3; 177 1; 
