Name: 3-Methylmethcathinone
Synon: 2-(methylamino)-1-(3-methylphenyl)-1-propanone
Synon: 3-MMC
InChIKey: QDNXSIYWHYGMCD-UHFFFAOYSA-N
Formula: C11H15NO
MW: 177
ExactMass: 177.115364
CASNO: 1246816625
ID: 3772
Comment: Provided by www.caymanchem.com/app/template/landing%2CForensic.vm / Item #9001078  Lot #0431443 / SWGDRUG Monograph available
Num Peaks: 63
40 5; 41 19; 42 47; 43 23; 44 3; 
45 1; 50 10; 51 18; 52 7; 53 3; 
54 4; 55 9; 56 108; 58 999; 59 37; 
61 2; 62 10; 63 34; 64 9; 65 92; 
66 6; 74 3; 75 3; 76 3; 77 9; 
78 3; 79 1; 85 1; 86 2; 87 2; 
89 31; 90 13; 91 108; 92 11; 93 1; 
102 1; 103 2; 104 1; 105 6; 106 1; 
115 6; 116 2; 117 4; 118 2; 119 38; 
120 5; 128 1; 129 1; 130 1; 131 2; 
132 2; 133 1; 134 3; 144 2; 145 1; 
146 3; 147 4; 148 2; 160 1; 161 2; 
162 5; 174 1; 176 1; 
