Name: 3-Methylethcathinone
Synon: 3-MEC
Synon: 2-(ethylamino)-1-(m-tolyl)propan-1-one
InChIKey: GEKLDGQKEZAPFZ-UHFFFAOYSA-N
Formula: C12H17NO
MW: 191
ExactMass: 191.131014
CASNO: 0
ID: 3775
Comment: Provided by www.caymanchem.com/app/template/landing%2CForensic.vm / Item #11222  Lot #0435404 / SWGDRUG Monograph available
Num Peaks: 58
40 4; 41 14; 42 47; 44 264; 45 7; 
50 7; 51 13; 52 4; 53 3; 54 2; 
55 6; 56 33; 57 5; 61 1; 62 6; 
63 23; 65 76; 66 4; 68 1; 70 25; 
72 999; 73 50; 74 3; 75 2; 76 2; 
77 7; 78 2; 79 1; 86 1; 87 1; 
89 22; 90 10; 91 97; 92 9; 93 2; 
102 1; 103 2; 104 1; 105 6; 115 4; 
116 1; 117 4; 119 34; 120 3; 128 1; 
129 1; 130 1; 131 3; 132 1; 133 2; 
146 5; 147 3; 148 5; 158 1; 160 1; 
174 1; 176 2; 190 1; 
