Name: Heliomethylamine
Synon: 3,4-methylenedioxymethamphetamine methyl homolog
Synon: 3-(1,3-benzodioxol-5-yl)-N,2-dimethylpropan-1-amine
Synon: MDMA methylene homolog
InChIKey: OUDAACSONIJLOT-UHFFFAOYSA-N
Formula: C12H17NO2
MW: 207
ExactMass: 207.125929
CASNO: 0
ID: 3777
Comment: Provided by www.caymanchem.com/app/template/landing%2CForensic.vm / Item #10979  Lot #0430048 / SWGDRUG Monograph available
Num Peaks: 95
40 4; 41 22; 42 39; 44 999; 45 34; 
50 17; 51 80; 52 15; 53 16; 54 5; 
55 9; 56 21; 57 18; 58 2; 61 2; 
62 10; 63 31; 64 11; 65 36; 66 6; 
67 4; 68 6; 70 47; 71 65; 72 26; 
73 2; 74 7; 75 8; 76 14; 77 183; 
78 51; 79 40; 80 5; 81 1; 84 3; 
85 5; 86 1; 87 2; 88 1; 89 24; 
90 8; 91 35; 92 7; 93 3; 94 2; 
101 2; 102 11; 103 62; 104 31; 105 75; 
106 24; 107 6; 115 14; 116 5; 117 17; 
118 17; 119 5; 120 3; 121 19; 122 16; 
123 1; 127 1; 128 1; 129 1; 131 115; 
132 18; 133 19; 135 232; 136 59; 137 7; 
144 2; 145 14; 146 18; 147 40; 148 41; 
149 7; 150 1; 159 2; 161 72; 162 49; 
163 15; 164 21; 165 2; 173 1; 174 2; 
176 379; 177 48; 178 4; 190 10; 191 3; 
204 2; 205 6; 207 227; 208 31; 209 3; 
