Name: 1-(2-Methoxyphenyl)piperazine
Synon: 2-MeOPP
Synon: o-MeOPP
Synon: o-Methoxyphenylpiperazine
InChIKey: VNZLQLYBRIOLFZ-UHFFFAOYSA-N
Formula: C11H16N2O
MW: 192
ExactMass: 192.126264
CASNO: 35386244
ID: 3786
Comment: DEA SWL / SWGDRUG Monograph available
Num Peaks: 90
40 5; 41 20; 42 42; 43 12; 44 8; 
45 1; 50 15; 51 46; 52 25; 53 10; 
54 14; 55 8; 56 135; 57 50; 58 8; 
61 1; 62 5; 63 28; 64 27; 65 99; 
66 15; 67 4; 68 5; 69 2; 70 1; 
72 2; 73 1; 74 4; 75 5; 76 11; 
77 85; 78 43; 79 35; 80 12; 81 4; 
83 3; 84 1; 85 1; 88 2; 89 4; 
90 7; 91 53; 92 55; 93 51; 94 9; 
95 2; 96 2; 102 2; 103 4; 104 32; 
105 13; 106 45; 107 29; 108 9; 109 3; 
116 4; 117 9; 118 16; 119 13; 120 191; 
121 69; 122 18; 123 2; 130 5; 131 6; 
132 12; 133 3; 134 183; 135 234; 136 57; 
137 23; 138 1; 145 1; 146 7; 147 4; 
148 13; 150 999; 151 101; 152 7; 159 1; 
160 2; 161 5; 162 6; 163 2; 175 1; 
190 5; 191 4; 192 393; 193 50; 194 3; 
