Name: 5-Methoxy-N,N-diallyltryptamine
Synon: 5-MeO-DALT
Synon: 5-Methoxy-DALT
InChIKey: JLIQJAHVXMNNJK-UHFFFAOYSA-N
Formula: C17H22N2O
MW: 270
ExactMass: 270.173214
CASNO: 928822984
ID: 3790
Comment: Queensland Health Forensic Chemistry / Cayman Chemical / SWGDRUG Monograph available
Num Peaks: 101
39 15; 41 101; 42 30; 43 1; 44 1; 
50 1; 51 3; 52 2; 53 4; 54 2; 
55 10; 56 3; 62 1; 63 5; 64 2; 
65 3; 66 1; 67 2; 68 27; 69 3; 
70 5; 74 1; 75 2; 76 3; 77 11; 
78 3; 79 20; 80 3; 81 27; 82 5; 
84 1; 87 1; 88 1; 89 15; 90 14; 
91 4; 94 1; 95 1; 96 6; 101 2; 
102 7; 103 9; 104 4; 105 1; 108 5; 
110 999; 111 83; 112 3; 114 1; 115 7; 
116 10; 117 52; 118 7; 119 1; 127 1; 
128 5; 129 5; 130 29; 131 13; 132 4; 
141 1; 142 3; 143 9; 144 8; 145 57; 
146 10; 147 3; 154 1; 155 1; 156 2; 
157 1; 158 9; 159 16; 160 101; 161 14; 
162 1; 170 1; 171 1; 172 3; 173 23; 
174 33; 175 6; 184 1; 185 1; 186 2; 
187 2; 188 1; 199 1; 200 1; 214 2; 
227 1; 228 3; 229 14; 230 2; 239 10; 
240 2; 241 3; 242 1; 269 4; 270 31; 
271 6; 
