Name: Methcathinone
Synon: Ephedrone
Synon: .alpha.-Methylaminopropiophenone
Synon: 2-(Methylamino)-propiophenone
Synon: alpha-(Methylamino)propiophenone
Synon: Monomethylpropion
Synon: alpha-N-Methylaminopropiophenone
Synon: N-Methylcathinone
Synon: Methylcathinone
Synon: AL-464
Synon: AL-422
Synon: AL-463
Synon: UR1432
InChIKey: LPLLVINFLBSFRP-UHFFFAOYSA-N
Formula: C10H13NO
MW: 163
ExactMass: 163.099714
CASNO: 5650442
ID: 3795
Comment: DEA SWL / SWGDRUG Monograph available
Num Peaks: 44
40 2; 41 9; 42 42; 43 26; 44 2; 
49 1; 50 24; 51 72; 52 7; 53 2; 
54 3; 55 5; 56 63; 57 18; 58 999; 
59 33; 62 1; 63 3; 65 1; 73 1; 
74 6; 75 4; 76 6; 77 92; 78 9; 
79 2; 89 2; 91 4; 102 1; 103 2; 
104 1; 105 31; 106 3; 115 2; 117 1; 
118 1; 120 2; 130 1; 132 3; 133 4; 
134 1; 146 1; 147 2; 148 5; 
