Name: Methaqualone
Synon: Quaalude
Synon: 2-methyl-3-(2-methylphenyl)-4-(3H)-quinazolinone
InChIKey: JEYCTXHKTXCGPB-UHFFFAOYSA-N
Formula: C16H14N2O
MW: 250
ExactMass: 250.110613
CASNO: 72446
ID: 3796
Comment: DEA SWL / SWGDRUG Monograph available
Num Peaks: 118
40 6; 41 12; 42 8; 43 2; 50 68; 
51 49; 52 20; 53 6; 54 1; 59 4; 
61 3; 62 14; 63 55; 64 35; 65 152; 
66 11; 73 2; 74 19; 75 38; 76 145; 
77 114; 78 33; 79 10; 83 1; 86 1; 
87 3; 88 9; 89 83; 90 90; 91 309; 
92 31; 93 1; 96 3; 97 2; 99 1; 
100 1; 102 43; 104 40; 106 2; 107 6; 
108 1; 110 4; 113 1; 114 2; 115 7; 
116 49; 117 54; 118 10; 119 6; 120 12; 
121 1; 124 3; 125 8; 126 3; 127 5; 
128 7; 129 4; 130 18; 132 96; 133 10; 
134 1; 139 5; 140 5; 141 1; 143 76; 
144 20; 145 13; 146 7; 150 1; 151 9; 
152 21; 153 8; 154 6; 155 1; 157 2; 
159 1; 163 1; 164 5; 165 14; 166 8; 
167 3; 168 1; 177 4; 178 10; 179 11; 
180 33; 181 6; 182 1; 190 10; 191 4; 
192 6; 193 5; 194 2; 195 2; 204 3; 
205 17; 206 26; 207 22; 208 20; 209 3; 
216 3; 217 33; 218 10; 219 6; 220 3; 
221 13; 222 2; 231 3; 233 299; 235 999; 
236 170; 237 14; 238 1; 247 1; 249 61; 
250 259; 251 49; 252 4; 
