Name: 3,4-Methylenedioxypyrovalerone
Synon: MDPV
Synon: Methylenedioxypyrovalerone
Synon: (RS)-1-(benzo[d][1,3]dioxol-5-yl)-2-(pyrrolidin-1-yl)pentan-1-one
Synon: 3,4-MDPV
Synon: 1-(1,3-benzodioxol-5-yl)-2-(1-pyrrolidinyl)-1-pentanone
InChIKey: SYHGEUNFJIGTRX-UHFFFAOYSA-N
Formula: C16H21NO3
MW: 275
ExactMass: 275.152143
CASNO: 687603663
ID: 3798
Comment: ENFSI / Seizure, Copenhagen 2008 / SWGDRUG Monograph available
Num Peaks: 74
40 1; 41 14; 42 20; 43 5; 44 1; 
50 1; 51 2; 53 5; 54 9; 55 28; 
56 8; 57 2; 62 3; 63 15; 64 2; 
65 26; 66 2; 67 2; 68 6; 69 17; 
70 14; 71 1; 72 1; 74 1; 77 3; 
78 1; 79 1; 80 2; 81 1; 82 3; 
83 1; 84 22; 85 1; 89 1; 91 9; 
92 1; 93 1; 94 3; 95 2; 96 25; 
97 25; 98 10; 102 1; 103 1; 105 1; 
108 1; 110 10; 111 1; 116 2; 117 1; 
119 3; 120 2; 121 24; 122 5; 124 20; 
126 999; 127 94; 128 4; 131 1; 135 4; 
145 1; 146 1; 147 2; 149 41; 150 4; 
164 2; 174 1; 175 1; 177 2; 204 4; 
230 1; 232 4; 273 2; 274 1; 
