Name: 2,3-MDPV
Synon: 2,3-methylenedioxypyrovalerone
Synon: 1-(benzo[d][1,3]dioxol-4-yl)-2-(piperidin-1-yl)pentan-1-one
InChIKey: LBRDQHPPVAYKTK-UHFFFAOYSA-N
Formula: C16H21NO3
MW: 275
ExactMass: 275.152143
CASNO: 0
ID: 3799
Comment: DEA SFL1 / Cayman lot 0435485-5 / SWGDRUG Monograph available
Num Peaks: 84
29 9; 30 7; 38 1; 39 15; 40 1; 
41 22; 42 30; 43 8; 44 2; 50 1; 
51 4; 52 1; 53 7; 54 13; 55 35; 
56 11; 57 2; 62 4; 63 18; 64 4; 
65 53; 66 4; 67 2; 68 8; 69 20; 
70 15; 71 1; 72 1; 74 1; 75 1; 
76 1; 77 5; 78 1; 79 2; 80 3; 
81 2; 82 4; 83 1; 84 25; 85 1; 
89 2; 90 1; 91 14; 92 4; 93 2; 
94 4; 95 2; 96 31; 97 25; 98 9; 
102 1; 103 1; 104 1; 105 2; 107 1; 
108 1; 110 11; 111 1; 115 1; 116 1; 
117 3; 118 1; 119 5; 120 2; 121 9; 
122 3; 124 20; 125 4; 126 999; 127 96; 
128 4; 131 1; 132 1; 135 4; 145 1; 
146 1; 147 2; 148 1; 149 40; 150 4; 
164 1; 177 1; 204 3; 232 2; 
