Name: MAM2201
Synon: AM2201 4-methylnaphthyl analog
Synon: JWH-122 N-(5-fluoropentyl) analog
Synon: [1-(5-fluoropentyl)-1H-indol-3-yl](4-methyl-1-naphthalenyl)-methanone
InChIKey: IGBHZHCGWLHBAE-UHFFFAOYSA-N
Formula: C25H24FNO
MW: 373
ExactMass: 373.184193
CASNO: 1354631245
ID: 3803
Comment: Provided by www.caymanchem.com/app/template/landing%2CForensic.vm / Item #9001219  Lot #0436216 / SWGDRUG Monograph available
Num Peaks: 190
40 10; 41 150; 42 8; 43 77; 47 39; 
50 5; 51 12; 53 9; 55 6; 59 13; 
61 16; 62 5; 63 17; 64 5; 65 7; 
67 6; 69 24; 73 2; 74 4; 75 16; 
76 13; 77 20; 78 7; 87 7; 88 10; 
89 59; 90 7; 91 10; 94 5; 101 36; 
102 49; 103 20; 106 8; 107 6; 108 3; 
113 21; 114 31; 115 314; 116 138; 117 25; 
118 5; 119 9; 120 14; 121 22; 122 9; 
125 5; 126 25; 127 89; 128 79; 129 51; 
130 42; 131 8; 132 11; 133 10; 134 27; 
135 62; 136 7; 137 5; 138 6; 139 100; 
140 48; 141 310; 144 366; 145 41; 147 10; 
149 119; 151 9; 152 15; 153 16; 154 10; 
155 20; 156 22; 157 7; 163 8; 164 5; 
165 7; 167 8; 169 247; 170 44; 171 6; 
173 5; 175 6; 176 9; 177 5; 178 7; 
181 221; 182 36; 183 7; 184 6; 185 3; 
187 15; 188 4; 189 7; 191 2; 192 4; 
193 1; 195 7; 200 6; 201 5; 202 15; 
203 4; 204 13; 207 3; 209 5; 212 13; 
213 23; 214 20; 215 12; 216 3; 217 3; 
221 4; 224 13; 225 9; 226 50; 227 31; 
228 32; 229 17; 230 9; 232 555; 233 77; 
234 6; 237 4; 238 9; 239 21; 240 51; 
241 126; 242 37; 243 8; 251 12; 252 17; 
253 44; 254 174; 255 99; 256 42; 257 13; 
258 4; 264 6; 265 14; 266 16; 267 44; 
268 110; 269 104; 270 112; 271 23; 272 5; 
278 5; 279 4; 280 26; 281 43; 282 56; 
283 83; 284 257; 285 59; 286 18; 292 5; 
294 14; 295 8; 296 30; 298 585; 299 161; 
300 17; 308 4; 310 10; 312 18; 324 7; 
326 6; 328 3; 329 4; 331 4; 336 7; 
340 27; 341 9; 342 5; 343 7; 344 19; 
345 23; 346 8; 352 7; 353 13; 354 39; 
356 582; 357 146; 358 207; 359 51; 360 7; 
372 465; 373 999; 374 250; 375 39; 376 3; 
