Name: Ketamine
Synon: Ketanest
Synon: Ketaset
Synon: Ketalar
Synon: (RS)-2-(2-Chlorophenyl)-2-(methylamino)cyclohexanone
InChIKey: YQEZLKZALYSWHR-UHFFFAOYSA-N
Formula: C13H16ClNO
MW: 237
ExactMass: 237.092042
CASNO: 6740881
ID: 3806
Comment: DEA SWL / SWGDRUG Monograph available
Num Peaks: 152
36 2; 37 2; 38 7; 39 60; 40 10; 
41 68; 42 92; 43 8; 44 42; 45 1; 
49 2; 50 31; 51 65; 52 16; 53 15; 
54 23; 55 29; 56 33; 57 10; 58 12; 
59 15; 60 3; 61 3; 62 10; 63 33; 
64 10; 65 30; 66 13; 67 10; 68 24; 
69 6; 70 28; 71 4; 72 18; 73 24; 
74 15; 75 76; 76 32; 77 76; 78 16; 
79 10; 80 5; 81 1; 82 3; 83 2; 
84 4; 85 7; 86 6; 87 10; 88 8; 
89 45; 90 16; 91 41; 92 2; 94 1; 
95 1; 96 7; 98 24; 99 12; 100 6; 
101 60; 102 177; 103 60; 104 22; 105 7; 
106 2; 107 3; 108 2; 109 1; 110 1; 
111 33; 112 6; 113 18; 114 13; 115 154; 
116 92; 117 58; 118 22; 119 3; 123 7; 
124 1; 125 66; 126 14; 127 39; 128 32; 
129 20; 130 41; 131 33; 132 46; 133 6; 
136 8; 137 40; 138 177; 139 34; 140 55; 
141 15; 142 9; 143 17; 144 69; 145 77; 
146 109; 147 13; 149 10; 150 3; 151 71; 
152 167; 153 42; 154 75; 155 10; 156 7; 
157 4; 158 6; 159 2; 160 5; 161 1; 
162 2; 163 1; 164 6; 165 4; 166 91; 
167 53; 168 40; 169 17; 170 2; 171 3; 
172 5; 173 6; 174 42; 175 7; 177 1; 
178 6; 179 6; 180 999; 181 113; 182 302; 
183 39; 184 6; 192 4; 193 3; 194 21; 
195 5; 196 9; 206 3; 207 2; 208 31; 
209 161; 210 31; 211 53; 212 8; 220 1; 
221 1; 237 4; 
