Name: JWH-307
Synon: 5-(2-fluorophenic)-1-1-pentylpyrro(-3-yl)-naphthalene-1-yl-methanone
InChIKey: WYNZPDDTQGVCLZ-UHFFFAOYSA-N
Formula: C26H24FNO
MW: 385
ExactMass: 385.184193
CASNO: 914458267
ID: 3807
Comment: Provided by www.caymanchem.com/app/template/landing%2CForensic.vm / Item #10797  Lot #0431747 / SWGDRUG Monograph available
Num Peaks: 84
41 105; 43 188; 44 24; 55 27; 73 23; 
77 42; 101 29; 122 79; 123 20; 125 32; 
126 79; 127 499; 128 73; 132 28; 133 174; 
134 31; 135 24; 139 24; 140 39; 141 28; 
145 33; 146 26; 150 27; 155 671; 156 112; 
158 30; 159 39; 160 47; 161 20; 163 36; 
164 47; 165 94; 167 20; 172 36; 173 23; 
174 66; 187 36; 188 298; 189 53; 190 20; 
192 26; 193 29; 194 22; 200 33; 207 15; 
208 22; 220 39; 230 48; 239 40; 257 63; 
258 303; 259 64; 264 22; 270 30; 281 24; 
282 26; 283 33; 285 31; 286 41; 290 70; 
291 21; 293 20; 294 25; 298 46; 299 92; 
300 148; 301 46; 308 34; 309 23; 310 68; 
311 35; 312 29; 314 379; 315 112; 328 291; 
329 122; 330 26; 342 28; 368 72; 369 26; 
384 515; 385 999; 386 302; 387 50; 
