Name: JWH-250
Synon: 1-pentyl-3-(2-methoxyphenylacetyl)indole
Synon: 2-(2-methoxyphenyl)-1-(1-pentylindol-3-yl)ethanone
InChIKey: FFLSJIQJQKDDCM-UHFFFAOYSA-N
Formula: C22H25NO2
MW: 335
ExactMass: 335.18853
CASNO: 864445432
ID: 3808
Comment: ENFSI / SKL / SWGDRUG Monograph available
Num Peaks: 100
29 10; 39 6; 41 21; 42 1; 43 43; 
44 1; 50 1; 51 5; 52 3; 53 2; 
55 6; 62 1; 63 5; 64 1; 65 15; 
66 1; 69 1; 71 1; 75 3; 76 4; 
77 10; 78 12; 79 1; 87 1; 88 4; 
89 23; 90 4; 91 64; 92 5; 93 3; 
101 6; 102 20; 103 8; 104 1; 105 1; 
109 1; 114 5; 115 22; 116 56; 117 7; 
118 1; 119 1; 120 1; 121 22; 122 1; 
127 1; 128 14; 129 30; 130 21; 131 3; 
135 1; 139 1; 140 1; 141 1; 142 2; 
143 21; 144 198; 145 20; 146 1; 151 1; 
152 1; 154 2; 155 1; 156 3; 157 6; 
158 5; 165 2; 167 1; 168 1; 170 6; 
171 1; 176 1; 177 1; 178 1; 184 2; 
185 1; 186 1; 189 1; 190 1; 191 1; 
192 1; 200 2; 203 1; 204 3; 205 1; 
206 1; 207 1; 212 5; 214 999; 215 150; 
216 13; 217 2; 218 1; 220 2; 232 1; 
234 1; 246 1; 278 3; 335 27; 336 6; 
