Name: JWH-203
Synon: 1-pentyl-3-(2-chlorophenylacetyl)indole
InChIKey: YDINKDBAZJOSLV-UHFFFAOYSA-N
Formula: C21H22ClNO
MW: 339
ExactMass: 339.138992
CASNO: 864445545
ID: 3810
Comment: Jason Nawyn / standard from Cayman Chemicals (lot # 0426136-5) / SWGDRUG Monograph available
Num Peaks: 89
39 4; 41 13; 42 1; 43 25; 51 2; 
55 3; 62 2; 63 6; 64 1; 65 1; 
69 1; 75 3; 76 3; 77 4; 78 1; 
87 1; 88 4; 89 26; 90 5; 91 1; 
99 3; 101 6; 102 15; 103 6; 109 1; 
114 5; 115 17; 116 44; 117 5; 125 24; 
126 2; 127 9; 128 12; 129 25; 130 15; 
131 1; 139 1; 140 1; 141 1; 142 1; 
143 17; 144 159; 145 15; 146 1; 151 1; 
152 1; 154 2; 155 1; 156 3; 157 6; 
158 4; 170 6; 171 1; 176 3; 177 1; 
178 2; 179 1; 184 2; 185 1; 186 1; 
189 2; 202 1; 203 2; 204 7; 205 3; 
206 2; 212 5; 213 5; 214 999; 215 155; 
216 15; 217 5; 218 5; 219 1; 230 1; 
232 2; 233 1; 246 2; 276 1; 282 5; 
283 1; 284 2; 303 1; 304 6; 305 1; 
339 41; 340 9; 341 14; 342 3; 
