Name: JWH-081
Synon: 1-pentyl-3-(4-methoxy-1-naphthoyl)indole
InChIKey: UBMPKJKGUQDHRM-UHFFFAOYSA-N
Formula: C25H25NO2
MW: 371
ExactMass: 371.18853
CASNO: 210179467
ID: 3813
Comment: Jason Nawyn / Courtesy of Virginia Commonwealth University (Dr. Wiley) / SWGDRUG Monograph available
Num Peaks: 203
39 10; 40 1; 41 48; 42 2; 43 110; 
44 1; 45 1; 51 3; 53 1; 55 14; 
62 1; 63 6; 73 3; 74 5; 75 7; 
76 4; 77 12; 78 4; 87 2; 88 16; 
89 29; 90 2; 91 4; 94 3; 95 2; 
96 4; 100 2; 101 18; 102 31; 103 15; 
106 4; 107 6; 108 6; 109 2; 113 24; 
114 127; 115 50; 116 68; 117 12; 119 3; 
120 1; 121 32; 122 4; 125 4; 126 23; 
127 74; 128 67; 129 44; 130 27; 131 5; 
132 5; 133 15; 134 1; 135 14; 136 9; 
137 1; 139 3; 140 1; 141 5; 142 55; 
143 20; 144 238; 145 24; 147 6; 148 1; 
149 5; 150 10; 151 2; 152 1; 154 9; 
155 7; 156 4; 157 103; 158 21; 159 3; 
163 7; 164 5; 165 3; 169 7; 170 19; 
171 22; 172 4; 174 1; 175 2; 176 2; 
177 3; 178 2; 179 1; 182 2; 183 9; 
184 15; 185 268; 186 67; 187 12; 188 2; 
189 4; 191 1; 192 1; 193 1; 195 4; 
197 169; 198 29; 199 4; 200 20; 201 23; 
202 37; 203 10; 204 1; 207 9; 209 2; 
210 2; 211 8; 212 7; 213 19; 214 374; 
215 74; 216 9; 217 4; 225 1; 226 9; 
227 22; 228 66; 229 27; 230 28; 231 6; 
238 2; 239 4; 240 29; 241 81; 242 18; 
243 15; 244 4; 249 2; 251 3; 252 2; 
253 13; 254 40; 255 23; 256 36; 257 46; 
258 18; 259 2; 265 3; 266 1; 267 3; 
268 4; 269 31; 270 58; 271 31; 272 25; 
273 4; 281 8; 282 25; 283 20; 284 45; 
285 87; 286 53; 287 9; 288 2; 296 4; 
297 14; 298 43; 299 35; 300 135; 301 34; 
302 7; 310 4; 311 6; 312 11; 313 6; 
314 417; 315 106; 316 14; 322 6; 323 1; 
324 1; 325 2; 326 2; 327 5; 328 56; 
329 16; 331 3; 338 1; 339 8; 340 50; 
341 14; 342 14; 343 13; 344 2; 346 1; 
352 19; 353 6; 354 427; 355 131; 356 175; 
357 47; 358 6; 369 4; 370 416; 371 999; 
372 264; 373 39; 374 3; 
