Name: JWH-073
Synon: (1-butyl-1H-indol-3-yl)-1-naphthalenyl-methanone
Synon: 1-Butyl-3-(1-naphthoyl)indole
InChIKey: VCHHHSMPMLNVGS-UHFFFAOYSA-N
Formula: C23H21NO
MW: 327
ExactMass: 327.162313
CASNO: 208987488
ID: 3814
Comment: Jason Nawyn / Using Auto Tune / standard from Cayman Chemicals (lot # 0409793-1) / SWGDRUG Monograph available
Num Peaks: 170
39 12; 41 49; 42 1; 50 3; 51 10; 
52 2; 53 1; 55 6; 57 18; 62 3; 
63 10; 64 1; 65 2; 74 6; 75 19; 
76 13; 77 41; 78 5; 86 1; 87 6; 
88 10; 89 39; 90 5; 91 2; 95 1; 
98 1; 99 2; 100 5; 101 39; 102 34; 
103 12; 104 2; 106 1; 107 4; 112 1; 
113 16; 114 17; 115 41; 116 88; 117 17; 
118 2; 119 3; 121 15; 125 5; 126 63; 
127 348; 128 94; 129 38; 130 33; 131 4; 
132 1; 133 1; 134 1; 135 2; 139 12; 
140 4; 142 32; 143 13; 144 247; 145 25; 
146 1; 149 1; 150 4; 151 4; 152 3; 
153 2; 154 8; 155 143; 156 22; 157 5; 
158 6; 159 2; 160 1; 161 1; 162 1; 
163 2; 164 9; 165 2; 167 106; 168 16; 
169 1; 170 10; 171 1; 172 14; 173 2; 
174 1; 175 1; 176 3; 181 1; 184 1; 
186 1; 187 10; 188 5; 189 10; 190 2; 
198 5; 199 3; 200 543; 201 84; 202 12; 
203 1; 210 1; 211 6; 212 5; 213 46; 
214 26; 215 38; 216 7; 217 1; 223 1; 
224 6; 225 7; 226 24; 227 12; 228 12; 
229 6; 230 1; 237 1; 238 9; 239 16; 
240 50; 241 118; 242 57; 243 15; 244 2; 
250 1; 251 7; 252 9; 253 5; 254 107; 
255 54; 256 69; 257 17; 258 1; 264 1; 
265 2; 266 24; 267 29; 268 30; 269 49; 
270 212; 271 48; 272 7; 278 1; 280 12; 
282 5; 283 11; 284 522; 285 124; 286 15; 
287 1; 294 1; 296 3; 297 2; 298 18; 
299 12; 300 2; 308 25; 309 9; 310 429; 
311 111; 312 16; 313 2; 324 2; 325 4; 
326 430; 327 999; 328 239; 329 32; 330 2; 
