Name: JWH-073
Synon: (1-butyl-1H-indol-3-yl)-1-naphthalenyl-methanone
Synon: 1-Butyl-3-(1-naphthoyl)indole
InChIKey: VCHHHSMPMLNVGS-UHFFFAOYSA-N
Formula: C23H21NO
MW: 327
ExactMass: 327.162313
CASNO: 208987488
ID: 3815
Comment: DEA SWL / Using Standard Tune / SWGDRUG Monograph available
Num Peaks: 196
38 2; 39 55; 40 3; 41 234; 42 10; 
43 5; 50 13; 51 39; 52 10; 53 10; 
54 1; 55 26; 56 3; 57 73; 58 3; 
62 11; 63 30; 64 5; 65 6; 72 1; 
74 12; 75 43; 76 30; 77 99; 78 14; 
79 1; 86 3; 87 13; 88 27; 89 108; 
90 14; 91 4; 93 1; 94 10; 96 2; 
98 3; 99 6; 100 15; 101 102; 102 86; 
103 27; 104 6; 105 1; 106 17; 107 7; 
108 3; 110 1; 111 1; 112 9; 113 47; 
114 46; 115 110; 116 275; 117 52; 118 6; 
119 4; 120 43; 122 1; 125 14; 126 174; 
127 999; 128 268; 129 109; 130 103; 131 14; 
132 9; 133 7; 134 3; 135 9; 137 2; 
138 2; 139 35; 140 11; 141 80; 143 43; 
144 728; 145 72; 146 6; 147 2; 148 2; 
149 2; 150 9; 151 9; 152 11; 153 6; 
154 18; 155 377; 156 59; 157 12; 158 15; 
159 7; 160 5; 161 3; 162 3; 163 25; 
165 5; 166 2; 167 285; 168 42; 169 4; 
170 24; 171 5; 172 37; 173 6; 174 4; 
175 3; 176 7; 177 3; 178 1; 179 1; 
180 1; 181 3; 182 1; 184 3; 185 1; 
186 4; 187 18; 188 10; 189 18; 190 4; 
191 1; 198 9; 199 5; 200 920; 201 137; 
202 19; 203 2; 208 2; 211 7; 212 6; 
213 53; 214 31; 215 46; 216 9; 217 2; 
224 7; 225 7; 226 27; 227 15; 228 17; 
229 7; 230 2; 237 1; 238 10; 239 17; 
240 54; 241 131; 242 60; 243 16; 244 3; 
250 1; 251 9; 252 9; 253 22; 254 125; 
255 62; 256 76; 257 19; 258 2; 264 2; 
265 5; 266 26; 267 38; 268 31; 269 58; 
270 233; 271 52; 272 9; 278 2; 280 13; 
281 6; 282 20; 283 21; 284 525; 285 125; 
286 15; 287 1; 294 1; 296 4; 297 2; 
298 15; 299 11; 300 2; 308 23; 309 8; 
310 406; 311 109; 312 15; 313 1; 324 1; 
325 5; 326 369; 327 891; 328 211; 329 27; 
330 2; 
