Name: JWH-019
Synon: 1-hexyl-1H-indol-3-yl)(naphthalen-1-yl)methanone
InChIKey: PALJPGHWDUHUPO-UHFFFAOYSA-N
Formula: C25H25NO
MW: 355
ExactMass: 355.193615
CASNO: 209414084
ID: 3816
Comment: Jason Nawyn / SWGDRUG Monograph available
Num Peaks: 122
41 29; 43 64; 51 1; 55 5; 57 4; 
63 1; 73 4; 75 5; 76 4; 77 22; 
78 3; 88 2; 89 18; 101 21; 102 22; 
103 9; 113 6; 114 11; 115 27; 116 83; 
117 9; 121 8; 126 34; 127 315; 128 92; 
129 43; 130 39; 131 6; 132 2; 133 2; 
135 1; 139 8; 141 10; 142 26; 143 14; 
144 249; 145 22; 152 2; 154 8; 155 247; 
156 37; 157 4; 158 7; 163 1; 167 131; 
168 13; 170 10; 178 5; 184 1; 187 4; 
188 1; 189 5; 191 3; 193 2; 198 1; 
200 35; 201 7; 202 1; 207 5; 212 1; 
213 25; 214 22; 215 28; 216 3; 225 2; 
226 20; 227 12; 228 510; 229 105; 230 8; 
238 4; 239 9; 240 30; 241 100; 242 53; 
243 13; 244 2; 251 4; 252 6; 253 13; 
254 135; 255 65; 256 94; 257 21; 265 4; 
266 33; 267 46; 268 43; 269 56; 270 241; 
271 61; 272 13; 280 11; 281 9; 282 20; 
283 19; 284 783; 285 221; 286 26; 287 2; 
294 3; 296 3; 298 12; 299 4; 310 1; 
312 14; 326 23; 327 17; 328 1; 336 22; 
337 10; 338 468; 339 156; 340 20; 341 10; 
342 3; 353 4; 354 431; 355 999; 356 307; 
357 44; 358 4; 
