Name: JWH-018 benzimidazole analog
Synon: Naphthalen-1-yl(1-pentyl-1H-benzo[d]imidazol-2-yl)methanone
Synon: BIM-018
InChIKey: ZJWSSWFQIOEVCU-UHFFFAOYSA-N
Formula: C23H22N2O
MW: 342
ExactMass: 342.173214
CASNO: 0
ID: 3818
Comment: Provided by www.caymanchem.com/app/template/landing%2CForensic.vm / Item #15074  Lot #0452477 / SWGDRUG Monograph available
Num Peaks: 201
41 57; 42 10; 43 73; 44 2; 50 4; 
51 12; 52 3; 53 4; 54 1; 55 15; 
56 1; 62 3; 63 10; 64 7; 65 6; 
66 1; 67 2; 68 1; 69 5; 70 1; 
71 2; 73 3; 74 7; 75 24; 76 34; 
77 78; 78 9; 79 1; 86 1; 87 3; 
88 2; 89 8; 90 19; 91 9; 92 5; 
93 1; 96 1; 98 2; 99 4; 100 5; 
101 39; 102 36; 103 45; 104 11; 105 1; 
108 1; 113 4; 114 4; 115 17; 116 8; 
117 10; 118 13; 119 8; 120 1; 122 6; 
124 1; 126 126; 127 820; 128 121; 129 27; 
130 16; 131 20; 132 7; 133 2; 134 2; 
135 4; 136 4; 137 1; 138 2; 139 9; 
140 12; 141 30; 142 11; 143 11; 144 6; 
145 17; 146 2; 147 3; 148 1; 149 2; 
150 2; 151 3; 152 13; 153 20; 155 254; 
156 36; 157 16; 158 10; 159 7; 160 1; 
163 2; 164 3; 165 6; 166 3; 167 8; 
168 3; 169 4; 171 22; 172 3; 173 1; 
175 1; 176 1; 177 2; 178 1; 179 1; 
180 3; 181 2; 182 1; 185 5; 186 6; 
187 40; 188 10; 189 9; 190 7; 191 3; 
192 1; 193 1; 195 3; 196 2; 197 2; 
199 1; 200 2; 201 3; 202 3; 203 2; 
204 2; 205 1; 207 20; 208 4; 209 3; 
212 1; 213 2; 214 18; 215 11; 216 21; 
217 12; 218 3; 226 1; 227 4; 228 5; 
229 3; 230 6; 231 3; 239 2; 240 6; 
241 30; 242 112; 243 250; 244 212; 245 50; 
246 6; 253 7; 254 5; 255 50; 256 82; 
257 186; 258 199; 259 36; 260 4; 266 1; 
267 1; 269 25; 271 999; 272 238; 273 30; 
274 2; 281 5; 282 2; 283 11; 284 9; 
285 63; 286 17; 287 2; 293 1; 295 1; 
296 1; 297 4; 299 50; 300 12; 301 1; 
309 1; 311 3; 313 180; 314 45; 315 5; 
323 1; 324 1; 325 14; 326 3; 327 3; 
328 1; 329 1; 331 1; 332 1; 339 2; 
341 787; 342 583; 343 124; 344 15; 345 1; 
346 1; 
