Name: 5-Iodo-2-aminoindan
Synon: 5-IAI
Synon: 2,3-dihydro-5-iodo-1H-inden-2-amine
Synon: 5-Iodo-2-aminoindane
InChIKey: BIHPYCDDPGNWQO-UHFFFAOYSA-N
Formula: C9H10IN
MW: 259
ExactMass: 258.985798
CASNO: 132367761
ID: 3821
Comment: ENFSI / IES Krakow, Poland / SWGDRUG Monograph available
Num Peaks: 75
29 2; 30 5; 37 1; 38 4; 39 14; 
40 2; 41 4; 42 9; 43 5; 50 12; 
51 21; 52 9; 53 9; 54 4; 56 1; 
59 1; 61 3; 62 14; 63 35; 65 24; 
67 2; 73 1; 74 9; 75 10; 76 10; 
77 55; 78 25; 79 19; 80 5; 85 2; 
86 5; 87 6; 88 5; 89 28; 90 16; 
91 9; 92 2; 93 2; 98 2; 99 1; 
101 3; 102 21; 103 56; 104 39; 105 111; 
106 10; 113 4; 114 7; 115 204; 116 33; 
117 143; 118 13; 127 16; 128 8; 130 100; 
131 51; 132 27; 133 3; 165 1; 217 19; 
218 2; 230 5; 231 37; 232 32; 233 3; 
242 177; 243 20; 244 19; 245 1; 256 3; 
257 3; 258 86; 259 999; 260 98; 261 4; 
