Name: Hydrocodone
Synon: Dihydrocodeinone
Synon: 4,5a-Epoxy-3-methoxy-17-methylmorphinan-6-one
InChIKey: LLPOLZWFYMWNKH-UHFFFAOYSA-N
Formula: C18H21NO3
MW: 299
ExactMass: 299.152143
CASNO: 125291
ID: 3822
Comment: DEA SWL / SWGDRUG Monograph available
Num Peaks: 211
36 1; 38 5; 39 102; 40 18; 41 109; 
42 649; 43 65; 44 295; 45 17; 50 26; 
51 90; 52 31; 53 73; 54 38; 55 205; 
56 51; 57 176; 58 92; 59 461; 60 63; 
61 8; 62 20; 63 91; 64 34; 65 79; 
66 21; 67 43; 68 74; 69 27; 70 260; 
71 28; 72 11; 73 8; 74 13; 75 41; 
76 39; 77 181; 78 62; 79 46; 80 33; 
81 46; 82 211; 83 73; 84 95; 85 12; 
86 14; 87 24; 88 25; 89 72; 90 23; 
91 139; 92 19; 93 22; 94 98; 95 25; 
96 483; 97 51; 98 21; 99 18; 100 13; 
101 27; 102 84; 103 111; 104 26; 105 38; 
106 30; 107 35; 108 37; 109 15; 110 29; 
111 17; 112 17; 113 43; 114 103; 115 472; 
116 117; 117 67; 118 34; 119 19; 120 40; 
122 92; 123 8; 124 47; 125 13; 126 50; 
127 197; 128 355; 129 138; 130 41; 131 92; 
132 44; 133 25; 134 73; 135 27; 136 30; 
137 14; 138 7; 139 84; 140 41; 141 173; 
142 78; 143 90; 144 113; 145 76; 146 38; 
147 30; 148 17; 149 8; 150 35; 151 24; 
152 88; 153 98; 154 46; 155 149; 156 62; 
157 86; 158 78; 159 65; 160 42; 161 48; 
162 80; 163 20; 164 13; 165 46; 166 14; 
167 31; 168 89; 169 100; 170 115; 171 105; 
172 44; 173 77; 174 59; 175 79; 176 24; 
177 9; 178 9; 179 7; 180 9; 181 79; 
182 54; 183 96; 184 75; 185 399; 186 122; 
187 90; 188 155; 189 36; 190 17; 191 13; 
193 7; 194 15; 195 25; 196 55; 197 86; 
198 146; 199 192; 200 108; 201 91; 202 44; 
203 8; 204 6; 207 7; 208 11; 209 15; 
210 23; 211 42; 212 205; 213 149; 214 309; 
215 82; 216 26; 217 17; 223 6; 224 31; 
225 43; 226 55; 227 59; 228 251; 229 69; 
230 66; 238 11; 239 8; 240 126; 241 62; 
242 607; 243 400; 244 88; 245 5; 252 7; 
253 8; 254 25; 255 18; 256 134; 257 31; 
258 7; 268 10; 269 5; 270 114; 271 51; 
272 7; 281 8; 282 16; 283 5; 284 139; 
285 25; 297 16; 298 102; 299 999; 300 197; 
301 20; 
