Name: Heroin
Synon: Diacetylmorphine
Synon: Morphine diacetate
Synon: Diamorphine
Synon: (5.alpha.,6.alpha.)-7,8-didehydro-4,5-epoxy-17-methylmorphinan-3,6-diol diacetate
InChIKey: GVGLGOZIDCSQPN-UHFFFAOYSA-N
Formula: C21H23NO5
MW: 369
ExactMass: 369.157623
CASNO: 561273
ID: 3823
Comment: DEA SWL / SWGDRUG Monograph available
Num Peaks: 238
38 2; 39 32; 40 5; 41 45; 42 485; 
43 999; 44 266; 45 19; 50 6; 51 32; 
52 13; 53 43; 54 16; 55 72; 56 35; 
57 55; 58 96; 59 124; 60 19; 62 3; 
63 25; 64 9; 65 44; 66 7; 67 21; 
68 22; 69 13; 70 161; 71 15; 72 8; 
73 5; 74 2; 75 9; 76 10; 77 79; 
78 36; 79 35; 80 27; 81 255; 82 82; 
83 23; 84 9; 86 3; 87 4; 88 3; 
89 31; 90 11; 91 82; 92 17; 93 20; 
94 173; 95 30; 96 53; 97 5; 98 3; 
99 4; 101 23; 102 27; 103 44; 104 24; 
105 62; 106 22; 107 38; 108 32; 109 24; 
110 24; 111 1; 112 14; 113 7; 114 15; 
115 183; 116 47; 117 49; 118 28; 119 23; 
120 28; 121 13; 122 19; 123 22; 124 177; 
125 20; 126 18; 127 83; 128 99; 129 51; 
130 24; 131 66; 132 45; 133 30; 134 57; 
135 22; 136 13; 137 8; 138 7; 139 57; 
140 21; 141 83; 142 23; 143 24; 144 105; 
145 46; 146 239; 147 73; 148 31; 149 7; 
150 7; 151 37; 152 152; 153 111; 154 47; 
155 40; 156 20; 157 39; 158 15; 159 14; 
160 39; 161 54; 162 204; 163 52; 164 53; 
165 117; 166 65; 167 52; 168 40; 169 42; 
170 23; 171 48; 172 26; 173 49; 174 114; 
175 92; 176 58; 177 24; 178 38; 179 35; 
180 26; 181 103; 182 51; 183 28; 184 52; 
185 36; 186 19; 187 11; 188 12; 189 16; 
190 10; 191 15; 192 11; 193 22; 194 26; 
195 27; 196 29; 197 64; 198 43; 199 26; 
200 41; 201 20; 202 36; 203 38; 204 300; 
205 51; 206 18; 207 26; 208 37; 209 49; 
210 83; 211 97; 212 26; 213 17; 214 57; 
215 299; 216 72; 217 12; 218 3; 219 8; 
220 5; 221 8; 222 10; 223 19; 224 31; 
225 36; 226 57; 227 32; 228 40; 229 12; 
234 5; 235 7; 236 9; 237 14; 238 38; 
239 26; 240 21; 241 12; 242 15; 243 2; 
248 2; 249 4; 250 9; 251 8; 252 27; 
253 40; 254 18; 255 5; 256 11; 257 11; 
258 5; 264 1; 265 1; 266 118; 267 139; 
268 500; 269 93; 270 23; 271 2; 281 1; 
282 12; 283 5; 284 63; 285 17; 286 2; 
298 3; 299 2; 308 19; 309 31; 310 391; 
311 75; 312 17; 324 1; 325 4; 326 99; 
327 658; 328 123; 329 16; 367 2; 368 48; 
369 410; 370 91; 371 15; 
