Name: FUB-PB-22
Synon: Quinolin-8-yl-1-(4-fluorobenzyl)-1H-indole-3-carboxylate
InChIKey: ROHVURVXAOMRJY-UHFFFAOYSA-N
Formula: C25H17FN2O2
MW: 396
ExactMass: 396.127405
CASNO: 0
ID: 3827
Comment: Provided by www.caymanchem.com/app/template/landing%2CForensic.vm / Item #14949  Lot #0451974 / SWGDRUG Monograph available
Num Peaks: 117
40 1; 44 2; 49 1; 50 5; 51 6; 
52 3; 53 1; 57 5; 59 6; 61 2; 
62 11; 63 36; 64 8; 65 3; 73 4; 
74 4; 75 9; 76 6; 77 7; 78 3; 
81 2; 83 72; 84 4; 86 2; 87 6; 
88 14; 89 75; 90 22; 91 3; 94 1; 
95 1; 96 2; 97 1; 99 1; 100 1; 
101 7; 102 5; 103 1; 107 12; 109 999; 
110 72; 111 2; 114 15; 115 34; 116 102; 
117 35; 118 4; 119 1; 121 1; 126 1; 
127 2; 128 5; 129 5; 130 1; 133 1; 
134 1; 135 2; 143 31; 144 14; 145 25; 
146 4; 149 1; 156 2; 157 1; 158 1; 
161 1; 169 2; 170 2; 175 2; 176 4; 
177 2; 191 1; 193 1; 194 3; 195 3; 
196 3; 197 1; 200 1; 201 2; 202 3; 
203 2; 204 5; 205 2; 207 10; 208 1; 
209 1; 219 1; 220 1; 221 7; 222 28; 
223 9; 224 15; 225 5; 229 1; 230 1; 
231 1; 234 1; 250 8; 252 773; 253 140; 
255 2; 259 9; 260 1; 269 1; 271 1; 
281 1; 282 1; 287 4; 288 1; 315 1; 
327 1; 331 1; 341 1; 346 1; 396 23; 
397 7; 398 2; 
