Name: 2-Fluoroisocathinone
Synon: 2-FIC
Synon: 1-Amino-1-(2-fluorophenyl)propan-2-one
InChIKey: BYBGMLBKCQTBSF-UHFFFAOYSA-N
Formula: C9H10FNO
MW: 167
ExactMass: 167.074642
CASNO: 0
ID: 3837
Comment: Provided by www.caymanchem.com/app/template/landing%2CForensic.vm / Item #11607  Lot #0450088 / SWGDRUG Monograph available
Num Peaks: 85
41 5; 42 18; 43 76; 44 2; 45 1; 
46 1; 48 2; 49 3; 50 20; 51 42; 
52 10; 53 2; 54 3; 56 3; 57 13; 
58 1; 59 1; 60 1; 61 3; 62 12; 
63 13; 64 3; 65 3; 67 1; 68 7; 
69 14; 70 26; 71 5; 72 3; 73 1; 
74 24; 75 62; 76 22; 77 163; 78 19; 
79 2; 80 1; 81 9; 82 2; 83 6; 
85 1; 86 2; 87 1; 88 1; 89 3; 
90 1; 91 2; 92 1; 93 4; 94 13; 
95 34; 96 44; 97 244; 98 13; 99 1; 
102 64; 103 13; 104 12; 105 2; 106 1; 
107 13; 108 4; 109 7; 110 1; 117 2; 
120 2; 121 19; 122 98; 124 999; 125 83; 
126 3; 129 1; 130 1; 131 1; 132 1; 
133 2; 135 1; 136 2; 145 1; 148 1; 
149 1; 150 7; 152 2; 162 1; 166 1; 
