Name: 2-Ethylmethcathinone
Synon: 2-EMC
Synon: 1-(2-ethylphenyl)-2-(methylamino)propan-1-one
InChIKey: FHQMNXWCKXZQEW-UHFFFAOYSA-N
Formula: C12H17NO
MW: 191
ExactMass: 191.131014
CASNO: 0
ID: 3849
Comment: Provided by www.caymanchem.com/app/template/landing%2CForensic.vm / Item #9001081  Lot #0435510 / SWGDRUG Monograph available
Num Peaks: 63
40 3; 41 11; 42 32; 43 20; 44 3; 
50 10; 51 28; 52 6; 53 6; 54 4; 
55 8; 56 122; 58 999; 59 36; 62 5; 
63 18; 64 5; 65 10; 66 2; 74 5; 
75 6; 76 8; 77 74; 78 23; 79 39; 
80 3; 87 1; 89 22; 90 11; 91 17; 
92 1; 101 1; 102 9; 103 35; 104 17; 
105 21; 106 2; 115 15; 116 4; 117 8; 
118 2; 119 4; 127 2; 128 4; 129 3; 
130 2; 131 5; 132 3; 133 23; 134 2; 
143 1; 144 3; 145 6; 146 4; 147 1; 
158 3; 159 1; 160 6; 161 1; 173 1; 
174 1; 175 1; 189 1; 
