Name: 3-Ethylethcathinone
Synon: 3-EEC
Synon: 2-(ethylamino)-1-(3-ethylphenyl)propan-1-one
InChIKey: ZGWFZYCOHXHOHU-UHFFFAOYSA-N
Formula: C13H19NO
MW: 205
ExactMass: 205.146665
CASNO: 0
ID: 3851
Comment: Provided by www.caymanchem.com/app/template/landing%2CForensic.vm / Item #11198  Lot #0435129 / SWGDRUG Monograph available
Num Peaks: 59
40 2; 41 8; 42 45; 44 207; 45 6; 
50 8; 51 18; 52 4; 53 6; 54 2; 
55 5; 56 29; 57 5; 62 3; 63 14; 
64 4; 65 8; 66 2; 68 1; 70 33; 
72 999; 73 51; 74 4; 75 4; 76 7; 
77 54; 78 16; 79 40; 80 2; 88 1; 
89 20; 90 18; 91 13; 92 1; 102 6; 
103 27; 104 9; 105 28; 106 3; 115 5; 
116 1; 117 4; 118 2; 119 6; 128 2; 
129 1; 130 1; 131 3; 133 29; 134 4; 
144 1; 146 1; 147 1; 160 2; 161 1; 
162 3; 174 1; 188 1; 190 2; 
