Name: 2-Ethylethcathinone
Synon: 2-(ethylamino)-1-(2-ethylphenyl)propan-1-one
Synon: 2-EEC
InChIKey: YHAYVXPZBPEILT-UHFFFAOYSA-N
Formula: C13H19NO
MW: 205
ExactMass: 205.146665
CASNO: 0
ID: 3852
Comment: Provided by www.caymanchem.com/app/template/landing%2CForensic.vm / Item #11199  Lot #0435482 / SWGDRUG Monograph available
Num Peaks: 65
40 2; 41 7; 42 40; 44 207; 45 6; 
50 7; 51 23; 52 5; 53 6; 54 2; 
55 5; 56 27; 57 4; 58 1; 62 3; 
63 13; 64 4; 65 8; 66 1; 68 1; 
70 26; 72 999; 73 50; 74 4; 75 5; 
76 6; 77 65; 78 20; 79 39; 80 3; 
87 1; 89 16; 90 10; 91 17; 92 1; 
101 1; 102 6; 103 30; 104 15; 105 23; 
106 2; 115 16; 116 4; 117 7; 118 2; 
119 5; 127 2; 128 6; 129 3; 130 2; 
131 5; 132 3; 133 27; 134 3; 143 1; 
144 2; 145 7; 146 3; 147 1; 159 1; 
160 3; 161 1; 162 1; 172 2; 174 2; 
