Name: N-Ethylcathinone
Synon: Ethcathinone
Synon: Ethylcathinone
Synon: RMI 8201A
Synon: 2-(ethylamino)-1-phenyl-1-propanone
InChIKey: LYMHIBZGTAPASQ-UHFFFAOYSA-N
Formula: C11H15NO
MW: 177
ExactMass: 177.115364
CASNO: 51553174
ID: 3855
Comment: ENFSI / In house reference Univ. Arhus / SWGDRUG Monograph available
Num Peaks: 48
40 2; 41 8; 42 50; 43 10; 44 345; 
45 9; 50 21; 51 71; 52 6; 53 2; 
54 2; 55 6; 56 32; 57 5; 62 1; 
63 3; 65 2; 68 1; 70 18; 71 5; 
72 999; 73 48; 74 7; 75 5; 76 9; 
77 143; 78 14; 79 5; 89 2; 90 1; 
91 8; 92 1; 102 1; 103 3; 104 2; 
105 51; 106 5; 115 3; 116 1; 117 3; 
118 1; 130 1; 132 7; 133 6; 134 6; 
146 1; 162 3; 176 1; 
