Name: 2C-T-7
Synon: PIHKAL #43
Synon: 2,5-Dimethoxy-4-(n)-propylthiophenethylamine
InChIKey: OLEVEPDJOFPJTF-UHFFFAOYSA-N
Formula: C13H21NO2S
MW: 255
ExactMass: 255.1293
CASNO: 207740269
ID: 3868
Comment: DEA SWL / SWGDRUG Monograph available
Num Peaks: 158
40 6; 41 54; 42 10; 43 32; 44 3; 
45 34; 46 2; 47 6; 50 5; 51 22; 
52 7; 53 32; 54 5; 55 9; 57 6; 
58 7; 59 12; 60 1; 61 3; 62 2; 
63 20; 64 10; 65 47; 66 23; 67 26; 
68 5; 69 25; 70 8; 71 14; 72 1; 
73 7; 74 3; 75 17; 76 9; 77 81; 
78 38; 79 54; 80 10; 81 9; 82 7; 
83 8; 84 7; 85 39; 86 5; 87 5; 
88 1; 89 20; 90 12; 91 91; 92 24; 
93 25; 94 13; 95 18; 96 21; 97 52; 
98 10; 99 5; 101 1; 102 4; 103 5; 
104 13; 105 39; 106 18; 107 28; 108 37; 
109 58; 110 70; 111 28; 112 6; 113 3; 
114 1; 115 5; 116 2; 117 9; 118 11; 
119 14; 120 18; 121 86; 122 74; 123 55; 
124 18; 125 50; 126 14; 127 6; 128 2; 
129 1; 131 2; 132 9; 133 11; 134 18; 
135 21; 136 24; 137 48; 138 92; 139 32; 
140 38; 141 20; 142 2; 145 3; 146 4; 
147 13; 148 20; 149 19; 150 19; 151 48; 
152 46; 153 336; 154 44; 155 26; 156 1; 
160 1; 161 5; 162 5; 163 9; 164 16; 
165 23; 166 9; 167 42; 168 18; 169 309; 
170 29; 171 14; 177 2; 178 5; 179 11; 
180 9; 181 29; 182 43; 183 590; 184 101; 
185 34; 186 4; 193 2; 194 2; 195 32; 
196 7; 197 13; 198 1; 207 1; 209 1; 
210 1; 211 59; 212 9; 213 2; 223 2; 
224 2; 225 553; 226 999; 227 151; 228 57; 
229 7; 238 2; 253 2; 254 1; 255 236; 
256 39; 257 15; 258 1; 
