Name: 2C-I
Synon: PIHKAL #33
Synon: 4-Iodo-2,5-dimethoxy-benzeneethanamine
Synon: 4-Iodo-2,5-dimethoxyphenethylamine
Synon: 2-(4-Iodo-2,5-dimethoxyphenyl)ethanamine
InChIKey: PQHQBRJAAZQXHL-UHFFFAOYSA-N
Formula: C10H14INO2
MW: 307
ExactMass: 307.006927
CASNO: 64584323
ID: 3870
Comment: DEA SWL / SWGDRUG Monograph available
Num Peaks: 112
40 9; 41 4; 42 10; 43 13; 44 10; 
46 5; 47 4; 50 47; 51 73; 52 14; 
53 86; 54 17; 55 7; 57 2; 59 3; 
61 10; 62 35; 63 71; 64 63; 65 62; 
66 14; 67 17; 68 6; 70 3; 74 19; 
75 15; 76 45; 77 166; 78 50; 79 38; 
80 12; 81 4; 82 2; 85 2; 86 4; 
89 61; 90 70; 91 128; 92 63; 93 21; 
94 7; 95 2; 102 2; 103 12; 104 23; 
105 96; 106 29; 107 33; 108 38; 109 6; 
117 2; 118 11; 119 21; 120 31; 121 55; 
122 22; 123 3; 127 24; 128 5; 132 6; 
133 7; 134 8; 135 9; 136 43; 137 9; 
138 2; 146 7; 147 13; 148 15; 149 9; 
150 32; 151 18; 152 18; 153 9; 163 2; 
164 10; 165 12; 171 4; 177 6; 179 4; 
180 35; 181 6; 189 2; 191 31; 203 2; 
204 2; 207 1; 217 8; 219 8; 220 6; 
232 33; 233 7; 234 16; 235 8; 247 74; 
248 7; 249 2; 260 2; 261 3; 262 4; 
263 187; 264 25; 265 2; 274 3; 276 18; 
277 73; 278 999; 279 70; 280 9; 305 2; 
307 104; 308 7; 
