Name: 2C-T-2
Synon: PIHKAL #40
Synon: 2,5-Dimethoxy-4-ethylthiophenethylamine
Synon: 2-[4-(Ethylthio)-2,5-dimethoxyphenyl]ethanamine
InChIKey: HCWQGDLBIKOJPM-UHFFFAOYSA-N
Formula: C12H21NO2S
MW: 243
ExactMass: 243.1293
CASNO: 207740247
ID: 3872
Comment: DEA SWL / SWGDRUG Monograph available
Num Peaks: 112
41 16; 42 14; 43 14; 44 7; 45 65; 
47 5; 50 10; 51 38; 52 17; 53 56; 
54 5; 55 13; 58 13; 59 102; 61 6; 
62 17; 63 33; 64 8; 65 77; 66 35; 
67 37; 68 4; 69 46; 70 14; 71 11; 
75 22; 76 5; 77 97; 78 58; 79 70; 
80 16; 81 6; 82 5; 83 5; 84 8; 
85 60; 89 22; 90 15; 91 127; 92 38; 
93 38; 94 16; 95 29; 96 40; 97 74; 
98 7; 99 5; 103 7; 104 24; 105 66; 
106 34; 107 39; 108 57; 109 78; 110 72; 
111 35; 117 5; 118 15; 119 19; 120 28; 
121 117; 122 106; 123 76; 124 34; 125 60; 
126 10; 132 26; 133 38; 134 34; 135 45; 
136 47; 137 91; 138 152; 139 45; 140 44; 
141 14; 147 20; 148 37; 149 34; 150 26; 
151 94; 152 83; 153 329; 154 50; 155 24; 
161 4; 162 4; 163 31; 164 34; 165 46; 
166 27; 167 68; 168 56; 169 61; 179 11; 
181 182; 182 56; 183 518; 184 56; 185 29; 
197 206; 198 32; 199 13; 207 4; 209 5; 
211 540; 212 999; 213 137; 214 64; 241 280; 
242 34; 243 10; 
