Name: 2C-E
Synon: PIHKAL #24
Synon: 2,5-Dimethoxy-4-ethylphenethylamine
Synon: 2-(2,5-Dimethoxy-4-ethylphenyl)ethanamine
InChIKey: VDRGNAMREYBIHA-UHFFFAOYSA-N
Formula: C12H19NO2
MW: 209
ExactMass: 209.141579
CASNO: 71539349
ID: 3873
Comment: DEA SWL / SWGDRUG Monograph available
Num Peaks: 80
41 34; 42 6; 43 14; 44 5; 45 4; 
50 9; 51 35; 52 14; 53 36; 54 7; 
55 16; 57 10; 62 4; 63 19; 64 7; 
65 50; 66 14; 67 25; 76 3; 77 121; 
78 48; 79 62; 80 8; 81 3; 82 2; 
89 25; 90 5; 91 240; 92 27; 93 38; 
94 9; 102 11; 103 47; 104 31; 105 74; 
106 8; 107 23; 108 10; 109 11; 115 80; 
116 24; 117 93; 118 21; 119 64; 120 17; 
121 64; 122 35; 123 17; 131 13; 132 11; 
133 48; 134 81; 135 64; 136 22; 137 32; 
146 4; 147 17; 148 14; 149 99; 150 37; 
151 77; 152 6; 161 3; 162 7; 163 11; 
164 20; 165 592; 166 68; 167 4; 176 10; 
177 9; 178 32; 179 218; 180 999; 181 127; 
182 8; 192 5; 207 7; 209 137; 210 12; 
