Name: 2,5-Dimethoxyamphetamine
Synon: 2,5-DMA
Synon: PIHKAL #54
Synon: 2,5-Dimethoxy-.alpha.-methylphenethylamine
InChIKey: LATVFYDIBMDBSY-UHFFFAOYSA-N
Formula: C11H17NO2
MW: 195
ExactMass: 195.125929
CASNO: 2801685
ID: 3875
Comment: DEA SWL / SWGDRUG Monograph available
Num Peaks: 88
40 4; 41 9; 42 26; 44 999; 45 26; 
50 7; 51 25; 52 12; 53 15; 54 6; 
55 15; 56 2; 57 1; 59 1; 61 1; 
62 4; 63 14; 64 8; 65 55; 66 14; 
67 9; 68 2; 69 2; 74 3; 75 3; 
76 6; 77 63; 78 48; 79 24; 80 6; 
81 4; 83 6; 87 1; 89 10; 90 7; 
91 55; 92 12; 93 14; 94 12; 95 4; 
102 2; 103 5; 104 5; 105 12; 106 10; 
107 7; 108 25; 109 12; 110 1; 115 2; 
116 1; 117 4; 118 5; 119 4; 120 5; 
121 54; 122 14; 123 12; 124 1; 130 1; 
131 2; 132 3; 133 6; 134 3; 135 4; 
136 14; 137 105; 138 11; 139 1; 146 3; 
147 5; 148 8; 149 6; 150 6; 151 31; 
152 344; 153 34; 154 3; 161 1; 162 6; 
163 4; 164 5; 165 2; 178 1; 179 2; 
180 6; 195 13; 196 1; 
