Name: Diazepam
Synon: Valium
Synon: 7-chloro-1,3-dihydro-1-methyl-5-phenyl-1,4-benzodiazepin-2(3H)-one
InChIKey: AAOVKJBEBIDNHE-UHFFFAOYSA-N
Formula: C16H13ClN2O
MW: 284
ExactMass: 284.07164
CASNO: 439145
ID: 3878
Comment: DEA SWL / SWGDRUG Monograph available
Num Peaks: 201
40 6; 41 13; 42 38; 43 6; 49 7; 
50 55; 51 138; 52 28; 53 5; 54 2; 
55 3; 56 5; 57 3; 58 1; 61 11; 
62 43; 63 107; 64 28; 65 62; 66 15; 
67 2; 68 5; 69 15; 70 1; 71 1; 
72 1; 73 27; 74 55; 75 135; 76 101; 
77 213; 78 28; 79 5; 80 3; 82 58; 
84 41; 85 11; 86 29; 87 47; 88 45; 
89 195; 90 61; 91 125; 92 13; 93 9; 
94 2; 95 3; 96 84; 97 64; 98 29; 
99 50; 100 42; 101 32; 102 90; 103 70; 
104 23; 105 6; 107 8; 108 14; 110 232; 
111 118; 112 32; 113 58; 114 55; 115 50; 
116 80; 117 148; 118 24; 120 21; 121 8; 
122 8; 123 30; 124 65; 125 142; 126 81; 
127 124; 128 54; 129 13; 130 2; 132 1; 
133 3; 134 13; 135 10; 136 34; 137 53; 
138 62; 139 61; 140 33; 141 11; 142 17; 
143 7; 144 8; 145 1; 146 6; 147 5; 
148 3; 149 24; 150 116; 151 168; 152 168; 
153 36; 154 16; 155 2; 160 2; 161 10; 
162 22; 163 161; 164 113; 165 268; 166 64; 
167 16; 168 4; 173 5; 174 5; 175 13; 
176 34; 177 160; 178 94; 179 61; 180 21; 
181 16; 182 2; 183 2; 185 1; 186 11; 
187 6; 188 10; 189 8; 190 42; 191 46; 
192 62; 193 100; 194 19; 195 2; 198 3; 
199 28; 200 8; 201 13; 202 9; 203 17; 
204 21; 205 101; 206 37; 207 14; 208 4; 
209 2; 211 2; 212 8; 213 39; 214 16; 
215 19; 216 7; 217 5; 218 11; 219 51; 
220 27; 221 315; 222 63; 223 7; 224 2; 
225 1; 226 12; 227 19; 228 66; 229 17; 
230 21; 231 4; 233 10; 234 3; 238 35; 
239 80; 240 36; 241 115; 242 24; 243 31; 
244 5; 247 5; 248 41; 249 57; 250 10; 
251 2; 253 17; 255 422; 256 999; 257 456; 
258 355; 259 104; 260 12; 266 1; 267 4; 
268 29; 269 9; 270 10; 271 2; 281 2; 
283 801; 284 692; 285 396; 286 229; 287 34; 
288 1; 
