Name: Dextromethorphan
Synon: DXM
Synon: DM
Synon: (+)-3-methoxy-17-methyl-(9.alpha.,13.alpha.,14.alpha.)-morphinan
InChIKey: MKXZASYAUGDDCJ-UHFFFAOYSA-N
Formula: C18H25NO
MW: 271
ExactMass: 271.193615
CASNO: 125713
ID: 3879
Comment: DEA SWL / SWGDRUG Monograph available
Num Peaks: 194
40 4; 41 58; 42 188; 43 29; 44 116; 
45 7; 50 4; 51 20; 52 9; 53 25; 
54 10; 55 42; 56 22; 57 28; 58 87; 
59 999; 60 61; 61 1; 62 2; 63 18; 
64 6; 65 34; 66 7; 67 36; 68 21; 
69 8; 70 51; 71 9; 72 4; 73 1; 
74 3; 75 7; 76 11; 77 80; 78 36; 
79 48; 80 15; 81 32; 82 99; 83 25; 
84 14; 85 1; 86 6; 87 4; 88 4; 
89 25; 90 5; 91 112; 92 21; 93 21; 
94 56; 95 25; 96 29; 97 6; 98 4; 
99 9; 100 9; 101 8; 102 38; 103 45; 
104 16; 105 33; 106 23; 107 36; 108 49; 
109 17; 110 12; 111 1; 114 20; 115 231; 
116 57; 117 41; 118 18; 119 19; 120 37; 
121 101; 122 76; 123 35; 124 17; 125 2; 
126 12; 127 85; 128 249; 129 137; 130 37; 
131 55; 132 23; 133 12; 134 33; 135 51; 
136 27; 137 6; 138 2; 139 31; 140 13; 
141 146; 142 54; 143 46; 144 73; 145 61; 
146 73; 147 54; 148 91; 149 22; 150 685; 
151 90; 152 63; 153 78; 154 45; 155 45; 
156 33; 157 51; 158 69; 159 85; 160 54; 
161 55; 162 82; 163 16; 164 7; 165 48; 
166 22; 167 27; 168 22; 169 39; 170 43; 
171 336; 172 152; 173 48; 174 105; 175 50; 
176 19; 177 4; 178 9; 179 12; 180 7; 
181 29; 182 21; 183 33; 184 69; 185 66; 
186 33; 187 15; 188 28; 189 6; 190 3; 
191 1; 193 1; 194 3; 195 7; 196 12; 
197 30; 198 44; 199 31; 200 24; 201 13; 
202 31; 203 142; 204 20; 205 1; 208 2; 
209 3; 210 6; 211 17; 212 166; 213 128; 
214 291; 215 51; 216 11; 217 1; 224 2; 
225 3; 226 10; 227 9; 228 48; 229 14; 
230 4; 238 1; 239 4; 240 10; 241 2; 
242 60; 243 14; 244 2; 254 2; 255 2; 
256 68; 257 12; 258 1; 268 4; 269 3; 
270 370; 271 643; 272 122; 273 13; 
