Name: Acetylpsilocin
Synon: 4-AcO-DMT
Synon: 4-Acetoxy-N,N-Dimethyltryptamine
Synon: O-Acetylpsilocin
Synon: Psilacetin
InChIKey: RTLRUOSYLFOFHV-UHFFFAOYSA-N
Formula: C14H18N2O2
MW: 246
ExactMass: 246.136827
CASNO: 92292847
ID: 3887
Comment: DEA SWL / SWGDRUG Monograph available
Num Peaks: 73
39 3; 41 2; 42 27; 43 37; 44 4; 
50 2; 51 5; 52 2; 53 1; 56 4; 
57 10; 58 999; 59 36; 62 2; 63 7; 
64 2; 65 5; 74 1; 75 3; 76 4; 
77 10; 78 4; 79 1; 87 1; 88 1; 
89 13; 90 10; 91 9; 92 1; 101 2; 
102 6; 103 7; 104 4; 105 2; 113 2; 
114 2; 115 12; 116 6; 117 23; 118 14; 
119 1; 128 5; 129 3; 130 21; 131 7; 
132 2; 133 1; 140 2; 141 1; 142 2; 
143 2; 144 3; 145 6; 146 48; 147 6; 
155 1; 156 1; 157 2; 158 5; 159 14; 
160 22; 161 2; 171 1; 172 1; 185 2; 
186 1; 187 1; 188 4; 201 2; 202 3; 
203 2; 246 27; 247 4; 
