Name: AKB48
Synon: 1-pentyl-N-tricyclo[3.3.1.13,7]dec-1-yl-1H-indazole-3-carboxamide
Synon: APINACA
Synon: N-adamantyl-1-pentylindazole-3-carboxamide
Synon: N-(1-adamantyl)-1-pentyl-1H-indazole-3-carboxamide
InChIKey: UCTCCIPCJZKWEZ-UHFFFAOYSA-N
Formula: C23H31N3O
MW: 365
ExactMass: 365.246712
CASNO: 1345973536
ID: 3888
Comment: Provided by www.caymanchem.com/app/template/landing%2CForensic.vm / Item #11566  Lot #0437841 / SWGDRUG Monograph available
Num Peaks: 202
40 4; 41 52; 42 11; 43 58; 44 5; 
50 1; 51 6; 52 3; 53 10; 54 6; 
55 28; 56 11; 57 6; 58 9; 62 2; 
63 4; 64 1; 65 8; 66 8; 67 34; 
68 6; 69 9; 70 3; 71 3; 75 2; 
76 9; 77 55; 78 15; 79 65; 80 15; 
81 19; 82 5; 83 1; 88 21; 89 25; 
90 50; 91 68; 92 59; 93 110; 94 55; 
95 9; 96 3; 101 2; 102 20; 103 59; 
104 27; 105 19; 106 10; 107 27; 108 21; 
109 12; 110 2; 115 3; 116 4; 117 34; 
118 15; 119 16; 120 9; 121 1; 122 2; 
126 4; 127 3; 128 4; 129 26; 130 22; 
131 133; 132 24; 133 10; 134 11; 135 148; 
136 28; 137 2; 141 1; 142 2; 143 8; 
145 522; 146 52; 147 6; 148 3; 150 252; 
151 31; 152 3; 154 2; 155 2; 156 6; 
157 9; 158 14; 159 7; 160 2; 161 17; 
162 2; 166 1; 167 1; 169 5; 170 3; 
171 13; 172 4; 173 4; 174 43; 175 17; 
176 4; 178 1; 180 1; 181 1; 182 1; 
183 2; 184 2; 185 11; 186 8; 187 48; 
188 8; 189 28; 191 2; 193 1; 194 1; 
195 2; 198 2; 199 6; 200 2; 201 9; 
202 82; 203 10; 204 2; 207 1; 209 3; 
210 3; 212 2; 213 14; 215 999; 216 152; 
217 13; 222 1; 223 1; 224 2; 226 1; 
227 2; 228 2; 229 3; 230 22; 231 6; 
232 2; 233 1; 235 1; 236 2; 237 2; 
238 5; 239 3; 240 2; 241 3; 242 2; 
243 4; 244 1; 249 3; 250 4; 251 5; 
252 6; 253 3; 254 2; 255 2; 263 7; 
264 4; 265 26; 266 10; 267 5; 268 1; 
270 9; 271 14; 272 7; 273 1; 277 3; 
278 4; 280 147; 281 32; 282 7; 285 1; 
290 1; 291 1; 292 1; 294 331; 295 76; 
296 20; 297 3; 305 1; 308 100; 309 32; 
310 5; 320 116; 321 42; 322 22; 323 6; 
324 6; 325 2; 337 281; 338 64; 339 9; 
340 1; 348 1; 350 1; 351 1; 365 209; 
366 55; 367 8; 
