Name: Alprazolam
Synon: Xanax
Synon: 8-Chloro-1-methyl-6-phenyl-4H-[1,2,4]triazolo[4,3-a][1,4]benzodiazepine
InChIKey: VREFGVBLTWBCJP-UHFFFAOYSA-N
Formula: C17H13ClN4
MW: 308
ExactMass: 308.082874
CASNO: 28981977
ID: 3890
Comment: DEA SWL / SWGDRUG Monograph available
Num Peaks: 207
40 60; 41 42; 42 62; 43 4; 44 6; 
47 2; 49 10; 50 98; 51 302; 52 48; 
53 16; 54 13; 55 5; 56 7; 57 2; 
61 20; 62 66; 63 131; 64 49; 65 50; 
66 26; 67 19; 68 9; 69 12; 72 4; 
73 61; 74 113; 75 330; 76 197; 77 603; 
78 74; 79 7; 80 9; 82 44; 84 15; 
85 20; 86 43; 87 77; 89 263; 90 54; 
91 75; 92 15; 93 40; 94 18; 95 15; 
96 16; 97 19; 98 42; 99 68; 100 153; 
101 123; 102 414; 104 85; 105 13; 106 21; 
107 26; 108 13; 109 22; 110 89; 111 141; 
112 54; 113 86; 114 62; 116 171; 117 19; 
118 4; 120 134; 121 61; 122 22; 123 34; 
124 113; 125 47; 126 97; 127 67; 128 31; 
129 97; 130 11; 131 6; 134 47; 135 30; 
136 161; 137 417; 138 169; 139 153; 140 73; 
141 28; 142 65; 143 14; 147 10; 148 8; 
149 47; 150 136; 151 199; 152 101; 153 37; 
154 11; 155 4; 156 4; 160 4; 161 21; 
162 59; 163 237; 164 121; 165 79; 166 24; 
167 6; 168 3; 170 14; 171 3; 173 8; 
174 17; 175 54; 176 189; 177 378; 178 124; 
179 60; 180 7; 181 2; 185 5; 186 15; 
187 11; 188 34; 189 32; 190 61; 191 24; 
192 25; 193 10; 197 4; 198 12; 199 32; 
200 16; 201 35; 202 76; 203 263; 204 999; 
205 309; 206 45; 207 51; 208 11; 209 6; 
210 2; 211 11; 212 26; 213 23; 214 22; 
215 11; 216 12; 217 21; 218 22; 219 117; 
220 18; 221 2; 224 11; 225 6; 226 8; 
227 5; 228 6; 229 9; 230 22; 231 30; 
232 66; 233 13; 234 3; 237 17; 238 159; 
239 191; 240 95; 241 71; 242 18; 243 27; 
244 19; 245 204; 246 40; 247 3; 251 6; 
252 10; 253 88; 254 52; 255 34; 256 16; 
257 3; 264 3; 265 30; 266 65; 267 25; 
268 28; 269 8; 271 3; 272 13; 273 420; 
274 86; 275 8; 277 7; 278 7; 279 910; 
280 202; 281 291; 282 76; 283 8; 293 9; 
295 2; 307 195; 308 456; 309 164; 310 147; 
311 29; 312 3; 
