Name: AM2201
Synon: [1-(5-fluoropentyl)-1H-indol-3-yl]-1-naphthalenyl-methanone
Synon: 1-(5-fluoropentyl)-3-(1-naphthoyl)indole
InChIKey: ALQFAGFPQCBPED-UHFFFAOYSA-N
Formula: C24H22FNO
MW: 359
ExactMass: 359.168543
CASNO: 335161245
ID: 3892
Comment: Jason Nawyn / standard from Cayman Chemicals (lot # 0427135-1) / SWGDRUG Monograph available
Num Peaks: 201
39 9; 40 1; 41 57; 42 2; 43 24; 
47 15; 50 2; 51 7; 52 2; 53 3; 
55 3; 59 4; 61 4; 62 2; 63 7; 
64 1; 65 2; 67 2; 69 11; 74 4; 
75 12; 76 9; 77 28; 78 4; 86 1; 
87 4; 88 7; 89 26; 90 4; 95 2; 
99 2; 100 3; 101 29; 102 27; 103 9; 
104 2; 107 5; 108 1; 109 1; 112 2; 
113 15; 114 14; 115 31; 116 72; 117 13; 
118 2; 119 1; 120 1; 121 14; 125 4; 
126 48; 127 314; 128 90; 129 32; 130 25; 
131 4; 132 2; 133 1; 134 1; 135 3; 
139 10; 140 4; 142 90; 143 15; 144 206; 
145 22; 146 2; 149 1; 150 2; 151 3; 
152 3; 153 2; 154 7; 155 150; 156 24; 
157 5; 158 4; 162 1; 163 4; 164 1; 
165 2; 166 1; 167 90; 168 15; 169 2; 
170 12; 171 2; 173 1; 174 2; 175 1; 
176 4; 177 1; 178 1; 180 5; 181 2; 
184 6; 185 2; 186 1; 187 7; 188 4; 
189 7; 190 2; 191 1; 192 1; 198 1; 
199 1; 200 4; 201 3; 202 5; 203 1; 
204 9; 205 2; 210 1; 211 4; 212 15; 
213 35; 214 20; 215 28; 216 6; 217 1; 
224 4; 225 5; 226 19; 227 10; 228 12; 
229 6; 230 4; 231 1; 232 472; 233 73; 
234 6; 237 1; 238 7; 239 12; 240 39; 
241 91; 242 40; 243 11; 244 2; 251 6; 
252 7; 253 16; 254 101; 255 50; 256 64; 
257 15; 258 2; 264 1; 265 4; 266 22; 
267 32; 268 24; 269 47; 270 168; 271 39; 
272 6; 273 1; 278 2; 280 11; 281 5; 
282 23; 283 21; 284 519; 285 122; 286 14; 
287 1; 294 4; 295 1; 296 9; 297 2; 
298 7; 299 2; 302 1; 308 2; 309 1; 
310 3; 311 1; 312 3; 313 1; 322 5; 
323 1; 324 2; 326 2; 330 9; 331 9; 
332 1; 338 8; 339 37; 340 34; 341 11; 
342 447; 343 121; 344 16; 345 2; 356 1; 
357 3; 358 436; 359 999; 360 250; 361 32; 
362 3; 
