Name: 4-APB
Synon: 4-(2-aminopropyl)benzofuran
Synon: .alpha.-methyl-4-benzofuranethanamine
InChIKey: XROLBZOMVNMIFN-UHFFFAOYSA-N
Formula: C11H13NO
MW: 175
ExactMass: 175.099714
CASNO: 286834820
ID: 3897
Comment: ENFSI / IFS Hungary / SWGDRUG Monograph available
Num Peaks: 85
41 4; 42 24; 43 6; 44 999; 45 26; 
50 17; 51 31; 52 8; 53 9; 55 1; 
58 5; 59 2; 61 4; 62 12; 63 29; 
64 4; 65 16; 66 16; 67 5; 71 3; 
73 1; 74 12; 75 13; 76 18; 77 119; 
78 22; 79 5; 80 7; 81 3; 83 3; 
84 3; 86 4; 87 6; 88 5; 89 10; 
90 5; 91 7; 92 2; 93 2; 94 1; 
95 3; 97 2; 98 3; 101 9; 102 54; 
103 35; 104 29; 105 12; 106 2; 107 3; 
115 14; 116 5; 117 4; 118 6; 119 3; 
120 2; 123 2; 124 2; 127 7; 128 19; 
129 7; 130 24; 131 229; 132 90; 133 10; 
135 1; 142 2; 143 2; 144 6; 145 2; 
146 4; 147 2; 148 2; 155 3; 156 3; 
157 2; 158 7; 159 8; 160 10; 161 2; 
171 2; 173 6; 174 5; 175 27; 176 2; 
