Name: 6-APDB
Synon: 4-Desoxy-MDA
Synon: EMA-3
Synon: 6-(2-Aminopropyl)-2,3-dihydrobenzofuran
InChIKey: VRNGXHJGMCJRSQ-UHFFFAOYSA-N
Formula: C11H15NO
MW: 177
ExactMass: 177.115364
CASNO: 152623933
ID: 3901
Comment: DEA SFL1 lot N16-P93B / SWGDRUG Monograph available
Num Peaks: 71
38 2; 39 19; 40 3; 41 6; 42 23; 
43 8; 44 999; 45 26; 50 8; 51 23; 
52 7; 53 10; 54 1; 55 4; 56 3; 
57 2; 58 1; 59 1; 62 4; 63 13; 
64 3; 65 14; 66 5; 72 1; 74 2; 
75 3; 76 3; 77 50; 78 16; 79 17; 
80 2; 81 3; 87 1; 89 6; 90 3; 
91 30; 92 3; 101 1; 102 7; 103 22; 
104 8; 105 14; 106 4; 107 2; 115 12; 
116 3; 117 6; 118 3; 119 17; 120 3; 
127 1; 128 2; 129 1; 130 2; 131 10; 
132 5; 133 49; 134 138; 135 15; 136 1; 
144 1; 145 1; 146 1; 159 1; 160 2; 
161 1; 162 3; 175 1; 176 1; 177 7; 
178 1; 
