Name: 1-Benzylpiperazine
Synon: BZP
Synon: N-Benzylpiperazine
Synon: 1-(Phenylmethyl)piperazine
Synon: 4-Benzylpiperazine
InChIKey: IQXXEPZFOOTTBA-UHFFFAOYSA-N
Formula: C11H16N2
MW: 176
ExactMass: 176.131349
CASNO: 2759286
ID: 3902
Comment: DEA SWL / SWGDRUG Monograph available
Num Peaks: 81
40 4; 41 26; 42 63; 43 18; 44 16; 
45 2; 50 8; 51 22; 52 7; 53 2; 
54 16; 55 16; 56 196; 57 32; 58 36; 
59 1; 61 1; 62 6; 63 24; 64 7; 
65 118; 66 7; 68 3; 69 2; 70 6; 
71 13; 72 2; 74 2; 75 2; 76 2; 
77 13; 78 5; 79 2; 81 2; 82 1; 
83 13; 84 5; 85 96; 86 6; 87 2; 
88 1; 89 31; 90 17; 91 999; 92 81; 
93 3; 99 13; 100 1; 102 1; 103 4; 
104 31; 105 11; 106 3; 115 2; 116 1; 
117 11; 118 62; 119 26; 120 74; 121 12; 
130 5; 131 13; 132 24; 133 25; 134 681; 
135 71; 136 3; 144 2; 145 5; 146 48; 
147 23; 148 2; 149 1; 158 1; 159 3; 
161 4; 174 1; 175 21; 176 131; 177 16; 
178 1; 
