Name: 1,4 Butanediol
Synon: 1,4-BD
Synon: 1,4-Tetramethylene glycol
Synon: Butylene glycol
Synon: 1,4-Butylene glycol
Synon: Sucol-B
Synon: 1,4-Dihydroxybutane
InChIKey: WERYXYBDKMZEQL-UHFFFAOYSA-N
Formula: C4H10O2
MW: 90
ExactMass: 90.0680795
CASNO: 110634
ID: 3904
Comment: DEA SWL / SWGDRUG Monograph available
Num Peaks: 27
40 60; 41 408; 42 999; 43 274; 44 864; 
45 53; 46 3; 47 6; 49 9; 50 5; 
51 6; 52 1; 53 28; 54 17; 55 28; 
56 3; 57 266; 58 12; 59 10; 60 48; 
61 6; 62 32; 69 3; 71 276; 72 66; 
73 5; 89 1; 
