Name: Carisoprodol
Synon: Soma
Synon: Carbamic acid, (1-methylethyl)-, 2-[[(aminocarbonyl)oxy]methyl]-2-methylpentyl ester
Synon: N-Isopropylmeprobamate
Synon: Isopropylcarbamate
InChIKey: OFZCIYFFPZCNJE-UHFFFAOYSA-N
Formula: C12H24N2O4
MW: 260
ExactMass: 260.173607
CASNO: 78444
ID: 3905
Comment: DEA SWL / SWGDRUG Monograph available
Num Peaks: 82
40 27; 41 372; 42 169; 43 645; 44 421; 
45 105; 46 11; 51 6; 52 5; 53 50; 
54 29; 55 999; 56 507; 57 156; 58 725; 
59 137; 60 21; 62 367; 63 6; 65 8; 
66 3; 67 48; 68 22; 69 185; 70 200; 
71 248; 72 72; 73 28; 74 21; 75 29; 
76 4; 77 5; 79 11; 80 1; 81 71; 
82 15; 83 261; 84 226; 85 60; 86 144; 
87 9; 88 57; 89 6; 92 8; 95 11; 
96 71; 97 454; 98 77; 99 20; 100 11; 
101 49; 102 128; 103 11; 104 639; 105 30; 
106 3; 112 3; 113 6; 114 86; 115 66; 
116 7; 117 9; 118 4; 123 4; 132 1; 
134 3; 140 1; 142 3; 143 1; 144 11; 
147 4; 157 11; 158 399; 159 35; 160 3; 
176 27; 184 69; 185 8; 186 15; 202 13; 
245 47; 246 5; 
