Name: Cathine
Synon: d-Norpseudoephedrine
Synon: (1S,2S)-2-amino-1-phenylpropan-1-ol
InChIKey: DLNKOYKMWOXYQA-UHFFFAOYSA-N
Formula: C9H13NO
MW: 151
ExactMass: 151.099714
CASNO: 492397
ID: 3906
Comment: DEA SWL / SWGDRUG Monograph Available
Num Peaks: 48
40 3; 41 5; 42 28; 43 13; 44 999; 
45 29; 50 15; 51 41; 52 12; 53 8; 
54 1; 55 2; 56 2; 57 2; 59 2; 
62 3; 63 9; 64 2; 65 6; 66 1; 
73 1; 74 5; 75 3; 76 3; 77 103; 
78 24; 79 60; 80 4; 89 7; 90 3; 
91 13; 92 1; 102 1; 103 2; 104 1; 
105 24; 106 6; 107 17; 108 2; 115 4; 
116 1; 117 10; 118 9; 119 2; 130 1; 
132 3; 133 2; 134 1; 
