Name: CB-13
Synon: Naphthalen-1-yl-(4-pentyloxynaphthalen-1-yl)methanone
Synon: CRA-13
Synon: 1-naphthalenyl[4-(pentylox)-1-naphthalenyl]-methanone
Synon: SAB-378
InChIKey: RSUMDJRTAFBISX-UHFFFAOYSA-N
Formula: C26H24O2
MW: 368
ExactMass: 368.17763
CASNO: 432047728
ID: 3907
Comment: Jason Nawyn / standard from Cayman Chemicals (lot # 0412100-4) / SWGDRUG Monograph Available
Num Peaks: 144
39 10; 40 1; 41 51; 42 6; 43 114; 
44 3; 50 1; 51 3; 53 3; 55 14; 
62 1; 63 5; 64 1; 65 2; 69 3; 
71 6; 74 3; 75 8; 76 5; 77 22; 
78 2; 86 1; 87 3; 88 8; 89 7; 
98 1; 99 2; 100 3; 101 15; 102 3; 
105 1; 107 1; 112 1; 113 15; 114 51; 
115 78; 116 7; 119 1; 120 8; 125 12; 
126 68; 127 303; 128 105; 129 10; 134 4; 
135 1; 139 3; 140 2; 141 4; 142 9; 
143 82; 144 9; 150 1; 151 1; 152 1; 
153 2; 154 6; 155 183; 156 22; 157 2; 
163 2; 164 1; 165 3; 168 1; 169 1; 
170 26; 171 631; 172 75; 173 6; 174 1; 
176 1; 183 9; 184 1; 187 3; 188 1; 
189 2; 197 4; 198 1; 199 1; 200 2; 
201 1; 202 4; 211 4; 212 2; 213 10; 
214 3; 215 10; 216 2; 224 4; 225 3; 
226 24; 227 5; 228 2; 235 1; 236 2; 
237 24; 238 13; 239 176; 240 71; 241 85; 
242 18; 243 2; 248 2; 249 2; 250 26; 
251 29; 252 59; 253 31; 254 9; 255 20; 
256 5; 257 1; 263 1; 265 1; 266 1; 
267 8; 268 61; 269 110; 270 56; 271 13; 
272 1; 279 7; 280 28; 281 434; 282 99; 
283 15; 284 2; 295 4; 296 9; 297 558; 
298 502; 299 103; 300 12; 301 1; 311 2; 
339 1; 351 9; 352 2; 366 1; 367 11; 
368 999; 369 281; 370 42; 371 4; 
