Name: Dimemebfe
Synon: 5-MeO-BFE
Synon: 2-(5-Methoxy-1-benzofuran-3-yl)-N,N-dimethylethanamine
InChIKey: WBPQJTBOQCCTFX-UHFFFAOYSA-N
Formula: C13H17NO2
MW: 219
ExactMass: 219.125929
CASNO: 140853583
ID: 3909
Comment: DEA SFL1 / Lot #N17-P36B / SWGDRUG Monograph available
Num Peaks: 80
29 6; 30 20; 38 1; 39 5; 40 1; 
41 3; 42 45; 43 11; 44 4; 50 5; 
51 10; 52 3; 53 3; 54 3; 55 2; 
56 7; 57 9; 58 999; 59 37; 62 4; 
63 13; 64 4; 65 4; 66 1; 70 1; 
71 1; 74 3; 75 5; 76 7; 77 18; 
78 5; 79 3; 82 2; 86 1; 87 2; 
88 2; 89 23; 90 13; 91 8; 92 3; 
94 1; 101 3; 102 10; 103 18; 104 5; 
105 3; 106 1; 107 1; 114 1; 115 13; 
116 3; 117 4; 118 23; 119 3; 120 1; 
128 1; 129 1; 130 3; 131 8; 132 9; 
133 2; 144 2; 145 2; 146 18; 147 4; 
159 6; 160 3; 161 30; 162 4; 173 1; 
174 6; 175 7; 176 1; 188 1; 202 1; 
203 1; 216 2; 217 1; 219 7; 220 1; 
