Name: N-Ethyl-dimemebfe
Synon: Dimemebfe N-ethyl analogue
Synon: 2-(5-Methoxy-1-benzofuran-3-yl)-N-ethylethanamine
InChIKey: WXAZMCIXOIUGTM-UHFFFAOYSA-N
Formula: C13H17NO2
MW: 219
ExactMass: 219.125929
CASNO: 0
ID: 3910
Comment: DEA SFL1 / Lot #N17-P38B / SWGDRUG Monograph available
Num Peaks: 81
29 26; 30 130; 31 2; 38 1; 39 8; 
40 1; 41 4; 42 16; 43 6; 44 2; 
50 6; 51 15; 52 4; 53 5; 54 5; 
55 3; 56 32; 57 10; 58 999; 59 39; 
62 5; 63 18; 64 7; 65 9; 66 1; 
67 1; 74 3; 75 6; 76 8; 77 23; 
78 6; 79 4; 80 1; 82 2; 86 1; 
87 2; 88 2; 89 29; 90 19; 91 14; 
92 5; 93 1; 95 1; 101 3; 102 14; 
103 19; 104 6; 105 3; 106 1; 107 1; 
115 11; 116 3; 117 5; 118 28; 119 5; 
120 1; 123 2; 128 1; 129 1; 130 3; 
131 8; 132 6; 133 3; 134 1; 144 1; 
145 1; 146 21; 147 10; 148 1; 159 4; 
160 2; 161 41; 162 34; 163 3; 174 6; 
175 4; 189 1; 202 1; 217 1; 219 24; 
220 3; 
