Name: 3,4-Dimethylmethcathinone
Synon: 1-(3,4-dimethylphenyl)-2-(methylamino)propan-1-one
Synon: 3,4-DMMC
InChIKey: IBZRXTVDTGVBIS-UHFFFAOYSA-N
Formula: C12H17NO
MW: 191
ExactMass: 191.131014
CASNO: 1081772066
ID: 3912
Comment: ENFSI / NFI case sample / SWGDRUG Monograph available
Num Peaks: 64
39 6; 40 1; 41 4; 42 15; 43 9; 
44 1; 50 3; 51 11; 52 3; 53 6; 
54 2; 55 4; 56 52; 57 17; 58 999; 
59 37; 62 2; 63 10; 64 2; 65 8; 
66 1; 74 1; 75 2; 76 2; 77 45; 
78 16; 79 30; 80 2; 87 1; 89 6; 
90 2; 91 13; 92 1; 102 5; 103 30; 
104 9; 105 31; 106 4; 107 1; 115 4; 
116 1; 117 2; 118 1; 119 5; 128 1; 
129 1; 130 1; 131 1; 132 2; 133 34; 
134 3; 144 1; 145 1; 146 1; 147 1; 
148 2; 158 1; 160 2; 161 2; 162 1; 
174 1; 175 1; 176 3; 192 1; 
