Name: EAM2201
Synon: [1-(5-fluoropentyl)-1H-indol-3-yl](4-ethyl-1-naphthalenyl)-methanone
Synon: JWH-210 N-(5-fluoropentyl) analog
Synon: AM2201 4-ethylnaphthyl analog
Synon: 5-Fluoro-JWH-210
Synon: 5F-JWH-210
InChIKey: NSCXPXDWLZORPX-UHFFFAOYSA-N
Formula: C26H26FNO
MW: 387
ExactMass: 387.199842
CASNO: 1364933607
ID: 3913
Comment: Provided by www.caymanchem.com/app/template/landing%2CForensic.vm / Item #11916  Lot #0440319 / SWGDRUG Monograph available
Num Peaks: 150
41 318; 42 34; 43 141; 47 97; 51 18; 
53 24; 55 39; 59 25; 61 28; 63 37; 
67 18; 69 56; 73 19; 75 46; 76 41; 
77 76; 78 21; 87 23; 88 20; 89 112; 
91 23; 101 67; 102 180; 103 47; 113 35; 
114 70; 115 253; 116 251; 117 62; 120 31; 
121 45; 126 71; 127 188; 128 241; 129 266; 
130 129; 131 21; 132 26; 134 68; 135 33; 
139 264; 140 165; 142 141; 144 694; 145 80; 
147 25; 149 77; 150 22; 151 40; 152 235; 
153 363; 154 179; 155 196; 156 96; 157 37; 
158 24; 165 21; 166 19; 167 39; 168 20; 
170 47; 180 19; 181 31; 183 404; 184 81; 
191 20; 193 31; 194 23; 195 356; 196 70; 
200 20; 201 22; 202 26; 204 25; 207 6; 
212 25; 213 40; 214 41; 215 33; 224 32; 
225 28; 226 95; 227 58; 228 61; 229 30; 
230 20; 232 999; 233 180; 234 26; 237 25; 
238 23; 239 69; 240 74; 241 216; 242 67; 
251 43; 252 44; 253 110; 254 434; 255 190; 
256 73; 264 22; 265 42; 266 66; 267 114; 
268 145; 269 201; 270 275; 271 67; 278 19; 
279 18; 280 34; 281 77; 282 214; 283 285; 
284 155; 285 32; 294 64; 295 72; 296 81; 
298 272; 299 44; 300 19; 308 23; 309 21; 
310 37; 312 833; 313 196; 314 29; 324 18; 
330 22; 338 21; 340 27; 341 20; 344 47; 
345 21; 354 18; 358 367; 359 97; 360 17; 
366 18; 367 62; 368 45; 370 562; 371 172; 
372 26; 386 429; 387 874; 388 280; 389 24; 
