Name: N-Ethylbuphedrone
Synon: 2-(ethylamino)-1-phenylbutan-1-one
Synon: NEB
InChIKey: HEPVRDHGUWFXJS-UHFFFAOYSA-N
Formula: C12H17NO
MW: 191
ExactMass: 191.131014
CASNO: 0
ID: 3916
Comment: Provided by www.caymanchem.com/app/template/landing%2CForensic.vm / Item #11665  Lot #0438716 / SWGDRUG Monograph available
Num Peaks: 62
41 96; 42 25; 43 20; 44 22; 50 28; 
51 89; 52 8; 53 3; 54 7; 55 8; 
56 69; 58 137; 59 6; 62 2; 63 5; 
64 1; 65 4; 67 1; 68 5; 69 3; 
70 31; 71 7; 73 1; 74 9; 75 8; 
77 227; 78 20; 79 6; 80 1; 82 1; 
84 26; 86 999; 87 58; 88 2; 89 4; 
90 2; 91 12; 92 1; 102 1; 103 2; 
105 69; 106 10; 107 1; 115 4; 116 2; 
117 3; 118 3; 127 1; 128 1; 130 1; 
131 1; 132 1; 133 3; 134 7; 144 1; 
146 4; 147 1; 148 2; 158 1; 162 11; 
163 1; 192 1; 
