Name: Ethylphenidate
Synon: Ethyl 2-phenyl-2-(piperidin-2-yl)acetate
Synon: EP
Synon: Ritalinic acid ethyl ester
InChIKey: AIVSIRYZIBXTMM-UHFFFAOYSA-N
Formula: C15H21NO2
MW: 247
ExactMass: 247.157228
CASNO: 57413431
ID: 3918
Comment: ENFSI / "Nopaine", "Fake cocaine"; FSI Zurich, Switzerland; confirmed  by NMR / SWGDRUG Monograph available
Num Peaks: 82
30 11; 31 1; 38 2; 39 19; 40 2; 
41 19; 42 13; 43 4; 44 2; 45 1; 
50 4; 51 12; 52 4; 53 5; 54 13; 
55 159; 56 80; 57 5; 62 3; 63 14; 
64 4; 65 119; 66 3; 67 8; 68 8; 
69 2; 70 1; 74 1; 75 1; 76 2; 
77 21; 78 5; 79 13; 80 4; 81 1; 
82 75; 83 110; 84 999; 85 59; 86 2; 
89 25; 90 26; 91 964; 92 27; 93 1; 
96 1; 97 1; 102 6; 103 9; 104 4; 
105 9; 106 1; 107 5; 115 31; 116 14; 
117 40; 118 50; 119 8; 120 1; 127 3; 
128 9; 129 12; 130 20; 131 6; 132 6; 
135 2; 136 6; 141 1; 142 1; 143 2; 
144 7; 145 2; 146 1; 158 1; 164 279; 
165 4; 170 1; 172 11; 173 4; 174 6; 
245 1; 246 1; 
