Name: 2-Fluoroethcathinone
Synon: 2-FEC
Synon: 2-(ethylamino)-1-(2-fluorophenyl)propan-1-one
InChIKey: HTIPESHOKKKFAV-UHFFFAOYSA-N
Formula: C11H14FNO
MW: 195
ExactMass: 195.105943
CASNO: 0
ID: 3927
Comment: Broward Sheriff Office Drug Library / SWGDRUG Monograph available
Num Peaks: 79
38 1; 39 6; 40 3; 41 12; 42 74; 
43 17; 44 496; 45 14; 49 1; 50 18; 
51 16; 52 2; 53 2; 54 5; 55 9; 
56 50; 57 11; 61 1; 62 3; 63 4; 
65 1; 68 9; 69 16; 70 35; 71 8; 
72 999; 73 50; 74 13; 75 82; 76 8; 
77 13; 78 1; 81 2; 83 2; 89 2; 
90 1; 91 1; 92 1; 93 3; 94 12; 
95 110; 96 13; 97 5; 101 3; 102 2; 
103 6; 104 4; 105 2; 107 2; 109 14; 
110 1; 115 2; 117 1; 118 1; 119 2; 
120 2; 121 2; 122 2; 123 95; 124 10; 
125 1; 131 1; 132 2; 133 3; 134 1; 
135 2; 136 1; 144 1; 146 2; 150 4; 
151 4; 152 9; 153 1; 160 1; 164 1; 
175 1; 178 1; 180 3; 194 1; 
