Name: 5-Fluoro-NNEI
Synon: 1-(5-Fluoropentyl)-N-(naphthalen-1-yl)-1H-indole-3-carboxamide
Synon: 5F-NNEI
Synon: 5-Fluoro-MN-24
Synon: CBM-2201
Synon: MN-24F
Synon: 5F-MN-24
InChIKey: DJKVOBZLMBHFKX-UHFFFAOYSA-N
Formula: C24H23FN2O
MW: 374
ExactMass: 374.179441
CASNO: 1445580608
ID: 3930
Comment: Provided by www.caymanchem.com/app/template/landing%2CForensic.vm / Item #14147  Lot #0446299 / SWGDRUG Monograph available
Num Peaks: 135
41 36; 42 3; 43 14; 44 1; 47 7; 
50 1; 51 1; 52 1; 53 2; 55 2; 
57 1; 59 3; 61 3; 62 3; 63 7; 
64 2; 65 4; 67 3; 69 12; 71 1; 
72 1; 73 1; 74 2; 75 8; 76 8; 
77 9; 78 3; 86 1; 87 4; 88 8; 
89 31; 90 4; 91 1; 100 1; 101 11; 
102 26; 103 8; 105 1; 113 6; 115 177; 
116 92; 117 12; 118 2; 126 3; 127 7; 
128 25; 129 44; 130 19; 131 3; 132 1; 
135 2; 136 1; 140 15; 141 9; 142 46; 
143 59; 144 199; 145 18; 146 2; 147 1; 
149 16; 154 5; 155 9; 156 8; 157 10; 
158 5; 159 1; 166 1; 167 2; 168 3; 
169 5; 170 9; 171 3; 172 1; 173 1; 
174 1; 176 3; 177 1; 180 1; 182 2; 
183 1; 184 4; 185 1; 186 1; 187 2; 
192 1; 197 1; 198 1; 202 1; 203 1; 
204 4; 205 2; 207 4; 208 1; 210 2; 
212 41; 213 7; 214 5; 215 2; 226 1; 
227 2; 228 2; 230 11; 232 999; 233 144; 
234 11; 240 1; 241 1; 242 2; 253 3; 
254 2; 255 2; 256 3; 257 2; 266 1; 
267 2; 268 2; 269 2; 270 1; 281 3; 
282 1; 284 2; 285 5; 286 1; 297 1; 
299 2; 327 1; 345 1; 352 1; 354 2; 
355 1; 358 1; 374 55; 375 13; 376 2; 
