Name: GHB (converts to GBL on mass spec)
Synon: gamma-Hydroxybutyrate
Synon: 4-Hydroxybutyrate
Synon: 4-Hydroxybutanoic acid
InChIKey: SJZRECIVHVDYJC-UHFFFAOYSA-M
Formula: C4H8O3
MW: 104
ExactMass: 104.047344
CASNO: 502852
ID: 3931
Comment: DEA SWL / SWGDRUG Monograph available
Num Peaks: 14
40 116; 41 506; 42 999; 43 57; 44 21; 
45 7; 53 17; 54 7; 55 80; 56 294; 
57 57; 85 88; 86 321; 87 15; 
