Name: UR-144 N-heptyl analog
Synon: (1-heptyl-1H-indol-3-yl)(2,2,3,3-tetramethylcyclopropyl)methanone
Synon: Heptyl-UR-144
InChIKey: VMYRYXPWWCSDCO-UHFFFAOYSA-N
Formula: C23H33NO
MW: 339
ExactMass: 339.256214
CASNO: 0
ID: 3932
Comment: Provided by www.caymanchem.com/app/template/landing%2CForensic.vm / Item #14231  Lot #0445912 / SWGDRUG Monograph available
Num Peaks: 183
41 70; 42 7; 43 50; 44 3; 51 1; 
53 8; 55 57; 56 6; 57 40; 58 3; 
59 11; 63 3; 64 1; 65 4; 66 2; 
67 15; 68 2; 69 19; 70 2; 73 2; 
75 1; 76 3; 77 11; 78 1; 79 15; 
81 31; 82 4; 83 35; 84 3; 87 1; 
88 3; 89 15; 90 4; 91 5; 92 1; 
93 1; 95 4; 96 6; 97 19; 98 2; 
101 6; 102 20; 103 10; 104 2; 105 1; 
107 1; 109 21; 110 2; 111 1; 113 10; 
114 6; 115 32; 116 46; 117 16; 118 9; 
120 10; 124 1; 125 12; 126 2; 127 6; 
128 22; 129 36; 130 71; 131 12; 132 5; 
133 2; 134 1; 135 1; 139 2; 140 3; 
141 4; 142 8; 143 43; 144 179; 145 18; 
146 1; 151 1; 152 5; 153 4; 154 14; 
155 7; 156 13; 157 15; 158 12; 159 4; 
162 1; 165 4; 166 6; 167 34; 168 22; 
169 7; 170 23; 171 16; 172 8; 173 4; 
174 1; 178 2; 179 3; 180 25; 181 21; 
182 29; 183 9; 184 14; 185 4; 186 3; 
187 1; 191 1; 192 3; 193 4; 194 16; 
195 7; 196 37; 197 13; 198 12; 199 3; 
200 4; 204 1; 207 6; 208 7; 209 4; 
210 28; 211 6; 212 9; 213 2; 214 4; 
215 25; 216 16; 217 2; 220 1; 221 1; 
222 3; 224 20; 225 7; 226 5; 227 2; 
228 4; 229 1; 236 2; 237 1; 238 4; 
239 4; 240 14; 242 999; 243 175; 244 18; 
245 1; 250 1; 251 1; 252 3; 253 2; 
254 14; 255 4; 256 18; 257 43; 258 8; 
259 1; 266 57; 267 12; 268 3; 269 1; 
270 1; 271 1; 280 67; 281 45; 282 12; 
283 2; 294 1; 296 34; 297 9; 298 14; 
299 3; 308 2; 309 5; 310 2; 311 1; 
322 9; 324 158; 325 35; 326 4; 337 1; 
339 102; 340 24; 341 3; 
