Name: JWH-200
Synon: (1-(2-morpholin-4-ylethyl)indol-3-yl)-naphthalen-1-ylmethanone
Synon: 1-[2-(4-Morpholinyl)ethyl]-3-(1-naphthoyl)indole
Synon: WIN 55,225
InChIKey: SZWYXJHTNGJPKU-UHFFFAOYSA-N
Formula: C25H24N2O2
MW: 384
ExactMass: 384.183779
CASNO: 103610044
ID: 3934
Comment: Jason Nawyn / SWGDRUG Monograph available
Num Peaks: 100
39 1; 40 1; 41 6; 42 17; 43 1; 
45 2; 50 1; 51 2; 54 3; 55 10; 
56 66; 57 4; 63 1; 69 1; 70 26; 
71 1; 72 10; 74 1; 75 5; 76 4; 
77 8; 82 1; 88 2; 89 3; 98 9; 
100 999; 101 69; 102 18; 103 2; 107 1; 
112 3; 113 2; 114 3; 115 12; 116 4; 
117 1; 121 1; 126 14; 127 92; 128 27; 
129 11; 130 2; 134 1; 139 2; 140 1; 
141 2; 142 1; 143 4; 144 2; 155 46; 
156 7; 157 1; 163 1; 167 1; 170 5; 
187 1; 189 1; 199 1; 200 1; 202 1; 
211 1; 213 5; 214 3; 215 2; 224 1; 
225 2; 226 8; 227 4; 228 3; 229 1; 
238 1; 239 3; 240 7; 241 6; 242 2; 
251 1; 252 2; 253 1; 254 22; 255 11; 
256 4; 265 2; 266 5; 267 2; 268 2; 
269 5; 270 6; 271 1; 280 1; 282 1; 
283 1; 284 20; 285 5; 296 3; 297 2; 
339 4; 382 3; 384 122; 385 34; 386 5; 
