Name: Lisdexamfetamine
Synon: N-lysine-dextroamphetamine
Synon: Vyvanse
Synon: l-Lysine-d-amphetamine
Synon: Tyvense
Synon: Elvanse
Synon: Venvanse
InChIKey: VOBHXZCDAVEXEY-JSGCOSHPSA-N
Formula: C15H25N3O
MW: 263
ExactMass: 263.199762
CASNO: 608137322
ID: 3935
Comment: DEA SWL / AMRI lot 2001H / SWGDRUG Monograph available
Num Peaks: 75
41 22; 42 20; 43 46; 44 50; 45 2; 
46 1; 50 2; 51 6; 52 2; 53 2; 
54 5; 55 11; 56 88; 57 13; 58 4; 
63 4; 65 24; 66 1; 67 24; 68 5; 
69 6; 70 14; 71 9; 72 19; 73 6; 
74 1; 77 9; 78 2; 79 2; 81 1; 
82 30; 83 9; 84 999; 85 61; 86 3; 
89 4; 90 3; 91 138; 92 15; 96 1; 
98 2; 99 4; 100 8; 101 301; 102 24; 
103 5; 104 2; 105 1; 107 1; 110 9; 
112 5; 114 2; 115 9; 116 2; 117 16; 
118 20; 119 14; 120 3; 125 1; 127 5; 
128 13; 129 10; 134 6; 136 17; 137 3; 
153 8; 154 2; 155 31; 156 6; 162 2; 
172 52; 173 4; 191 1; 192 1; 263 2; 
