Name: 3-4-Methylenedioxy-N,N-Dimethylamphetamine
Synon: N,N-dimethyl-3.4-methylenedioxyamphetamine
Synon: MDDMA
Synon: MDDM
InChIKey: JEJGUIDNYBAPGN-UHFFFAOYSA-N
Formula: C12H17NO2
MW: 207
ExactMass: 207.125929
CASNO: 74698503
ID: 3936
Comment: DEA SWL / SWGDRUG Monograph available
Num Peaks: 64
40 1; 41 6; 42 42; 43 6; 44 39; 
45 1; 50 7; 51 32; 52 5; 53 5; 
54 3; 55 5; 56 36; 57 15; 58 3; 
62 3; 63 8; 64 2; 65 7; 66 1; 
67 1; 70 25; 71 11; 72 999; 73 46; 
74 2; 75 2; 76 3; 77 37; 78 9; 
79 7; 87 1; 89 5; 90 1; 91 5; 
92 1; 94 1; 96 9; 102 2; 103 9; 
104 5; 105 12; 106 2; 117 1; 118 2; 
119 1; 121 1; 131 4; 132 3; 133 3; 
134 2; 135 30; 136 3; 146 1; 147 3; 
148 3; 160 1; 161 2; 162 4; 163 4; 
190 2; 191 1; 192 3; 206 1; 
