Name: MDPBP
Synon: 3',4'-Methylenedioxy-.alpha.-pyrrolidinobutiophenone
Synon: 1-(1,3-benzodioxol-5-yl)-2-(1-pyrrolidinyl)-1-butanone
Synon: 3,4-MDPBP
InChIKey: OLVLMDVPMCIBQW-UHFFFAOYSA-N
Formula: C15H19NO3
MW: 261
ExactMass: 261.136494
CASNO: 24622604
ID: 3937
Comment: ENFSI / NFI case sample / SWGDRUG Monograph available
Num Peaks: 75
38 1; 39 14; 40 2; 41 38; 42 29; 
43 11; 44 2; 50 2; 51 4; 52 1; 
53 7; 54 15; 55 42; 56 11; 57 1; 
58 9; 61 1; 62 7; 63 27; 64 3; 
65 42; 66 3; 67 2; 68 8; 69 11; 
70 43; 71 2; 74 1; 76 1; 77 4; 
78 1; 79 3; 80 2; 81 1; 82 4; 
83 2; 84 3; 89 1; 90 1; 91 13; 
92 2; 93 1; 94 2; 95 2; 96 19; 
97 12; 98 1; 103 1; 105 2; 108 2; 
110 30; 111 7; 112 999; 113 81; 114 2; 
115 1; 117 1; 118 1; 119 3; 120 2; 
121 27; 122 3; 135 4; 146 1; 147 2; 
148 1; 149 36; 150 3; 160 1; 175 1; 
177 1; 190 1; 204 1; 232 2; 259 1; 
