Name: 4-Methoxy-N-ethylcathinone
Synon: 2-(ethylamino)-1-(4-methoxyphenyl)propan-1-one
InChIKey: PQSQDPOOHCWQBL-UHFFFAOYSA-N
Formula: C12H17NO2
MW: 207
ExactMass: 207.125929
CASNO: 0
ID: 3938
Comment: DEA SFL1 / Lot #TAD0411 / SWGDRUG Monograph available
Num Peaks: 58
29 32; 30 6; 37 1; 38 7; 39 9; 
40 2; 41 8; 42 50; 43 11; 44 298; 
45 9; 50 13; 51 12; 52 2; 53 5; 
54 2; 55 7; 56 35; 57 5; 62 4; 
63 27; 64 35; 65 9; 66 3; 68 1; 
70 26; 71 7; 72 999; 73 51; 74 4; 
75 3; 76 10; 77 65; 78 9; 79 5; 
89 1; 91 6; 92 57; 93 5; 94 2; 
103 3; 104 2; 105 2; 106 1; 107 17; 
108 4; 109 1; 119 1; 120 1; 121 8; 
122 1; 133 1; 134 1; 135 63; 136 6; 
162 1; 163 1; 164 3; 
