Name: 5-Methoxy-N,N-methylisopropyltryptamine
Synon: 5-MeO-N,N-MiPT
Synon: TIHKAL #40
Synon: 5-MeO-MiPT
InChIKey: HEDOODBJFVUQMS-UHFFFAOYSA-N
Formula: C15H22N2O
MW: 246
ExactMass: 246.173213
CASNO: 96096558
ID: 3941
Comment: DEA SWL / SWGDRUG Monograph available
Num Peaks: 94
40 1; 41 16; 42 23; 43 34; 44 277; 
45 7; 50 1; 51 4; 52 3; 53 2; 
54 1; 55 2; 56 19; 57 2; 58 2; 
62 2; 63 8; 64 3; 65 3; 70 12; 
71 9; 72 4; 74 1; 75 4; 76 5; 
77 15; 78 4; 79 1; 80 2; 84 4; 
86 999; 87 56; 88 3; 89 21; 90 19; 
91 5; 92 1; 94 1; 100 1; 101 3; 
102 10; 103 13; 104 6; 105 1; 108 2; 
113 1; 114 2; 115 11; 116 16; 117 65; 
118 10; 119 1; 127 1; 128 8; 129 7; 
130 38; 131 16; 132 5; 133 1; 140 1; 
141 1; 142 4; 143 10; 144 12; 145 63; 
146 12; 147 3; 155 1; 156 1; 157 2; 
158 11; 159 19; 160 94; 161 14; 162 3; 
170 1; 171 1; 172 4; 173 10; 174 38; 
175 4; 185 1; 186 1; 187 2; 188 2; 
201 1; 202 2; 203 1; 215 1; 229 3; 
231 1; 244 1; 246 40; 247 7; 
