Name: MePPP
Synon: 4'-Methyl-.alpha.-pyrrolidinopropiophenone
Synon: 2-(pyrrolidin-1-yl)-1-(p-tolyl)propan-1-one
Synon: 4-MePPP
Synon: MPPP
Synon: 4-MePPP
InChIKey: APSJUNFBAXIXLK-UHFFFAOYSA-N
Formula: C14H19NO
MW: 217
ExactMass: 217.146665
CASNO: 1313393586
ID: 3944
Comment: ENFSI / IES Krakow, Poland / SWGDRUG Monograph available
Num Peaks: 53
29 11; 30 11; 38 1; 39 16; 40 2; 
41 25; 42 20; 43 4; 44 20; 50 2; 
51 5; 52 2; 53 4; 54 14; 55 36; 
56 89; 57 4; 62 2; 63 9; 64 3; 
65 33; 66 2; 67 1; 68 6; 69 25; 
70 12; 71 1; 75 1; 77 3; 78 1; 
79 1; 81 1; 89 9; 90 4; 91 46; 
92 3; 93 1; 94 1; 96 15; 98 999; 
99 73; 100 2; 103 1; 104 1; 105 2; 
115 2; 117 2; 118 1; 119 20; 120 1; 
133 1; 202 1; 216 1; 
