Name: 4-Methylamphetamine
Synon: 4-MA
Synon: PAL-313
Synon: Aptrol
Synon: p-TAP
Synon: p-Methylamphetamine
Synon: 1-(4-methylphenyl)propan-2-amine
InChIKey: ZDHZDWSHLNBTEB-UHFFFAOYSA-N
Formula: C10H15N
MW: 149
ExactMass: 149.120449
CASNO: 22683789
ID: 3945
Comment: ENFSI / NFI inhouse synthesis, JH032010 / SWGDRUG Monograph available
Num Peaks: 61
38 1; 39 19; 40 3; 41 8; 42 27; 
43 16; 44 999; 45 31; 50 8; 51 22; 
52 8; 53 10; 55 1; 56 2; 57 2; 
59 2; 60 1; 62 4; 63 15; 64 4; 
65 23; 66 6; 67 4; 74 3; 75 3; 
76 4; 77 53; 78 19; 79 27; 80 3; 
89 8; 90 4; 91 80; 92 6; 93 1; 
101 1; 102 5; 103 29; 104 16; 105 61; 
106 42; 107 5; 115 15; 116 5; 117 13; 
118 7; 119 5; 120 1; 127 1; 128 3; 
129 2; 130 3; 131 3; 132 6; 133 2; 
134 11; 135 1; 147 1; 148 3; 149 1; 
150 1; 
