Name: 3,4-Methylenedioxycathinone
Synon: MDC
Synon: bk-MDA
Synon: MDCATH
Synon: Amylone
Synon: 2-Amino-1-(1,3-benzodioxol-5-yl)propan-1-one
InChIKey: XDEZOLVDJWWXRG-UHFFFAOYSA-N
Formula: C10H11NO3
MW: 193
ExactMass: 193.073894
CASNO: 0
ID: 3948
Comment: DEA SFL1 / SWGDRUG Monograph available
Num Peaks: 46
37 4; 38 6; 39 22; 40 3; 41 6; 
42 37; 43 15; 44 999; 45 25; 49 1; 
50 7; 51 10; 52 2; 53 13; 54 1; 
55 1; 60 1; 61 5; 62 25; 63 61; 
64 9; 65 57; 66 5; 74 4; 75 1; 
76 1; 77 2; 78 1; 79 2; 89 1; 
90 1; 91 18; 92 3; 93 3; 119 4; 
120 4; 121 70; 122 9; 123 1; 148 4; 
149 89; 150 14; 151 1; 178 1; 193 10; 
194 1; 
