Name: NNEI
Synon: MN-24
Synon: N-1-naphthalenyl-1-pentyl-1H-indole-3-carboxamide
Synon: CBM-018
InChIKey: GWCQNKRMTGVYIZ-UHFFFAOYSA-N
Formula: C24H24N2O
MW: 356
ExactMass: 356.188864
CASNO: 1338925113
ID: 3950
Comment: Provided by www.caymanchem.com/app/template/landing%2CForensic.vm / Item #15001  Lot #0445128 / SWGDRUG Monograph available
Num Peaks: 110
41 24; 43 47; 44 1; 50 1; 51 2; 
52 1; 53 1; 55 7; 62 3; 63 6; 
64 2; 65 4; 69 2; 71 2; 73 1; 
74 2; 75 5; 76 6; 77 8; 78 3; 
86 1; 87 3; 88 8; 89 32; 90 5; 
91 2; 100 1; 101 11; 102 26; 103 9; 
104 1; 113 6; 114 22; 115 191; 116 93; 
117 12; 118 1; 126 2; 127 8; 128 25; 
129 53; 130 30; 131 4; 135 1; 140 13; 
141 8; 142 48; 143 65; 144 238; 145 24; 
146 2; 150 7; 153 1; 154 6; 155 7; 
156 7; 157 10; 158 7; 159 1; 167 2; 
168 3; 169 6; 170 11; 171 2; 172 1; 
178 3; 182 1; 183 1; 184 5; 185 2; 
186 4; 187 1; 191 1; 196 1; 198 1; 
200 1; 207 3; 209 1; 210 1; 212 28; 
214 999; 215 152; 216 11; 227 1; 228 1; 
229 1; 230 1; 240 1; 241 1; 242 1; 
253 1; 254 1; 255 4; 256 4; 257 1; 
267 3; 268 1; 269 2; 281 2; 283 1; 
284 1; 285 7; 286 1; 299 2; 327 2; 
340 1; 354 2; 356 80; 357 20; 358 3; 
