Name: 4'-Methyl-.alpha.-pyrrolidinobutiophenone
Synon: 4-MPBP
Synon: F 1938
Synon: 1-(4-methylphenyl)-2-(1-pyrrolidinyl)-1-butanone
Synon: MPBP
Synon: 4-MePBP
InChIKey: NXNPGAAZKYDOPW-UHFFFAOYSA-N
Formula: C15H21NO
MW: 231
ExactMass: 231.162314
CASNO: 1214159
ID: 3951
Comment: Provided by www.caymanchem.com/app/template/landing%2CForensic.vm / Item #9001190  Lot #0435103 / SWGDRUG Monograph available
Num Peaks: 71
41 58; 42 41; 43 15; 44 2; 50 3; 
51 7; 52 3; 53 6; 54 20; 55 49; 
56 13; 57 1; 58 11; 62 2; 63 11; 
64 4; 65 47; 66 3; 67 2; 68 14; 
69 16; 70 60; 71 3; 74 1; 75 1; 
76 1; 77 4; 78 1; 79 2; 80 2; 
81 1; 82 6; 83 3; 84 5; 89 13; 
90 8; 91 80; 92 7; 93 1; 94 3; 
96 27; 97 16; 98 1; 102 1; 103 2; 
105 6; 106 1; 108 3; 110 34; 112 999; 
113 80; 114 3; 115 3; 116 1; 117 2; 
119 35; 120 3; 128 1; 129 1; 130 1; 
131 1; 144 1; 145 2; 147 2; 160 1; 
174 2; 186 1; 200 1; 202 5; 229 1; 
230 1; 
