Name: 25I-NBOMe
InChIKey: ZFUOLNAKPBFDIJ-UHFFFAOYSA-N
Synon: 4-Iodo-2,5-dimethoxy-N-[(2-methoxyphenyl)methyl]-benzeneethanamine
Synon: 2C-I-NBOMe
Synon: Cimbi-5
Synon: N-Bomb
Synon: Smiles
Synon: 2-(4-Iodo-2,5-dimethoxyphenyl)-N-(2-methoxybenzyl)ethanamine
Synon: 25I-NB2OMe
Synon: 2C-I-NB2OMe
Formula: C18H22INO3
MW: 427
ExactMass: 427.064442
CASNO: 919797196
ID: 3959
Comment: Provided by www.caymanchem.com/app/template/landing%2CForensic.vm / Item #9001128  Lot #0433155 / SWGDRUG Monograph available
Num Peaks: 98
40 1; 41 5; 42 7; 43 4; 50 8; 
51 25; 52 10; 53 14; 54 2; 55 2; 
57 1; 62 3; 63 17; 64 14; 65 53; 
66 6; 67 3; 68 1; 74 2; 75 4; 
76 11; 77 68; 78 42; 79 16; 80 2; 
81 1; 89 25; 91 331; 92 39; 93 41; 
94 5; 95 1; 102 2; 103 4; 104 8; 
105 33; 106 13; 107 25; 108 4; 109 1; 
115 1; 116 1; 117 5; 118 11; 119 12; 
121 999; 122 95; 123 6; 127 3; 128 3; 
132 4; 133 7; 134 12; 135 10; 136 8; 
137 1; 147 2; 148 31; 150 626; 151 70; 
152 6; 153 1; 162 2; 163 2; 164 5; 
165 2; 178 1; 179 1; 191 3; 204 1; 
205 1; 217 2; 219 2; 232 11; 233 2; 
234 5; 247 30; 248 3; 249 1; 260 1; 
261 6; 262 1; 263 5; 268 1; 275 3; 
276 8; 277 30; 278 38; 279 3; 290 1; 
291 5; 394 17; 395 5; 396 12; 397 2; 
425 1; 426 1; 427 1; 
