Name: .alpha.-PVP
Synon: 2-pyrrolidinovalerophenone
Synon: PVP
Synon: .alpha.-Pyrrolidinopentiophenone
Synon: O-2387
Synon: 2-(1-pyrrolidinyl)-valerophenone
Synon: 1-phenyl-2-(1-pyrrolidinyl)-1-pentanone
InChIKey: YDIIDRWHPFMLGR-UHFFFAOYSA-N
Formula: C15H21NO
MW: 231
ExactMass: 231.162314
CASNO: 14530337
ID: 3962
Comment: DEA SWL / SWGDRUG Monograph available
Num Peaks: 84
39 9; 40 3; 41 25; 42 28; 43 9; 
44 7; 50 5; 51 20; 52 2; 53 6; 
54 13; 55 37; 56 10; 57 3; 63 1; 
65 2; 67 2; 68 9; 69 17; 70 19; 
71 1; 72 1; 74 1; 75 1; 76 3; 
77 55; 78 6; 79 1; 80 5; 81 2; 
82 3; 83 1; 84 24; 85 1; 89 1; 
90 1; 91 9; 92 1; 93 1; 94 4; 
95 2; 96 29; 97 25; 98 10; 99 1; 
102 1; 103 2; 104 2; 105 41; 106 4; 
108 1; 110 12; 111 1; 115 5; 116 1; 
117 2; 118 1; 120 4; 122 8; 123 1; 
124 39; 125 9; 126 999; 127 89; 128 6; 
129 1; 130 1; 131 2; 132 1; 133 1; 
145 1; 146 1; 158 1; 159 1; 160 9; 
161 1; 172 1; 186 3; 188 8; 189 1; 
200 2; 214 2; 229 5; 230 2; 
