Name: Testosterone
Synon: 17.beta.-Hydroxy-4-androsten-3-one
Synon: Andro
Synon: Androderm
Synon: Androlin
Synon: Testoderm
Synon: Testred
InChIKey: MUMGGOZAMZWBJJ-UHFFFAOYSA-N
Formula: C19H28O2
MW: 288
ExactMass: 288.208931
CASNO: 58220
ID: 3965
Comment: DEA SWL / SWGDRUG Monograph available
Num Peaks: 212
40 23; 41 207; 42 19; 43 110; 44 34; 
45 12; 50 3; 51 24; 52 21; 53 116; 
54 20; 55 228; 56 17; 57 130; 58 16; 
59 2; 60 1; 62 1; 63 10; 64 7; 
65 93; 66 44; 67 241; 68 39; 69 52; 
70 7; 71 24; 72 5; 73 2; 74 2; 
75 2; 77 270; 78 75; 79 403; 80 71; 
81 165; 82 29; 83 43; 84 9; 85 7; 
86 8; 87 12; 88 1; 89 9; 91 503; 
92 86; 93 287; 94 107; 95 183; 96 54; 
97 81; 98 9; 99 5; 100 4; 101 6; 
102 8; 103 54; 104 36; 105 329; 106 103; 
107 274; 108 113; 109 257; 110 81; 111 51; 
112 5; 113 3; 114 6; 115 91; 116 36; 
117 129; 118 50; 119 223; 120 94; 121 203; 
122 138; 123 251; 124 999; 125 106; 126 7; 
127 20; 128 60; 129 88; 130 35; 131 186; 
132 75; 133 198; 134 150; 135 122; 136 77; 
137 116; 138 29; 139 7; 141 31; 142 27; 
143 68; 144 45; 145 127; 146 120; 147 384; 
148 140; 149 116; 150 39; 151 53; 152 18; 
153 13; 154 8; 155 23; 156 13; 157 59; 
158 30; 159 117; 160 57; 161 74; 162 49; 
163 39; 164 64; 165 92; 166 16; 167 9; 
168 4; 169 17; 170 11; 171 38; 172 25; 
173 70; 174 64; 175 42; 176 24; 177 16; 
178 8; 179 8; 180 3; 181 6; 182 4; 
183 17; 184 13; 185 88; 186 33; 187 87; 
188 37; 189 41; 190 30; 191 5; 192 6; 
193 3; 194 1; 195 8; 196 3; 197 15; 
198 8; 199 38; 200 25; 201 44; 202 45; 
203 248; 204 73; 205 12; 206 7; 207 4; 
208 1; 209 5; 210 3; 211 37; 212 13; 
213 89; 214 26; 215 21; 216 12; 217 21; 
218 14; 219 2; 223 2; 224 2; 225 6; 
226 14; 227 32; 228 128; 229 59; 230 13; 
231 56; 232 14; 233 3; 237 13; 238 3; 
239 1; 241 6; 242 8; 243 5; 244 13; 
246 322; 247 65; 248 5; 249 1; 252 6; 
253 5; 255 27; 256 8; 257 1; 259 4; 
260 17; 261 2; 270 35; 271 10; 273 57; 
274 11; 275 1; 286 2; 288 385; 289 77; 
290 9; 291 1; 
