Name: Testosterone Decanoate
Synon: Testosterone Caprate
Synon: 17.beta.-Hydroxyandrost-4-ene-3-one decanoate
InChIKey: LBERVHLCXUMDOT-UHFFFAOYSA-N
Formula: C29H46O3
MW: 442
ExactMass: 442.344696
CASNO: 5721915
ID: 3967
Comment: DEA SWL / SWGDRUG Monograph available
Num Peaks: 225
40 8; 41 176; 42 41; 43 288; 44 14; 
45 9; 51 4; 52 3; 53 31; 54 15; 
55 252; 56 39; 57 214; 58 10; 59 6; 
60 27; 61 2; 63 2; 65 21; 66 9; 
67 129; 68 26; 69 105; 70 27; 71 174; 
72 11; 73 29; 74 4; 75 2; 77 69; 
78 19; 79 168; 80 28; 81 175; 82 25; 
83 76; 84 17; 85 112; 86 14; 87 11; 
89 2; 91 194; 92 37; 93 183; 94 72; 
95 222; 96 36; 97 87; 98 19; 99 4; 
101 12; 102 2; 103 21; 104 18; 105 182; 
106 47; 107 184; 108 49; 109 147; 110 36; 
111 61; 112 6; 113 2; 115 27; 116 13; 
117 59; 118 30; 119 135; 120 54; 121 131; 
122 94; 123 181; 124 999; 125 112; 126 10; 
127 6; 128 20; 129 44; 130 20; 131 145; 
132 42; 133 154; 134 136; 135 102; 136 47; 
137 77; 138 32; 139 5; 141 14; 142 12; 
143 45; 144 67; 145 124; 146 265; 147 765; 
148 191; 149 129; 150 21; 151 9; 152 4; 
153 7; 154 4; 155 399; 156 48; 157 48; 
158 31; 159 86; 160 37; 161 79; 162 42; 
163 40; 164 14; 165 21; 166 4; 167 5; 
168 3; 169 15; 170 10; 171 35; 172 29; 
173 47; 174 40; 175 36; 176 20; 177 20; 
178 5; 179 6; 181 6; 182 3; 183 15; 
184 9; 185 118; 186 37; 187 35; 188 17; 
189 20; 190 8; 191 3; 192 2; 193 1; 
195 11; 196 5; 197 18; 198 8; 199 27; 
200 23; 201 16; 202 7; 203 11; 204 3; 
208 3; 209 5; 210 4; 211 13; 212 8; 
213 66; 214 19; 215 13; 216 5; 217 5; 
223 4; 224 5; 225 5; 226 11; 227 41; 
228 183; 229 61; 230 183; 231 38; 232 6; 
237 23; 238 5; 241 11; 242 19; 243 16; 
244 9; 245 39; 246 20; 247 3; 249 2; 
251 6; 252 28; 253 58; 254 12; 255 42; 
256 8; 257 3; 259 2; 260 34; 261 5; 
265 2; 267 2; 268 3; 269 11; 270 86; 
271 130; 272 26; 273 53; 274 8; 287 23; 
288 132; 289 33; 290 5; 319 2; 327 2; 
330 3; 331 3; 344 2; 346 2; 357 15; 
358 13; 359 3; 382 3; 400 74; 401 24; 
402 3; 405 2; 414 4; 415 4; 424 4; 
427 11; 428 4; 442 125; 443 41; 445 7; 
