Name: Testosterone Phenylpropionate
Synon: 17.beta.-Hydroxyandrost-4-ene-3-one Phenylpropionate
Synon: Testosterone Hydrocinnamate
Synon: Retandrol
InChIKey: HHSXYDOROIURIP-UHFFFAOYSA-N
Formula: C28H36O3
MW: 420
ExactMass: 420.266445
CASNO: 1255498
ID: 3970
Comment: DEA SWL / SWGDRUG Monograph available
Num Peaks: 181
40 6; 41 69; 42 6; 43 36; 44 2; 
45 5; 50 5; 51 26; 52 7; 53 37; 
54 5; 55 117; 56 7; 57 14; 63 7; 
64 4; 65 60; 66 11; 67 98; 68 11; 
69 31; 70 4; 71 4; 73 5; 74 8; 
75 5; 77 170; 78 69; 79 276; 80 37; 
81 125; 82 12; 83 30; 85 5; 87 3; 
89 13; 91 984; 92 92; 93 172; 94 47; 
95 137; 96 17; 97 55; 98 6; 99 3; 
101 3; 102 6; 103 100; 104 155; 105 999; 
106 106; 107 270; 108 51; 109 95; 110 19; 
111 23; 115 30; 116 11; 117 73; 118 28; 
119 117; 120 36; 121 135; 122 68; 123 143; 
124 239; 125 35; 127 8; 128 20; 129 39; 
130 16; 131 113; 132 37; 133 257; 134 97; 
135 142; 136 32; 137 60; 138 11; 139 4; 
141 12; 142 12; 143 46; 144 26; 145 107; 
146 98; 147 383; 148 84; 149 131; 150 41; 
151 15; 153 6; 154 5; 155 15; 156 15; 
157 45; 158 22; 159 69; 160 27; 161 87; 
162 34; 163 37; 164 9; 165 11; 166 5; 
167 4; 169 10; 170 6; 171 38; 172 16; 
173 39; 174 23; 175 36; 176 15; 177 11; 
178 4; 179 5; 181 6; 183 14; 184 6; 
185 70; 186 21; 187 40; 188 9; 189 17; 
190 3; 195 9; 196 4; 197 18; 198 4; 
199 26; 200 11; 201 15; 202 5; 203 6; 
209 9; 210 4; 211 10; 212 5; 213 36; 
214 14; 215 17; 223 4; 224 5; 225 11; 
226 5; 227 27; 228 44; 229 41; 230 33; 
231 11; 237 8; 241 5; 242 6; 243 15; 
244 5; 245 17; 246 7; 251 5; 252 10; 
253 231; 254 50; 255 19; 256 6; 257 15; 
258 5; 260 9; 269 9; 270 147; 271 920; 
272 209; 273 38; 274 4; 287 7; 288 15; 
331 5; 343 1; 378 4; 405 4; 420 15; 
421 3; 
