Name: 5-Chloro-UR-144
Synon: XLR11 Chloro Analogue
Synon: UR-144, N-(5-chloropentyl) analogue
Synon: (1-(5-chloropentyl)-1H-indol-3-yl)(2,2,3,3-tetramethylcyclopropyl)methanone
Synon: 5-Cl-UR-144
InChIKey: CKIOITGXSRFWIS-UHFFFAOYSA-N
Formula: C21H28ClNO
MW: 345
ExactMass: 345.185942
CASNO: 1445577423
ID: 3971
Comment: DEA SWL / SWGDRUG Monograph available
Num Peaks: 205
36 11; 37 1; 38 5; 39 38; 40 13; 
41 223; 42 13; 43 69; 44 21; 49 6; 
50 2; 51 10; 52 3; 53 29; 54 4; 
55 119; 56 8; 57 19; 58 1; 59 8; 
62 4; 63 24; 64 3; 65 15; 66 3; 
67 27; 68 2; 69 106; 70 4; 73 3; 
74 2; 75 11; 76 10; 77 22; 78 6; 
79 22; 80 2; 81 55; 82 8; 83 72; 
84 6; 85 1; 87 3; 88 10; 89 46; 
90 11; 91 11; 92 2; 93 2; 95 6; 
96 11; 97 14; 98 2; 101 18; 102 46; 
103 25; 104 5; 105 6; 106 3; 107 2; 
109 66; 110 7; 111 6; 112 23; 114 14; 
115 68; 116 130; 117 33; 118 17; 120 15; 
123 1; 125 17; 127 19; 128 54; 129 92; 
130 128; 131 23; 132 7; 133 4; 139 7; 
140 8; 141 12; 142 12; 143 58; 144 339; 
145 39; 146 3; 147 2; 151 2; 152 8; 
153 8; 154 31; 155 13; 156 26; 157 24; 
158 17; 159 3; 164 5; 165 10; 166 13; 
167 53; 168 47; 169 12; 170 33; 171 7; 
172 8; 173 2; 177 2; 178 4; 179 4; 
180 42; 181 32; 182 40; 183 16; 184 19; 
185 6; 186 5; 187 1; 191 3; 192 3; 
193 6; 194 21; 195 10; 196 40; 197 12; 
198 10; 199 2; 204 1; 206 2; 207 10; 
208 9; 209 3; 210 31; 211 8; 212 52; 
213 6; 214 7; 220 3; 221 21; 222 23; 
223 12; 224 22; 225 6; 226 4; 234 4; 
235 1; 236 4; 237 1; 238 3; 239 4; 
240 1; 246 5; 247 4; 248 999; 249 156; 
250 329; 251 48; 252 18; 253 3; 254 12; 
255 3; 262 11; 263 68; 264 15; 265 24; 
266 5; 272 51; 273 10; 274 18; 275 6; 
276 1; 277 2; 281 2; 286 68; 287 43; 
288 35; 289 15; 290 5; 294 6; 295 1; 
296 1; 302 33; 303 8; 304 29; 305 6; 
306 7; 307 1; 309 3; 311 1; 314 1; 
315 5; 316 3; 317 1; 328 9; 329 3; 
330 146; 331 32; 332 51; 333 10; 344 1; 
345 115; 346 32; 347 35; 348 9; 349 1; 
