Name: 1'-Naphthoyl Indole
Synon: 1H-indol-3-yl-1-naphthalenyl-methanone
Synon: 3-Naphthoylindole
InChIKey: QIXQGVQLBPQVOR-UHFFFAOYSA-N
Formula: C19H13NO
MW: 271
ExactMass: 271.099714
CASNO: 109555875
ID: 3973
Comment: Provided by www.caymanchem.com/app/template/landing%2CForensic.vm / Item #11687  Lot #0437901 / SWGDRUG Monograph available
Num Peaks: 139
41 4; 44 4; 50 30; 51 35; 52 14; 
53 5; 58 2; 61 4; 62 38; 63 95; 
64 18; 65 13; 66 2; 67 1; 72 5; 
73 4; 74 28; 75 56; 76 33; 77 87; 
78 13; 80 5; 81 5; 82 8; 85 3; 
86 17; 87 36; 88 37; 89 318; 90 45; 
91 4; 94 21; 95 35; 96 12; 98 13; 
99 12; 100 20; 101 53; 102 10; 103 3; 
107 64; 109 36; 110 4; 111 5; 113 34; 
114 44; 115 53; 116 355; 117 43; 118 3; 
120 14; 121 191; 123 3; 126 172; 127 317; 
128 75; 129 5; 133 3; 136 124; 137 6; 
138 4; 139 11; 140 3; 144 999; 145 106; 
146 9; 147 3; 149 3; 150 12; 151 9; 
152 8; 153 2; 154 6; 155 26; 156 3; 
161 7; 162 5; 163 14; 164 8; 165 5; 
166 3; 168 2; 174 5; 175 4; 176 10; 
177 3; 178 1; 186 3; 187 28; 188 17; 
189 26; 190 8; 191 3; 198 4; 199 4; 
200 4; 201 5; 202 4; 204 2; 205 2; 
207 7; 208 2; 209 2; 210 2; 211 10; 
212 13; 213 103; 214 58; 215 90; 216 18; 
217 3; 223 1; 224 4; 225 8; 226 13; 
227 8; 228 7; 229 4; 237 2; 238 16; 
239 11; 240 77; 241 210; 242 237; 243 92; 
244 18; 245 4; 251 7; 252 7; 254 650; 
255 138; 256 19; 257 3; 268 5; 270 975; 
271 916; 272 166; 273 21; 274 1; 
