Name: 4-AcO-DIPT
Synon: 4-Acetoxy-DIPT
Synon: 4-Acetoxy-N,N-Diisopropyltryptamine
InChIKey: ZPAOVGZYDSXCPK-UHFFFAOYSA-N
Formula: C18H26N2O2
MW: 302
ExactMass: 302.199429
CASNO: 936015600
ID: 3975
Comment: DEA SWL / SWGDRUG Monograph available
Num Peaks: 82
41 19; 42 10; 43 70; 44 4; 51 2; 
52 1; 54 1; 55 2; 56 29; 57 4; 
58 3; 63 3; 64 1; 65 4; 68 1; 
70 15; 71 4; 72 150; 73 7; 75 1; 
76 1; 77 7; 78 3; 79 1; 84 3; 
86 5; 89 9; 90 7; 91 9; 92 1; 
98 11; 99 2; 100 4; 101 2; 102 4; 
103 6; 104 3; 105 2; 112 3; 113 2; 
114 999; 115 93; 116 8; 117 21; 118 16; 
119 1; 123 1; 128 4; 129 3; 130 24; 
131 7; 132 3; 133 3; 140 1; 141 1; 
142 2; 143 1; 144 2; 145 6; 146 64; 
147 12; 148 2; 156 1; 157 3; 158 6; 
159 20; 160 35; 161 4; 172 1; 173 2; 
174 2; 175 1; 185 1; 188 3; 201 1; 
202 5; 216 1; 217 1; 271 1; 285 1; 
287 1; 302 1; 
