Name: 4-Methoxy-DMT
Synon: 4-MeO-DMT
Synon: 4-Methoxy-N,N-dimethyltryptamine
Synon: 4-methoxy-N,N-dimethyl-1H-indole-3-ethanamine
InChIKey: HFYHBTWTJDAYGW-UHFFFAOYSA-N
Formula: C13H18N2O
MW: 218
ExactMass: 218.141913
CASNO: 3965977
ID: 3977
Comment: Provided by www.caymanchem.com/app/template/landing%2CForensic.vm / Item #9000895  Lot #0432654
Num Peaks: 86
40 1; 41 4; 42 44; 43 11; 44 3; 
50 5; 51 10; 52 5; 53 2; 54 1; 
56 5; 58 999; 59 38; 61 1; 62 6; 
63 20; 64 4; 65 5; 66 1; 70 1; 
73 1; 74 5; 75 8; 76 10; 77 28; 
78 8; 79 2; 80 1; 85 1; 86 2; 
87 3; 88 4; 89 26; 90 18; 91 6; 
92 1; 93 1; 100 2; 101 7; 102 20; 
103 32; 104 8; 105 2; 113 3; 114 4; 
115 16; 116 12; 117 33; 118 7; 127 2; 
128 17; 129 22; 130 79; 131 15; 132 9; 
133 1; 140 3; 141 2; 142 3; 143 6; 
144 6; 145 6; 146 10; 147 2; 155 1; 
156 2; 157 5; 158 9; 159 25; 160 37; 
161 6; 170 1; 171 3; 172 5; 173 9; 
174 14; 175 1; 185 2; 186 1; 187 1; 
202 2; 215 1; 216 2; 218 88; 219 13; 
220 1; 
