Name: 4-Chloroamphetamine
Synon: p-Chloroamphetamine
Synon: 4-CA
InChIKey: WWPITPSIWMXDPE-UHFFFAOYSA-N
Formula: C9H13ClN
MW: 170
ExactMass: 170.073652
CASNO: 64120
ID: 3981
Comment: AAFS / Probability Based Matching Data Base Entry
Num Peaks: 63
34 1; 36 7; 38 11; 39 32; 40 10; 
42 40; 43 7; 44 999; 45 25; 48 5; 
49 12; 50 14; 51 10; 53 2; 56 28; 
57 4; 58 23; 61 6; 62 7; 63 31; 
64 11; 65 19; 66 5; 67 6; 68 3; 
70 5; 71 4; 73 10; 74 9; 75 12; 
76 10; 77 18; 78 9; 79 4; 85 4; 
87 3; 89 65; 90 20; 91 33; 97 10; 
99 25; 101 7; 102 7; 103 5; 113 5; 
115 20; 116 7; 117 10; 118 9; 119 19; 
125 78; 126 13; 127 13; 132 4; 133 4; 
134 6; 138 4; 143 4; 151 4; 154 17; 
155 3; 156 5; 168 4; 
