Name: Mepirapim
Synon: JWH-018-4(methylpiperazine)
Synon: 4-methylpiperazin-1-yl)(1-pentyl-1H-indol-3-yl)methanone
InChIKey: IUEFFEOHJKCBPF-UHFFFAOYSA-N
Formula: C19H27N3O
MW: 313
ExactMass: 313.215412
CASNO: 0
ID: 3982
Comment: Provided by www.caymanchem.com/app/template/landing%2CForensic.vm / Item #15388  Lot #0454860
Num Peaks: 154
40 3; 41 44; 42 80; 43 113; 44 18; 
45 1; 50 1; 51 3; 52 1; 53 3; 
54 7; 55 24; 56 143; 57 21; 58 30; 
59 1; 62 4; 63 6; 64 2; 65 2; 
67 2; 68 5; 70 209; 71 205; 72 28; 
73 4; 74 2; 75 9; 76 10; 77 15; 
78 5; 79 1; 80 1; 83 353; 84 31; 
85 7; 86 2; 87 4; 88 11; 89 40; 
90 8; 91 4; 95 2; 96 1; 97 17; 
99 322; 100 19; 101 17; 102 49; 103 23; 
104 4; 106 1; 107 1; 109 1; 110 1; 
113 5; 114 14; 115 57; 116 122; 117 20; 
118 3; 127 14; 128 48; 129 94; 130 82; 
131 13; 132 3; 135 1; 136 1; 140 1; 
141 3; 143 57; 144 341; 145 36; 146 3; 
147 1; 149 1; 152 1; 154 8; 155 6; 
156 21; 157 22; 158 17; 159 2; 165 1; 
166 1; 167 3; 168 3; 169 3; 170 20; 
171 6; 172 4; 173 12; 174 10; 177 1; 
179 1; 180 1; 182 1; 183 2; 184 13; 
185 8; 186 7; 187 11; 188 6; 193 1; 
194 1; 196 2; 197 3; 198 4; 200 25; 
201 5; 207 9; 208 2; 209 1; 210 1; 
211 3; 212 24; 214 999; 215 165; 216 14; 
217 1; 227 3; 228 4; 230 269; 231 80; 
232 11; 233 1; 239 1; 240 1; 241 3; 
243 91; 244 19; 245 4; 246 1; 253 5; 
254 1; 256 139; 257 38; 258 4; 259 1; 
268 1; 269 1; 270 2; 271 1; 281 3; 
282 2; 283 1; 296 14; 297 3; 298 2; 
311 3; 313 159; 314 39; 315 4; 
