Name: Exemestane
Synon: Aromasin
Synon: Nikidess
Synon: 6-methylideneandrosta-1,4-diene-3,17-dione
InChIKey: BFYIZQONLCFLEV-DAELLWKTSA-N
Formula: C20H24O2
MW: 296
ExactMass: 296.17763
CASNO: 107868304
ID: 3983
Comment: DEA SWL / unconfirmed from sample
Num Peaks: 216
38 1; 39 73; 40 15; 41 149; 42 18; 
43 28; 44 2; 50 9; 51 52; 52 32; 
53 113; 54 16; 55 191; 56 12; 57 8; 
58 2; 62 3; 63 35; 64 15; 65 94; 
66 27; 67 122; 68 18; 69 23; 70 3; 
71 7; 72 1; 74 2; 75 9; 76 20; 
77 248; 78 103; 79 260; 80 33; 81 107; 
82 18; 83 20; 84 6; 85 4; 86 1; 
87 3; 88 3; 89 35; 90 16; 91 372; 
92 93; 93 191; 94 31; 95 57; 96 13; 
97 64; 98 11; 99 4; 100 1; 101 6; 
102 32; 103 123; 104 47; 105 440; 106 136; 
107 221; 108 46; 109 38; 110 17; 111 6; 
112 2; 113 5; 114 5; 115 253; 116 71; 
117 124; 118 63; 119 85; 120 68; 121 122; 
122 20; 123 23; 124 16; 125 3; 126 8; 
127 80; 128 244; 129 182; 130 78; 131 185; 
132 54; 133 256; 134 112; 135 85; 136 21; 
137 6; 138 1; 139 18; 140 5; 141 162; 
142 87; 143 134; 144 80; 145 127; 146 67; 
147 93; 148 999; 149 286; 150 42; 151 12; 
152 47; 153 63; 154 31; 155 98; 156 92; 
157 100; 158 49; 159 86; 160 34; 161 23; 
162 20; 163 16; 164 5; 165 57; 166 23; 
167 37; 168 23; 169 60; 170 44; 171 74; 
172 75; 173 37; 174 9; 175 9; 176 5; 
177 3; 178 17; 179 21; 180 10; 181 27; 
182 16; 183 49; 184 23; 185 44; 186 23; 
187 14; 188 7; 189 6; 190 2; 191 5; 
192 4; 193 14; 194 8; 195 23; 196 16; 
197 52; 198 28; 199 17; 200 10; 201 3; 
202 1; 203 1; 205 2; 206 2; 207 8; 
208 6; 209 30; 210 13; 211 76; 212 27; 
213 11; 214 2; 219 2; 220 2; 221 11; 
222 7; 223 13; 224 19; 225 44; 226 13; 
227 4; 228 1; 233 1; 234 1; 235 34; 
236 9; 237 15; 238 5; 239 52; 240 24; 
241 5; 242 1; 245 1; 248 2; 249 15; 
250 10; 251 6; 252 9; 253 51; 254 15; 
255 3; 261 2; 263 24; 264 5; 265 1; 
266 2; 267 6; 268 66; 269 13; 270 1; 
277 4; 278 12; 279 7; 280 2; 281 55; 
282 10; 283 2; 295 3; 296 39; 297 11; 
298 2; 
