Name: PB-22 butylester analogue
Synon: Butyl-1-pentyl-1H-indole-3-carboxylate
InChIKey: FFDJFOKSIFPKOV-UHFFFAOYSA-N
Formula: C18H25NO2
MW: 287
ExactMass: 287.18853
CASNO: 0
ID: 3986
Comment: ENFSI/DWG / product from PB-22 in GC injector
Num Peaks: 102
39 36; 40 7; 41 131; 42 14; 43 76; 
44 6; 50 15; 51 20; 53 9; 55 29; 
56 28; 57 21; 62 10; 63 20; 69 11; 
70 8; 73 2; 74 8; 75 20; 76 29; 
77 72; 78 18; 87 9; 88 25; 89 58; 
90 19; 91 27; 96 8; 101 38; 102 84; 
103 71; 104 18; 114 27; 115 101; 116 138; 
117 32; 118 33; 127 10; 128 166; 129 132; 
130 567; 131 54; 132 33; 133 29; 140 10; 
142 18; 143 106; 144 387; 145 45; 146 38; 
147 2; 149 7; 154 22; 155 12; 156 52; 
157 25; 158 37; 159 16; 161 25; 167 11; 
168 10; 170 42; 171 11; 172 13; 174 773; 
175 206; 176 46; 184 30; 185 19; 186 186; 
187 116; 188 29; 191 8; 200 16; 201 8; 
202 49; 203 8; 209 4; 210 14; 212 30; 
213 10; 214 999; 215 167; 216 71; 228 10; 
229 15; 230 424; 231 973; 232 147; 233 17; 
244 67; 258 12; 267 9; 270 46; 271 12; 
272 12; 281 37; 282 2; 285 30; 286 16; 
287 905; 288 171; 
