Name: PB-22 ethylester analogue
Synon: Ethyl-1-pentyl-1H-indole-3-carboxylate
InChIKey: LXUMNHPOLXEKJM-UHFFFAOYSA-N
Formula: C16H21NO2
MW: 259
ExactMass: 259.157228
CASNO: 0
ID: 3987
Comment: ENFSI/DWG / product from PB-22 in GC injector
Num Peaks: 108
39 18; 40 3; 41 44; 43 38; 45 7; 
50 4; 51 11; 52 4; 53 6; 55 8; 
62 10; 63 20; 64 3; 65 8; 69 4; 
74 4; 75 21; 76 17; 77 39; 78 9; 
79 3; 87 7; 88 17; 89 45; 90 12; 
91 17; 92 3; 101 45; 102 62; 103 56; 
104 12; 105 3; 113 2; 114 25; 115 75; 
116 91; 117 41; 118 14; 119 3; 127 11; 
128 128; 129 101; 130 423; 131 52; 132 41; 
133 6; 140 5; 141 5; 142 11; 143 84; 
144 257; 145 32; 146 23; 147 3; 154 26; 
155 11; 156 45; 157 30; 158 35; 159 5; 
160 3; 161 17; 165 2; 167 9; 168 6; 
169 4; 170 47; 171 10; 172 8; 173 5; 
174 402; 175 70; 176 5; 181 2; 182 2; 
183 2; 184 26; 185 20; 186 165; 187 65; 
188 16; 189 6; 198 4; 200 7; 201 3; 
202 708; 203 187; 204 23; 207 2; 210 5; 
212 18; 214 676; 215 108; 216 21; 217 2; 
228 8; 229 5; 230 73; 231 78; 232 11; 
244 62; 245 10; 246 2; 257 14; 258 34; 
259 999; 260 182; 261 20; 
