Name: N-(1-methylethyl)-1-(thiophen-3-yl)propan-2-amine
InChIKey: WZJCWFLCXSSMFX-UHFFFAOYSA-N
Formula: C10H17NS
MW: 183
ExactMass: 183.1081705
CASNO: 0
ID: 3988
Comment: ENFSI/DWG
Num Peaks: 87
38 3; 39 42; 40 7; 41 72; 42 73; 
43 56; 44 600; 45 78; 46 2; 47 5; 
50 4; 51 11; 52 6; 53 36; 54 5; 
55 2; 56 21; 57 6; 58 18; 59 5; 
60 1; 62 2; 63 7; 64 1; 65 15; 
66 5; 67 3; 68 5; 69 18; 70 53; 
71 22; 72 2; 73 1; 75 1; 77 12; 
78 4; 79 11; 80 8; 81 4; 82 6; 
83 3; 84 35; 85 16; 86 999; 87 56; 
88 1; 89 1; 91 12; 92 3; 93 8; 
94 2; 95 4; 97 283; 98 21; 99 27; 
100 2; 101 1; 106 3; 107 4; 108 2; 
109 9; 110 9; 111 6; 112 1; 121 4; 
122 3; 123 19; 124 12; 125 77; 126 36; 
127 5; 128 1; 134 1; 136 2; 138 1; 
139 1; 140 6; 150 1; 152 7; 153 1; 
166 3; 168 28; 169 2; 170 1; 181 1; 
182 8; 183 1; 
