Name: 4-Methyl-N-ethylnorpentedrone
Synon: NEMNP
Synon: 2-(ethylamino)-1-(4-methylphenyl)pentan-1-one
InChIKey: IKIANZXWCBSIGA-UHFFFAOYSA-N
Formula: C14H21NO
MW: 219
ExactMass: 219.162314
CASNO: 0
ID: 3993
Comment: ENFSI/DWG
Num Peaks: 83
38 1; 39 27; 40 3; 41 26; 42 18; 
43 20; 44 29; 45 1; 46 2; 50 5; 
51 12; 52 4; 53 5; 54 6; 55 29; 
56 59; 57 7; 58 152; 59 6; 62 6; 
63 25; 64 8; 65 109; 66 6; 67 1; 
68 6; 69 2; 70 27; 71 16; 72 18; 
73 1; 74 2; 75 2; 76 2; 77 10; 
78 2; 79 2; 82 1; 84 14; 85 1; 
86 1; 87 1; 89 41; 90 21; 91 201; 
92 16; 93 4; 98 8; 100 999; 101 79; 
102 3; 103 3; 104 1; 105 11; 106 1; 
115 7; 116 2; 117 4; 119 94; 120 10; 
127 1; 128 2; 129 2; 130 3; 131 3; 
132 3; 133 2; 141 1; 143 1; 144 2; 
145 1; 146 3; 147 5; 148 7; 158 2; 
159 1; 160 3; 161 2; 162 1; 174 2; 
175 1; 176 20; 177 3; 
