Name: APAAN
Synon: 2-phenylacetoacetonitrile
Synon: .alpha.-phenylacetoacetonitrile
InChIKey: KHNWFTMUBKJWRZ-UHFFFAOYSA-N
Formula: C10H9NO
MW: 159
ExactMass: 159.068414
CASNO: 4468488
ID: 3995
Comment: ENFSI/DWG
Num Peaks: 68
37 12; 38 26; 39 98; 40 10; 41 7; 
42 23; 43 817; 44 18; 45 2; 49 4; 
50 65; 51 75; 52 21; 53 4; 54 1; 
55 1; 58 2; 60 1; 61 24; 62 66; 
63 183; 64 54; 65 34; 66 6; 73 4; 
74 25; 75 25; 76 26; 77 35; 78 9; 
79 4; 84 1; 85 8; 86 14; 87 30; 
88 47; 89 328; 90 224; 91 22; 92 1; 
98 2; 99 2; 100 2; 101 3; 102 6; 
103 12; 104 3; 105 4; 111 2; 112 1; 
113 1; 114 27; 115 20; 116 226; 117 999; 
118 89; 119 3; 128 2; 129 1; 130 2; 
131 1; 140 3; 141 1; 143 1; 144 4; 
156 1; 159 47; 160 5; 
