Name: PB-22 indazole ethylester analogue
Synon: Ethyl-1-pentyl-1H-indazole-3-carboxylate
InChIKey: GLMUQYSUZLXLCD-UHFFFAOYSA-N
Formula: C15H20N2O2
MW: 260
ExactMass: 260.152477
CASNO: 0
ID: 3996
Comment: ENFSI/DWG / product from PB-22 indazole in GC injector
Num Peaks: 123
41 87; 42 15; 43 24; 44 11; 45 10; 
46 3; 49 3; 50 12; 51 43; 52 15; 
53 19; 55 16; 56 3; 62 21; 63 23; 
64 14; 65 13; 67 12; 68 3; 69 13; 
73 3; 74 4; 75 29; 76 58; 77 108; 
78 8; 79 6; 86 7; 87 8; 88 131; 
89 35; 90 96; 91 24; 92 7; 100 5; 
102 104; 103 224; 104 129; 105 17; 106 8; 
109 9; 114 3; 115 4; 116 22; 117 47; 
118 40; 119 11; 120 5; 127 3; 129 160; 
130 121; 131 442; 132 60; 135 9; 142 14; 
143 36; 144 104; 145 293; 146 29; 147 6; 
154 13; 155 4; 156 7; 157 75; 158 79; 
159 27; 161 4; 162 87; 167 3; 168 4; 
169 5; 170 38; 171 86; 172 28; 173 7; 
175 165; 176 36; 177 8; 179 7; 182 6; 
185 39; 186 26; 187 451; 188 83; 190 286; 
191 57; 192 9; 193 3; 195 4; 198 4; 
199 62; 200 14; 201 4; 203 999; 204 216; 
205 18; 206 6; 207 6; 208 4; 209 5; 
212 3; 213 197; 214 49; 215 140; 216 18; 
217 5; 221 3; 228 3; 230 4; 231 866; 
232 126; 233 8; 243 12; 245 7; 246 5; 
249 3; 251 4; 253 5; 255 3; 259 12; 
260 280; 261 53; 262 4; 
