Name: 5F-PB-22 butylester analogue
Synon: Butyl-1-(5-fluoropentyl)-1H-indole-3-carboxylate
InChIKey: VIWXHFLEIRDQLE-UHFFFAOYSA-N
Formula: C18H24FNO2
MW: 305
ExactMass: 305.179108
CASNO: 0
ID: 4006
Comment: ENFSI/DWG / Product from 5F-PB-22 in GC injector
Num Peaks: 144
39 21; 40 10; 41 87; 42 6; 43 21; 
44 2; 45 5; 47 13; 50 3; 51 10; 
52 4; 53 7; 55 17; 56 3; 57 11; 
59 9; 61 6; 62 5; 63 9; 64 4; 
65 5; 67 5; 69 8; 73 1; 74 7; 
75 13; 76 8; 77 36; 78 11; 87 5; 
88 12; 89 35; 90 11; 91 17; 94 2; 
101 30; 102 60; 103 53; 104 12; 105 5; 
114 16; 115 67; 116 98; 117 27; 118 18; 
127 5; 128 100; 129 94; 130 288; 131 50; 
132 23; 133 2; 135 1; 140 4; 141 5; 
142 15; 143 81; 144 278; 145 34; 146 22; 
147 7; 148 9; 149 2; 154 18; 155 4; 
156 25; 157 17; 158 22; 159 3; 161 15; 
162 3; 167 7; 168 12; 169 6; 170 34; 
171 9; 172 6; 174 684; 175 142; 176 18; 
177 4; 180 3; 182 7; 183 7; 184 29; 
185 7; 186 4; 187 13; 188 14; 189 2; 
191 4; 192 3; 193 3; 198 5; 200 4; 
201 3; 202 18; 203 6; 204 81; 205 65; 
206 10; 207 1; 208 6; 209 2; 210 5; 
212 12; 214 3; 216 9; 218 4; 219 3; 
220 3; 221 3; 227 4; 228 5; 229 5; 
230 287; 231 61; 232 843; 233 131; 234 12; 
235 3; 247 7; 248 30; 249 999; 250 162; 
254 3; 256 4; 258 4; 260 6; 261 2; 
262 42; 263 9; 265 3; 267 5; 276 5; 
282 5; 285 14; 286 4; 288 46; 289 7; 
303 4; 305 799; 306 154; 307 21; 
