Name: 5F-PB-22 pentafluorpropil analogue
Synon: 2,2,3,3,3-pentafluoropropyl-1-(5-fluoropentyl)-1H-indole-3-carboxylate
InChIKey: VTMONDMGNKSRCC-UHFFFAOYSA-N
Formula: C17H17F6NO2
MW: 381
ExactMass: 381.116348
CASNO: 0
ID: 4008
Comment: ENFSI/DWG
Num Peaks: 152
39 6; 41 23; 42 2; 43 7; 45 2; 
46 1; 47 6; 50 2; 51 14; 52 1; 
53 2; 54 1; 55 3; 59 3; 61 1; 
62 3; 63 4; 64 3; 65 2; 67 1; 
69 18; 74 2; 75 7; 76 6; 77 10; 
78 4; 79 3; 83 2; 85 1; 86 1; 
87 3; 88 7; 89 17; 90 4; 91 2; 
92 2; 100 2; 101 13; 102 31; 103 23; 
104 3; 105 1; 106 1; 113 2; 114 11; 
115 37; 116 37; 117 12; 118 5; 119 2; 
127 2; 128 51; 129 81; 130 119; 131 15; 
132 5; 133 7; 134 1; 135 1; 140 3; 
141 3; 142 6; 143 52; 144 113; 145 18; 
146 4; 147 1; 148 2; 153 1; 154 11; 
155 4; 156 18; 157 11; 158 7; 159 3; 
161 1; 167 5; 168 6; 169 2; 170 26; 
171 3; 172 3; 174 12; 175 2; 177 1; 
179 1; 180 1; 182 3; 183 2; 184 15; 
185 3; 187 2; 193 1; 196 2; 198 3; 
200 3; 201 1; 202 3; 203 2; 204 33; 
205 5; 210 4; 211 1; 212 6; 213 1; 
228 1; 230 6; 231 2; 232 242; 233 39; 
234 3; 247 1; 248 4; 249 1; 254 1; 
262 1; 264 19; 265 3; 273 1; 278 2; 
292 1; 293 8; 294 2; 306 999; 307 182; 
308 19; 309 4; 312 2; 319 8; 320 5; 
321 1; 324 1; 332 4; 333 3; 334 14; 
335 2; 342 2; 346 4; 347 1; 348 10; 
349 1; 352 3; 360 2; 361 15; 362 57; 
363 11; 379 3; 380 13; 381 770; 382 144; 
383 15; 384 1; 
