Name: 5F-PB-22 methylester analogue
Synon: Methyl-1-(5-fluoropentyl)-1H-indole-3-carboxylate
InChIKey: ZTIFWEBSTLDAMT-UHFFFAOYSA-N
Formula: C15H18FNO2
MW: 263
ExactMass: 263.132156
CASNO: 0
ID: 4009
Comment: ENFSI/DWG / product from 5F-PB-22 in GC injector
Num Peaks: 146
38 1; 39 23; 40 2; 41 59; 42 6; 
43 16; 44 1; 45 4; 46 2; 47 18; 
50 7; 51 14; 52 4; 53 6; 54 1; 
55 9; 59 43; 60 1; 61 4; 62 12; 
63 20; 64 5; 65 7; 66 1; 67 3; 
69 6; 73 1; 74 7; 75 21; 76 22; 
77 31; 78 8; 81 1; 85 1; 86 3; 
87 10; 88 25; 89 57; 90 15; 91 15; 
92 2; 95 1; 98 1; 99 1; 100 2; 
101 40; 102 72; 103 49; 104 10; 105 3; 
108 2; 113 2; 114 27; 115 105; 116 96; 
117 36; 118 11; 119 1; 126 1; 127 8; 
128 134; 129 118; 130 237; 131 35; 132 8; 
133 1; 139 1; 140 4; 141 6; 142 19; 
143 91; 144 227; 145 42; 146 45; 147 5; 
148 3; 152 1; 153 2; 154 19; 155 7; 
156 31; 157 15; 158 14; 159 4; 160 9; 
161 2; 162 1; 166 1; 167 5; 168 7; 
169 4; 170 45; 171 10; 172 4; 173 2; 
174 20; 175 9; 176 4; 177 1; 180 1; 
181 1; 182 6; 183 2; 184 28; 185 5; 
186 1; 188 999; 189 184; 190 19; 191 2; 
196 1; 198 3; 200 2; 201 6; 202 6; 
203 4; 204 65; 205 10; 206 1; 207 1; 
210 4; 211 1; 212 7; 213 1; 214 3; 
215 2; 216 11; 217 2; 218 1; 228 2; 
229 1; 230 17; 232 365; 233 59; 234 7; 
242 1; 243 8; 244 1; 245 1; 248 7; 
249 1; 261 2; 262 10; 263 629; 264 108; 
265 11; 
