Name: NMENMEPITMA
Synon: N-(2-Methoxyethyl)-N-(1-methylethyl)-2-(1-pentyl-1H-indol-3-yl)-4-thiazol-methanamine
InChIKey: PSAKYYVEVVAWJL-UHFFFAOYSA-N
Formula: C23H33N3OS
MW: 399
ExactMass: 399.234434
CASNO: 0
ID: 4012
Comment: ENFSI/DWG
Num Peaks: 196
41 35; 42 9; 43 73; 44 5; 45 34; 
47 1; 51 1; 53 1; 54 1; 55 4; 
56 8; 57 1; 58 4; 59 9; 68 2; 
69 2; 70 10; 71 47; 72 7; 73 9; 
74 2; 75 1; 77 4; 78 1; 80 1; 
82 1; 83 1; 84 19; 85 5; 86 2; 
87 1; 88 5; 89 2; 91 1; 96 1; 
97 1; 98 1; 99 1; 100 2; 101 6; 
102 3; 103 1; 112 1; 113 11; 115 12; 
116 107; 117 8; 118 1; 119 1; 120 1; 
126 1; 128 20; 129 9; 130 10; 131 1; 
133 1; 135 3; 139 1; 140 4; 141 5; 
142 30; 143 45; 144 5; 146 1; 147 2; 
148 2; 149 4; 152 1; 153 2; 155 139; 
156 58; 157 10; 158 1; 159 2; 160 3; 
161 1; 162 1; 164 4; 165 1; 166 1; 
167 4; 168 7; 169 12; 170 4; 171 1; 
172 2; 173 2; 174 1; 177 17; 179 10; 
180 5; 181 6; 182 4; 183 9; 184 6; 
185 5; 186 12; 187 4; 188 1; 191 2; 
192 4; 193 8; 194 7; 195 3; 196 1; 
197 7; 198 5; 199 2; 200 2; 205 1; 
207 14; 208 4; 209 3; 210 3; 211 17; 
212 52; 213 106; 214 20; 215 3; 219 1; 
221 1; 223 1; 224 1; 225 9; 226 31; 
227 26; 228 7; 229 2; 230 4; 235 1; 
237 1; 238 2; 239 11; 240 5; 241 7; 
242 2; 243 3; 249 3; 250 3; 251 1; 
252 2; 253 9; 254 15; 255 4; 256 3; 
257 1; 266 1; 267 4; 268 5; 269 2; 
271 1; 281 22; 283 999; 284 483; 285 117; 
286 27; 287 3; 296 4; 297 27; 298 162; 
299 35; 300 11; 301 1; 309 1; 310 16; 
311 9; 312 3; 313 1; 315 1; 324 20; 
325 6; 326 3; 327 3; 328 1; 331 1; 
334 4; 335 1; 340 2; 341 4; 342 4; 
343 1; 352 5; 354 123; 355 36; 356 11; 
357 2; 365 1; 367 223; 368 64; 369 20; 
370 3; 384 4; 385 1; 397 1; 398 2; 
399 1; 
