Name: AL-NBF-imine
Synon: N-{2-[3,5-dimethoxy-4-(prop-2-en-1-yloxy)]ethyl}-1-(2-fluorobenzyl)methanimine
InChIKey: WAEJXUIWHNLPIO-HMAPJEAMSA-N
Formula: C20H22FNO3
MW: 343
ExactMass: 343.158371
CASNO: 0
ID: 4013
Comment: ENFSI/DWG
Num Peaks: 146
38 1; 39 8; 40 2; 41 2; 42 1; 
43 3; 45 1; 50 5; 51 11; 52 8; 
53 15; 55 6; 57 6; 59 3; 62 3; 
63 10; 64 9; 65 16; 66 16; 68 3; 
69 6; 70 2; 73 2; 74 2; 75 11; 
76 7; 77 29; 78 32; 79 14; 80 5; 
81 12; 82 5; 83 32; 84 2; 85 2; 
87 1; 88 1; 89 12; 90 6; 91 16; 
92 12; 93 7; 94 15; 95 14; 96 8; 
97 2; 101 2; 102 7; 103 4; 104 3; 
105 9; 106 27; 107 42; 108 37; 109 503; 
110 42; 111 3; 115 3; 116 2; 117 3; 
118 11; 119 5; 120 9; 121 21; 122 52; 
123 54; 124 17; 125 3; 128 1; 131 1; 
132 1; 133 5; 134 13; 135 44; 136 622; 
137 206; 138 18; 139 3; 145 1; 146 2; 
147 4; 148 6; 149 6; 150 4; 151 19; 
152 6; 153 4; 154 4; 156 1; 159 1; 
161 2; 162 1; 163 1; 164 1; 165 12; 
166 4; 167 999; 168 103; 169 11; 170 2; 
171 1; 175 2; 176 1; 177 26; 178 4; 
179 3; 180 19; 181 5; 182 2; 183 1; 
185 1; 191 1; 192 1; 195 1; 196 2; 
197 1; 198 1; 199 1; 207 6; 208 12; 
209 2; 210 1; 216 1; 228 1; 235 1; 
240 1; 243 1; 253 2; 254 1; 255 1; 
256 2; 270 1; 272 1; 281 1; 288 2; 
301 1; 302 10; 303 230; 304 44; 305 5; 
313 5; 314 1; 327 1; 341 1; 343 8; 
344 2; 
