Name: 4-Ethylephedrine
InChIKey: MMTHSVQWQJSUJY-UHFFFAOYSA-N
Synon: 1-(4-Ethylphenyl)-2-(methylamino)propan-1-ol
Formula: C12H19NO
MW: 193
ExactMass: 193.146665
CASNO: 0
ID: 4017
Comment: ENFSI/DWG
Num Peaks: 73
39 7; 40 1; 41 5; 42 18; 43 12; 
44 9; 50 3; 51 11; 52 3; 53 4; 
54 1; 55 3; 56 34; 57 17; 58 999; 
59 41; 62 1; 63 7; 64 2; 65 15; 
66 2; 70 1; 71 1; 72 1; 74 1; 
75 2; 76 2; 77 45; 78 10; 79 55; 
80 4; 82 1; 89 8; 90 5; 91 70; 
92 9; 93 1; 102 3; 103 14; 104 4; 
105 23; 106 3; 107 3; 115 11; 116 4; 
117 9; 118 2; 119 6; 120 19; 121 1; 
127 1; 128 3; 129 2; 130 4; 131 11; 
132 5; 133 16; 134 7; 135 13; 136 1; 
143 1; 144 7; 145 6; 146 8; 147 1; 
158 1; 159 1; 160 5; 161 1; 162 1; 
174 11; 175 2; 176 1; 
