Name: 4-EMA
Synon: N-methyl-1-(4-ethylphenyl)propan-2-amine
Synon: 4-Ethylmethamphetamine
InChIKey: NGEONVYPIKEKDI-UHFFFAOYSA-N
Formula: C12H19N
MW: 177
ExactMass: 177.15175
CASNO: 0
ID: 4018
Comment: ENFSI/DWG
Num Peaks: 73
39 7; 40 1; 41 9; 42 18; 43 8; 
44 2; 50 2; 51 8; 52 3; 53 3; 
54 1; 55 1; 56 35; 57 14; 58 999; 
59 35; 61 1; 62 1; 63 8; 64 2; 
65 12; 66 1; 67 1; 70 1; 71 1; 
73 2; 74 16; 75 2; 76 2; 77 26; 
78 18; 79 9; 81 2; 87 1; 89 10; 
90 3; 91 56; 92 4; 93 2; 101 1; 
102 6; 103 26; 104 37; 105 18; 106 2; 
115 32; 116 9; 117 29; 118 6; 119 44; 
120 6; 127 3; 128 7; 129 4; 130 6; 
131 11; 132 9; 133 9; 134 2; 143 1; 
144 3; 145 1; 146 12; 147 8; 148 1; 
160 6; 161 3; 162 22; 163 2; 174 1; 
175 1; 176 9; 177 1; 
