Name: 3-Thienoamphetamine
Synon: 1-(thiophen-3-yl)propan-2-amine
InChIKey: RTEQDZAVAQTCOK-UHFFFAOYSA-N
Formula: C7H11NS
MW: 141
ExactMass: 141.06122
CASNO: 0
ID: 4020
Comment: ENFSI/DWG
Num Peaks: 77
37 3; 38 8; 39 35; 40 8; 41 15; 
42 60; 43 17; 44 999; 45 121; 46 4; 
47 8; 49 1; 50 13; 51 18; 52 9; 
53 45; 54 7; 55 1; 56 3; 57 9; 
58 15; 59 3; 60 1; 61 2; 62 4; 
63 14; 64 2; 65 16; 66 4; 67 3; 
68 2; 69 27; 70 10; 71 16; 72 2; 
73 1; 74 1; 75 1; 76 1; 77 7; 
78 3; 79 5; 80 12; 81 7; 82 7; 
83 2; 84 5; 85 4; 91 2; 92 2; 
93 14; 94 3; 95 6; 96 3; 97 191; 
98 34; 99 28; 100 2; 101 1; 106 2; 
107 2; 108 1; 109 4; 110 4; 111 1; 
121 3; 122 2; 123 8; 124 6; 125 4; 
126 22; 127 2; 128 1; 138 1; 139 1; 
140 5; 141 3; 
