Name: 25I-NBF-imine
InChIKey: BUHPOPQWQLWJKO-RGVLZGJSSA-N
Synon: N-[2-(4-iodo-2,5-dimethoxyphenyl)ethyl]-1-(2-fluorobenzyl)methanimine
Synon: 2C-I-NBF-imine
Formula: C17H17FINO2
MW: 413
ExactMass: 413.028805
CASNO: 0
ID: 4025
Comment: ENFSI/DWG
Num Peaks: 236
38 3; 39 19; 40 2; 41 9; 42 3; 
43 2; 45 1; 50 20; 51 40; 52 10; 
53 34; 54 3; 55 4; 56 1; 57 13; 
58 1; 59 6; 61 2; 62 13; 63 42; 
64 27; 65 23; 66 5; 67 6; 68 4; 
69 5; 70 4; 73 7; 74 9; 75 33; 
76 27; 77 119; 78 35; 79 29; 80 4; 
81 8; 82 5; 83 54; 84 3; 85 1; 
86 2; 87 4; 88 5; 89 61; 90 64; 
91 82; 92 40; 93 11; 94 10; 95 14; 
96 7; 97 2; 98 1; 99 2; 100 2; 
101 3; 102 17; 103 12; 104 9; 105 85; 
106 28; 107 80; 108 65; 109 898; 110 69; 
111 3; 114 1; 115 2; 116 3; 117 6; 
118 8; 119 18; 120 32; 121 30; 122 30; 
123 7; 124 20; 125 3; 126 1; 127 14; 
128 15; 129 1; 130 1; 131 3; 132 5; 
133 17; 134 21; 135 87; 136 999; 137 89; 
138 11; 139 2; 143 2; 145 2; 146 5; 
147 5; 148 21; 149 13; 150 29; 151 7; 
152 4; 153 1; 154 1; 155 1; 157 1; 
158 1; 159 1; 160 2; 161 2; 162 6; 
163 6; 164 6; 165 4; 166 1; 167 1; 
170 3; 171 2; 172 2; 173 1; 174 2; 
175 1; 176 2; 177 9; 178 2; 179 2; 
180 5; 181 2; 182 1; 183 5; 184 2; 
185 2; 189 1; 190 3; 191 18; 192 1; 
193 1; 194 1; 195 2; 196 3; 197 4; 
198 4; 199 2; 200 1; 203 2; 204 4; 
205 4; 206 1; 207 4; 208 2; 209 2; 
210 1; 211 3; 212 3; 213 2; 215 1; 
217 4; 218 2; 219 8; 220 3; 221 1; 
222 1; 223 1; 224 2; 225 3; 226 5; 
227 2; 228 2; 231 2; 232 34; 233 6; 
234 14; 235 2; 238 1; 239 1; 240 7; 
241 1; 242 1; 243 1; 244 1; 246 1; 
247 109; 248 12; 249 7; 250 1; 252 2; 
253 5; 254 9; 255 4; 256 19; 257 4; 
258 1; 259 3; 260 1; 261 18; 262 4; 
263 2; 264 2; 267 1; 270 4; 271 2; 
272 1; 274 4; 275 11; 276 15; 277 234; 
278 24; 279 2; 281 2; 282 1; 286 3; 
287 2; 288 2; 289 2; 290 18; 291 3; 
292 1; 318 4; 327 1; 331 1; 341 2; 
346 1; 355 1; 367 3; 368 1; 371 1; 
380 1; 382 654; 383 121; 384 12; 385 1; 
398 1; 405 1; 412 1; 413 100; 414 19; 
415 2; 
