Name: 25I-NB-3-F-imine
InChIKey: DNTUBEIQAPIQJY-RGVLZGJSSA-N
Synon: N-[2-(4-iodo-2,5-dimethoxyphenyl)ethyl]-1-(3-fluorobenzyl)methanimine
Synon: 2C-I-NB-3-F-imine
Formula: C17H17FINO2
MW: 413
ExactMass: 413.028805
CASNO: 0
ID: 4027
Comment: ENFSI/DWG
Num Peaks: 220
37 1; 38 4; 39 24; 40 3; 41 11; 
42 3; 43 4; 45 1; 49 1; 50 24; 
51 47; 52 12; 53 42; 54 4; 55 5; 
56 1; 57 15; 58 1; 59 7; 61 2; 
62 15; 63 49; 64 34; 65 29; 66 7; 
67 8; 68 5; 69 7; 70 5; 73 5; 
74 10; 75 38; 76 31; 77 149; 78 43; 
79 37; 80 4; 81 9; 82 6; 83 56; 
84 3; 85 2; 86 3; 87 5; 88 5; 
89 76; 90 87; 91 104; 92 50; 93 13; 
94 10; 95 27; 96 11; 97 2; 99 2; 
100 2; 101 3; 102 9; 103 15; 104 11; 
105 106; 106 33; 107 92; 108 67; 109 820; 
110 63; 111 3; 114 1; 115 2; 116 5; 
117 7; 118 10; 119 21; 120 46; 121 42; 
122 43; 123 9; 124 18; 125 2; 127 17; 
128 17; 130 1; 131 3; 132 6; 133 23; 
134 25; 135 131; 136 999; 137 91; 138 11; 
139 3; 142 1; 143 3; 144 1; 145 3; 
146 5; 147 5; 148 27; 149 19; 150 44; 
151 13; 152 4; 153 1; 157 1; 158 2; 
160 2; 161 2; 162 5; 163 7; 164 7; 
165 5; 170 4; 171 2; 172 2; 173 1; 
174 1; 175 1; 176 2; 177 6; 178 1; 
179 3; 180 1; 181 1; 183 7; 184 3; 
185 2; 189 1; 190 3; 191 20; 192 2; 
194 1; 195 2; 196 5; 197 4; 198 5; 
199 3; 203 2; 204 4; 205 5; 206 1; 
207 2; 208 2; 209 3; 210 3; 211 3; 
212 5; 213 2; 214 1; 217 5; 218 2; 
219 9; 220 3; 221 1; 222 2; 223 1; 
224 4; 225 3; 226 5; 227 2; 228 2; 
231 3; 232 43; 233 7; 234 18; 235 2; 
238 2; 239 1; 240 13; 241 3; 242 2; 
246 2; 247 159; 248 15; 249 8; 250 1; 
252 1; 253 2; 254 11; 255 5; 256 22; 
257 4; 259 3; 260 1; 261 22; 262 4; 
263 3; 264 2; 270 6; 271 2; 272 1; 
274 4; 275 11; 276 17; 277 471; 278 46; 
279 4; 286 3; 287 2; 288 2; 289 2; 
290 16; 291 3; 292 1; 318 4; 325 1; 
327 1; 367 2; 371 1; 380 1; 381 1; 
382 573; 383 102; 384 10; 385 1; 398 1; 
405 1; 412 1; 413 112; 414 20; 415 2; 
