Name: 25E-NBF
InChIKey: XLZGRQWRGXOAIT-UHFFFAOYSA-N
Synon: 2-(4-ethyl-2,5-dimethoxyphenyl)-N-(2-fluorobenzyl)ethanamine
Synon: 2C-E-NBF
Formula: C19H24FNO2
MW: 317
ExactMass: 317.179108
CASNO: 0
ID: 4028
Comment: ENFSI/DWG
Num Peaks: 129
38 1; 39 8; 40 1; 41 6; 42 3; 
43 3; 44 1; 45 2; 50 2; 51 7; 
52 3; 53 8; 54 1; 55 4; 56 1; 
57 6; 59 4; 62 1; 63 9; 64 2; 
65 13; 66 3; 67 7; 68 1; 69 2; 
70 1; 71 1; 73 3; 74 1; 75 4; 
76 2; 77 35; 78 13; 79 18; 80 2; 
81 4; 82 2; 83 43; 84 2; 87 1; 
89 13; 90 4; 91 77; 92 9; 93 12; 
94 3; 95 3; 96 3; 97 1; 101 1; 
102 5; 103 18; 104 11; 105 22; 106 5; 
107 18; 108 18; 109 999; 110 76; 111 2; 
115 28; 116 8; 117 27; 118 10; 119 20; 
120 5; 121 22; 122 10; 123 6; 124 4; 
127 1; 128 2; 129 2; 130 2; 131 5; 
132 4; 133 10; 134 24; 135 19; 136 36; 
137 14; 138 681; 139 61; 140 2; 145 1; 
146 2; 147 7; 148 6; 149 25; 150 8; 
151 9; 152 5; 158 1; 160 1; 161 3; 
162 4; 163 10; 164 8; 165 72; 166 9; 
176 7; 177 9; 178 9; 179 76; 180 633; 
181 76; 182 6; 190 2; 191 1; 192 8; 
193 5; 194 1; 195 1; 197 1; 207 3; 
208 1; 221 1; 253 1; 254 1; 270 3; 
281 1; 284 26; 285 11; 286 7; 287 1; 
315 5; 316 1; 317 13; 318 2; 
