Name: 25E-NBF-imine
InChIKey: RWHYEYLYLGXVSX-FYJGNVAPSA-N
Synon: N-[2-(4-ethyl-2,5-dimethoxyphenyl)ethyl]-1-(2-fluorobenzyl)methanimine
Synon: 2C-E-NBF-imine
Formula: C19H22FNO2
MW: 315
ExactMass: 315.163458
CASNO: 0
ID: 4029
Comment: ENFSI/DWG
Num Peaks: 169
38 1; 39 16; 40 1; 41 16; 42 2; 
43 5; 45 4; 50 5; 51 15; 52 7; 
53 18; 54 3; 55 9; 56 1; 57 11; 
59 5; 62 4; 63 14; 64 4; 65 26; 
66 5; 67 13; 68 4; 69 4; 70 2; 
71 1; 74 3; 75 15; 76 6; 77 75; 
78 28; 79 39; 80 4; 81 8; 82 4; 
83 42; 84 2; 87 1; 88 2; 89 22; 
90 10; 91 186; 92 21; 93 28; 94 9; 
95 11; 96 6; 97 1; 101 3; 102 16; 
103 39; 104 25; 105 46; 106 12; 107 49; 
108 52; 109 545; 110 42; 111 2; 115 73; 
116 21; 117 85; 118 17; 119 74; 120 13; 
121 60; 122 18; 123 22; 124 16; 125 2; 
127 3; 128 5; 129 3; 130 2; 131 12; 
132 6; 133 26; 134 73; 135 65; 136 384; 
137 39; 138 6; 139 1; 142 2; 143 1; 
144 2; 145 4; 146 5; 147 14; 148 10; 
149 148; 150 25; 151 30; 152 4; 157 1; 
158 1; 159 2; 160 2; 161 9; 162 4; 
163 20; 164 9; 165 7; 166 7; 167 1; 
170 1; 172 1; 173 1; 174 3; 175 2; 
176 6; 177 22; 179 999; 180 127; 181 11; 
182 1; 183 2; 184 1; 185 1; 188 4; 
189 1; 190 5; 191 6; 192 23; 193 5; 
194 1; 196 2; 197 1; 198 1; 204 1; 
205 1; 209 1; 210 1; 211 1; 212 1; 
220 4; 221 1; 222 1; 224 1; 225 1; 
226 1; 227 1; 228 1; 238 1; 240 1; 
241 1; 242 1; 252 1; 253 1; 254 4; 
255 2; 256 4; 257 1; 266 1; 268 9; 
269 5; 270 3; 271 1; 272 2; 273 5; 
282 4; 284 780; 285 166; 286 19; 287 2; 
300 2; 315 188; 316 40; 317 4; 
