Name: 25D-NB4OMe
InChIKey: BSBIUFXIEQMYEN-UHFFFAOYSA-N
Synon: 2-(2,5-dimethoxy-4-methylphenyl)-N-(4-methoxybenzyl)ethanamine
Synon: 2C-D-NB4OMe
Formula: C19H25NO3
MW: 315
ExactMass: 315.183443
CASNO: 0
ID: 4032
Comment: ENFSI/DWG
Num Peaks: 82
39 6; 40 1; 41 4; 42 2; 43 2; 
50 1; 51 7; 52 5; 53 6; 55 3; 
63 4; 64 2; 65 14; 66 2; 67 5; 
68 1; 69 1; 73 2; 76 1; 77 53; 
78 38; 79 25; 80 3; 81 1; 89 10; 
90 11; 91 62; 92 11; 93 6; 94 2; 
102 1; 103 13; 104 5; 105 16; 106 10; 
107 11; 108 4; 109 1; 115 2; 116 1; 
117 4; 118 4; 119 6; 120 11; 121 999; 
122 97; 123 8; 131 1; 132 2; 133 4; 
134 7; 135 50; 136 8; 137 5; 146 1; 
147 3; 148 23; 149 11; 150 76; 151 29; 
152 3; 157 2; 162 5; 163 6; 164 10; 
165 46; 166 287; 167 31; 168 2; 176 1; 
178 2; 179 7; 180 1; 207 1; 253 1; 
282 9; 283 5; 284 4; 285 1; 313 1; 
315 3; 327 1; 
