Name: 25D-NB4OMe-imine
InChIKey: HFYMANGINATEEJ-DEDYPNTBSA-N
Synon: N-[2-(2,5-dimethoxy-4-methylphenyl)ethyl]-1-(4-methoxybenzyl)methanimine
Synon: 2C-D-NB4OMe-imine
Formula: C19H23NO3
MW: 313
ExactMass: 313.167793
CASNO: 0
ID: 4033
Comment: ENFSI/DWG
Num Peaks: 138
38 2; 39 20; 40 2; 41 10; 42 2; 
43 5; 45 1; 50 6; 51 28; 52 13; 
53 17; 54 2; 55 7; 57 2; 62 3; 
63 17; 64 11; 65 47; 66 8; 67 15; 
68 3; 69 3; 74 2; 75 3; 76 9; 
77 136; 78 83; 79 88; 80 7; 81 2; 
83 1; 87 1; 88 1; 89 29; 90 28; 
91 257; 92 43; 93 16; 94 4; 95 1; 
96 1; 101 1; 102 7; 103 47; 104 55; 
105 85; 106 23; 107 22; 108 5; 109 3; 
115 10; 116 8; 117 41; 118 10; 119 17; 
120 31; 121 999; 122 115; 123 8; 127 1; 
128 1; 130 2; 131 5; 132 22; 133 48; 
134 23; 135 140; 136 31; 137 18; 138 2; 
141 5; 142 1; 143 1; 144 1; 145 1; 
146 4; 147 19; 148 841; 149 104; 150 13; 
151 5; 152 5; 153 1; 154 1; 156 1; 
160 3; 161 2; 162 6; 163 16; 164 13; 
165 204; 166 23; 167 3; 174 2; 175 1; 
176 2; 177 3; 178 22; 179 6; 180 2; 
181 1; 190 1; 191 1; 192 1; 193 1; 
194 1; 195 1; 196 1; 206 3; 207 1; 
209 1; 210 1; 222 1; 223 1; 224 2; 
236 1; 238 1; 239 1; 250 1; 251 1; 
252 3; 253 2; 254 1; 266 2; 267 8; 
268 2; 271 1; 280 3; 281 4; 282 652; 
283 133; 284 16; 285 1; 298 1; 312 2; 
313 48; 314 10; 315 1; 
