Name: 25B-NB4OMe
InChIKey: FSHVGXBAVZIZCK-UHFFFAOYSA-N
Synon: 2-(4-bromo-2,5-dimethoxyphenyl)-N-(4-methoxybenzyl)ethanamine
Synon: 2C-B-NB4OMe
Formula: C18H22BrNO3
MW: 379
ExactMass: 379.078306
CASNO: 0
ID: 4038
Comment: ENFSI/DWG
Num Peaks: 101
39 5; 41 3; 42 2; 43 2; 50 3; 
51 11; 52 6; 53 8; 55 2; 62 1; 
63 8; 64 5; 65 14; 66 2; 67 3; 
74 1; 75 3; 76 5; 77 65; 78 48; 
79 11; 80 2; 81 1; 82 1; 89 17; 
90 19; 91 43; 92 12; 93 4; 94 2; 
102 1; 103 2; 104 4; 105 21; 106 15; 
107 9; 108 3; 109 1; 117 3; 118 3; 
119 6; 121 999; 122 97; 123 6; 132 2; 
133 4; 134 8; 135 7; 136 3; 143 4; 
145 3; 147 2; 148 26; 149 6; 150 197; 
151 22; 152 2; 156 1; 157 1; 158 1; 
159 1; 162 1; 163 3; 164 3; 165 1; 
169 3; 170 1; 171 4; 172 1; 173 1; 
184 2; 185 1; 186 5; 187 1; 188 3; 
199 12; 200 1; 201 13; 202 1; 213 3; 
214 1; 215 5; 216 1; 217 2; 227 1; 
228 4; 229 13; 230 37; 231 14; 232 33; 
233 3; 242 1; 243 2; 244 1; 245 2; 
346 5; 347 1; 348 6; 349 1; 350 1; 
379 1; 
