Name: 25B-NB4OMe-imine
InChIKey: PVIHLHMGFAYTKG-UDWIEESQSA-N
Synon: N-[2-(4-bromo-2,5-dimethoxyphenyl)ethyl]-1-(4-methoxybenzyl)methanimine
Synon: 2C-B-NB4OMe-imine
Formula: C18H20BrNO3
MW: 377
ExactMass: 377.062656
CASNO: 0
ID: 4039
Comment: ENFSI/DWG
Num Peaks: 227
38 3; 39 16; 41 5; 42 3; 43 3; 
44 1; 45 1; 50 13; 51 36; 52 13; 
53 21; 54 3; 55 3; 56 1; 57 2; 
59 1; 61 2; 62 7; 63 30; 64 20; 
65 36; 66 5; 67 5; 69 3; 73 12; 
74 5; 75 13; 76 19; 77 144; 78 82; 
79 37; 80 10; 81 5; 82 7; 83 1; 
87 2; 88 3; 89 47; 90 50; 91 170; 
92 41; 93 8; 94 2; 95 3; 96 3; 
97 2; 101 2; 102 7; 103 11; 104 52; 
105 91; 106 36; 107 16; 108 4; 109 2; 
111 1; 113 1; 115 3; 116 7; 117 37; 
118 15; 119 17; 120 21; 121 999; 122 95; 
123 7; 125 1; 127 1; 128 2; 129 1; 
130 2; 131 3; 132 26; 133 56; 134 26; 
135 26; 136 16; 137 3; 139 1; 141 2; 
142 1; 143 12; 144 2; 145 13; 146 6; 
147 16; 148 968; 149 106; 150 15; 151 4; 
152 3; 153 2; 154 2; 155 4; 156 4; 
157 8; 158 4; 159 5; 160 2; 161 1; 
162 3; 163 3; 164 5; 165 3; 166 2; 
167 3; 168 2; 169 9; 170 4; 171 14; 
172 3; 173 7; 174 2; 175 1; 176 1; 
177 1; 178 3; 179 2; 180 2; 181 2; 
182 1; 183 2; 184 6; 185 5; 186 15; 
187 3; 188 11; 189 2; 191 1; 192 1; 
193 3; 194 1; 195 2; 196 3; 197 5; 
198 3; 199 32; 200 5; 201 33; 202 3; 
203 2; 207 8; 208 4; 209 5; 211 3; 
213 10; 214 2; 215 10; 216 3; 217 1; 
221 2; 222 2; 223 2; 224 3; 225 2; 
226 2; 227 6; 228 8; 229 33; 230 9; 
231 28; 232 3; 236 1; 237 2; 238 3; 
239 1; 240 4; 241 2; 242 8; 243 3; 
244 8; 245 2; 249 1; 250 2; 251 1; 
252 4; 253 11; 254 2; 255 3; 256 1; 
257 1; 265 1; 266 5; 267 4; 268 10; 
269 3; 270 3; 271 1; 272 1; 281 4; 
282 3; 283 2; 313 2; 315 1; 316 2; 
325 2; 327 4; 328 1; 329 1; 330 1; 
331 5; 332 2; 333 4; 341 3; 342 2; 
344 3; 345 2; 346 359; 347 67; 348 359; 
349 66; 350 7; 377 9; 378 2; 379 8; 
380 1; 387 1; 389 2; 400 1; 403 1; 
404 1; 405 1; 407 1; 479 1; 504 1; 
505 1; 553 1; 
