Name: Allylescaline Acetyl derivative
Synon: AL Acetyl derivative
InChIKey: NJFWOBAQGYITIY-UHFFFAOYSA-N
Formula: C15H21NO4
MW: 279
ExactMass: 279.147058
CASNO: 0
ID: 4043
Comment: ENFSI/DWG
Num Peaks: 127
40 7; 41 62; 42 8; 43 81; 44 3; 
45 2; 50 2; 51 9; 52 15; 53 13; 
55 7; 56 2; 57 2; 59 1; 62 1; 
63 6; 64 7; 65 25; 66 10; 67 3; 
68 1; 69 3; 71 1; 72 12; 75 2; 
76 5; 77 33; 78 23; 79 22; 80 15; 
81 6; 82 2; 83 1; 89 5; 90 8; 
91 54; 92 16; 93 14; 94 8; 95 9; 
96 2; 102 1; 103 5; 104 6; 105 13; 
106 16; 107 16; 108 11; 109 9; 110 3; 
111 1; 115 6; 116 2; 117 6; 118 6; 
119 41; 120 19; 121 29; 122 17; 123 22; 
124 8; 125 3; 128 1; 129 2; 131 3; 
132 5; 133 7; 134 20; 135 12; 136 60; 
137 20; 138 9; 139 2; 144 1; 145 2; 
146 3; 147 8; 148 37; 149 12; 150 6; 
151 109; 152 17; 153 4; 160 2; 161 5; 
162 5; 163 5; 164 26; 165 20; 167 410; 
168 41; 169 4; 173 1; 174 1; 175 10; 
176 3; 177 8; 179 999; 180 79; 181 11; 
187 1; 188 1; 189 3; 190 1; 191 4; 
192 2; 193 2; 194 4; 195 6; 196 7; 
204 1; 205 2; 206 46; 207 17; 208 2; 
219 2; 220 51; 221 8; 222 6; 236 2; 
237 4; 238 122; 239 15; 240 1; 279 93; 
280 17; 281 2; 
