Name: 4-Chloromethamphetamine Acetyl derivative
Synon: 4-CMA Acetyl derivative
InChIKey: WPTREBISEAWTRB-UHFFFAOYSA-N
Formula: C12H16ClNO
MW: 225
ExactMass: 225.092042
CASNO: 0
ID: 4049
Comment: ENFSI/DWG
Num Peaks: 111
37 1; 38 3; 39 21; 40 5; 41 11; 
42 92; 43 164; 44 5; 45 2; 49 1; 
50 10; 51 16; 52 3; 53 1; 54 8; 
55 5; 56 74; 57 32; 58 999; 59 35; 
61 2; 62 11; 63 41; 64 9; 65 12; 
66 1; 68 1; 69 1; 70 2; 71 8; 
72 3; 73 13; 74 19; 75 24; 76 6; 
77 19; 78 5; 79 1; 84 1; 85 3; 
86 4; 87 6; 88 3; 89 96; 90 31; 
91 29; 92 3; 97 1; 99 39; 100 672; 
101 52; 102 14; 103 14; 104 2; 109 1; 
110 1; 111 3; 112 4; 113 3; 114 5; 
115 65; 116 27; 117 65; 118 7; 123 3; 
125 164; 126 15; 127 59; 128 5; 129 1; 
130 6; 131 6; 132 6; 133 7; 136 1; 
137 3; 138 4; 139 2; 140 2; 142 1; 
144 3; 145 3; 146 1; 147 3; 149 3; 
150 4; 151 6; 152 59; 153 18; 154 20; 
155 6; 156 1; 164 2; 165 1; 166 7; 
167 6; 168 28; 169 5; 170 8; 171 1; 
178 1; 180 6; 181 4; 182 13; 183 2; 
184 3; 185 1; 192 1; 210 1; 225 4; 
227 1; 
