Name: 4-Chloroamphetamine Acetyl derivative
Synon: 4-CA Acetyl derivative
InChIKey: RTYFVIWGXCKUBG-UHFFFAOYSA-N
Formula: C11H14ClNO
MW: 211
ExactMass: 211.076392
CASNO: 0
ID: 4050
Comment: ENFSI/DWG
Num Peaks: 102
36 1; 37 1; 38 5; 39 33; 40 5; 
41 18; 42 65; 43 248; 44 999; 45 26; 
49 2; 50 15; 51 26; 52 5; 53 2; 
54 1; 56 7; 57 12; 58 26; 59 1; 
60 24; 61 5; 62 18; 63 73; 64 15; 
65 28; 66 2; 68 1; 70 1; 72 1; 
73 18; 74 9; 75 32; 76 7; 77 21; 
78 4; 79 1; 84 2; 85 7; 86 541; 
87 34; 88 6; 89 177; 90 55; 91 82; 
92 7; 93 1; 97 3; 99 56; 100 4; 
101 27; 102 13; 103 11; 104 3; 105 2; 
106 1; 111 4; 112 4; 113 4; 114 5; 
115 91; 116 36; 117 199; 118 32; 119 12; 
120 1; 121 2; 123 3; 125 244; 126 25; 
127 81; 128 9; 129 1; 130 5; 131 3; 
132 4; 133 4; 134 1; 136 2; 137 3; 
138 5; 139 2; 140 2; 141 1; 149 5; 
150 1; 151 8; 152 433; 153 52; 154 173; 
155 18; 156 8; 157 1; 164 1; 166 1; 
167 5; 168 12; 169 3; 170 3; 211 16; 
212 3; 213 6; 
