Name: 4-Benzylpiperidine Acetyl derivative
InChIKey: BKQOKWBHIBQLIH-UHFFFAOYSA-N
Formula: C14H19NO
MW: 217
ExactMass: 217.146665
CASNO: 0
ID: 4051
Comment: ENFSI/DWG
Num Peaks: 134
38 4; 39 93; 40 12; 41 76; 42 270; 
43 651; 44 74; 45 8; 50 17; 51 62; 
52 20; 53 46; 54 52; 55 192; 56 349; 
57 186; 58 74; 59 6; 60 32; 61 1; 
62 9; 63 46; 64 15; 65 206; 66 18; 
67 50; 68 44; 69 90; 70 31; 71 35; 
72 97; 73 46; 74 23; 75 9; 76 10; 
77 67; 78 39; 79 18; 80 37; 81 8; 
82 204; 83 72; 84 487; 85 57; 86 35; 
87 134; 88 9; 89 55; 91 696; 92 73; 
93 5; 94 3; 95 5; 96 15; 97 42; 
98 55; 99 23; 100 98; 101 9; 102 17; 
103 40; 104 49; 105 39; 106 12; 107 2; 
109 1; 110 4; 111 182; 112 25; 113 15; 
114 5; 115 174; 116 54; 117 153; 118 41; 
119 8; 120 17; 121 2; 122 1; 124 108; 
125 59; 126 463; 127 58; 128 69; 129 175; 
130 328; 131 130; 132 46; 133 8; 134 6; 
135 1; 137 5; 138 2; 139 4; 140 3; 
141 8; 142 5; 143 57; 144 18; 145 21; 
146 20; 147 6; 148 2; 150 1; 155 3; 
156 3; 157 21; 158 110; 159 19; 160 141; 
161 18; 162 3; 163 1; 167 1; 168 1; 
170 1; 171 1; 172 5; 174 429; 175 65; 
176 7; 188 20; 189 5; 199 1; 200 4; 
202 80; 203 10; 204 1; 215 1; 216 168; 
217 999; 218 165; 219 14; 220 1; 
