Name: 4-Benzylpiperidine
Synon: 4-(Phenylmethyl)piperidine
InChIKey: ABGXADJDTPFFSZ-UHFFFAOYSA-N
Formula: C12H17N
MW: 175
ExactMass: 175.1361
CASNO: 31252423
ID: 4052
Comment: ENFSI / RIFSC Sofia, Bulgaria
Num Peaks: 95
40 7; 41 44; 42 145; 43 57; 44 103; 
45 4; 50 14; 51 44; 52 15; 53 35; 
54 29; 55 272; 56 411; 57 150; 58 10; 
61 1; 62 8; 63 32; 64 9; 65 129; 
66 10; 67 30; 68 36; 69 412; 70 41; 
71 4; 74 6; 75 6; 76 7; 77 47; 
78 25; 79 10; 80 24; 81 5; 82 220; 
83 98; 84 362; 85 22; 86 2; 87 3; 
89 32; 90 10; 91 340; 92 33; 93 2; 
94 2; 95 9; 96 10; 97 155; 98 22; 
99 2; 101 2; 102 10; 103 26; 104 25; 
105 21; 106 6; 113 1; 114 2; 115 100; 
116 32; 117 97; 118 100; 119 12; 120 9; 
121 2; 126 2; 127 12; 128 36; 129 65; 
130 97; 131 36; 132 28; 133 4; 134 1; 
139 1; 141 5; 142 2; 143 10; 144 5; 
145 12; 146 14; 147 5; 157 2; 158 2; 
160 4; 167 1; 168 1; 169 1; 170 1; 
172 2; 174 638; 175 999; 176 130; 177 9; 
