Name: Homoamphetamine Acetyl derivative
Synon: 3-Amino-1-phenylbutane Acetyl derivative
InChIKey: KQSKZCWLCIETEF-UHFFFAOYSA-N
Formula: C12H17NO
MW: 191
ExactMass: 191.131014
CASNO: 0
ID: 4056
Comment: ENFSI/DWG
Num Peaks: 87
38 4; 39 52; 40 6; 41 30; 42 72; 
43 293; 44 696; 45 31; 46 1; 50 20; 
51 68; 52 19; 53 14; 54 14; 55 8; 
56 22; 57 17; 58 123; 59 12; 60 78; 
61 3; 62 7; 63 36; 64 9; 65 140; 
66 10; 67 1; 68 1; 70 10; 71 5; 
72 242; 73 11; 74 8; 75 8; 76 11; 
77 147; 78 85; 79 68; 80 5; 84 1; 
86 167; 87 999; 88 48; 89 39; 90 6; 
91 582; 92 63; 93 5; 94 1; 96 1; 
98 4; 99 2; 100 63; 101 6; 102 18; 
103 85; 104 104; 105 72; 106 15; 107 7; 
115 99; 116 32; 117 698; 118 76; 119 5; 
120 10; 121 2; 127 6; 128 15; 129 17; 
130 18; 131 75; 132 257; 133 34; 134 40; 
135 5; 136 1; 143 1; 144 2; 146 6; 
147 2; 148 11; 149 4; 176 3; 191 269; 
192 37; 193 3; 
