Name: 25E-NB-3-F Acetyl derivative
InChIKey: MZBYRFJVNOLXQS-UHFFFAOYSA-N
Synon: 2C-E-NB-3-F Acetyl derivative
Formula: C21H26FNO3
MW: 359
ExactMass: 359.189672
CASNO: 0
ID: 4060
Comment: ENFSI/DWG
Num Peaks: 121
39 7; 41 7; 42 5; 43 101; 44 2; 
45 2; 50 1; 51 5; 52 2; 53 7; 
54 1; 55 5; 56 1; 57 5; 59 2; 
62 1; 63 5; 64 1; 65 11; 66 2; 
67 6; 68 1; 69 1; 70 1; 71 1; 
75 2; 76 1; 77 33; 78 12; 79 18; 
80 2; 81 3; 82 1; 83 25; 84 1; 
89 8; 90 4; 91 79; 92 9; 93 11; 
94 2; 95 3; 96 2; 97 4; 102 3; 
103 17; 104 11; 105 23; 106 5; 107 11; 
108 9; 109 332; 110 25; 111 1; 115 30; 
116 9; 117 32; 118 7; 119 23; 120 5; 
121 24; 122 7; 123 6; 124 21; 125 2; 
127 1; 128 2; 129 2; 130 1; 131 6; 
132 3; 133 12; 134 27; 135 16; 136 19; 
137 6; 138 270; 139 25; 140 1; 144 1; 
145 2; 146 2; 147 9; 148 7; 149 40; 
150 7; 151 6; 152 1; 158 1; 159 2; 
160 2; 161 5; 162 5; 163 13; 164 7; 
165 10; 166 2; 167 1; 175 1; 176 7; 
177 105; 178 26; 179 96; 180 16; 181 1; 
190 4; 192 999; 193 141; 194 13; 195 1; 
207 3; 208 3; 235 1; 270 2; 284 1; 
285 3; 286 1; 316 3; 359 87; 360 20; 
361 2; 
