Name: 25D-NB4OMe Acetyl derivative
InChIKey: ZTARAYBGIOYJIK-UHFFFAOYSA-N
Synon: 2C-D-NB4OMe Acetyl derivative
Formula: C21H27NO4
MW: 357
ExactMass: 357.194008
CASNO: 0
ID: 4061
Comment: ENFSI/DWG
Num Peaks: 102
38 1; 39 10; 40 2; 41 8; 42 6; 
43 72; 44 3; 45 1; 50 3; 51 12; 
52 9; 53 10; 54 1; 55 7; 56 1; 
57 1; 62 1; 63 7; 64 4; 65 24; 
66 5; 67 9; 68 1; 69 2; 73 2; 
75 1; 76 2; 77 90; 78 60; 79 43; 
80 4; 81 2; 89 15; 90 16; 91 115; 
92 20; 93 13; 94 7; 95 1; 102 2; 
103 24; 104 10; 105 35; 106 15; 107 19; 
108 5; 109 12; 110 1; 115 7; 116 2; 
117 9; 118 4; 119 12; 120 21; 121 999; 
122 104; 123 9; 130 1; 131 3; 132 3; 
133 6; 134 11; 135 81; 136 70; 137 14; 
138 1; 146 2; 147 6; 148 17; 149 24; 
150 8; 151 5; 152 1; 158 2; 161 2; 
162 6; 163 78; 164 37; 165 83; 166 10; 
167 1; 174 1; 176 3; 178 973; 179 135; 
180 13; 181 1; 192 1; 193 1; 194 4; 
195 1; 207 1; 253 1; 255 1; 282 1; 
283 2; 284 1; 314 6; 315 1; 357 92; 
358 20; 359 3; 
