Name: 25C-NBOMe Acetyl derivative
InChIKey: VKOMUOGSVVHEJM-UHFFFAOYSA-N
Synon: 25C-NB2OMe Acetyl derivative
Synon: 2C-C-NBOMe Acetyl derivative
Synon: 2C-C-NB2OMe Acetyl derivative
Formula: C20H24ClNO4
MW: 377
ExactMass: 377.139385
CASNO: 0
ID: 4062
Comment: ENFSI/DWG
Num Peaks: 144
39 7; 41 2; 42 7; 43 65; 44 2; 
50 3; 51 11; 52 6; 53 7; 55 2; 
56 1; 62 1; 63 9; 64 5; 65 43; 
66 4; 67 2; 72 1; 73 2; 75 7; 
76 4; 77 57; 78 30; 79 12; 80 1; 
85 1; 87 1; 88 1; 89 21; 91 325; 
92 32; 93 38; 94 4; 95 1; 99 14; 
100 1; 101 6; 102 2; 103 6; 104 5; 
105 25; 106 6; 107 23; 108 4; 109 3; 
111 4; 112 12; 113 7; 114 3; 115 2; 
116 1; 117 4; 118 7; 119 10; 121 999; 
122 94; 123 6; 124 1; 125 19; 126 5; 
127 11; 128 3; 129 2; 130 1; 131 1; 
132 5; 133 6; 134 10; 135 7; 136 40; 
137 4; 138 1; 139 2; 140 6; 141 5; 
142 15; 143 3; 144 4; 145 1; 146 1; 
147 3; 148 19; 149 6; 150 97; 151 10; 
152 2; 153 2; 154 3; 155 47; 156 7; 
157 17; 158 2; 159 1; 160 1; 161 1; 
162 1; 163 2; 164 6; 165 1; 167 3; 
168 3; 169 17; 170 5; 171 9; 172 2; 
173 1; 178 2; 179 1; 180 1; 181 1; 
182 2; 183 39; 184 27; 185 52; 186 12; 
187 14; 188 1; 192 75; 193 10; 194 2; 
195 1; 196 2; 198 539; 199 71; 200 175; 
201 22; 202 2; 212 1; 214 4; 215 1; 
216 1; 226 1; 228 1; 255 1; 303 2; 
304 1; 305 1; 334 6; 335 1; 336 2; 
377 54; 378 11; 379 19; 380 4; 
