Name: 25C-NB4OMe Acetyl derivative
InChIKey: ADUFZLCQITWPQA-UHFFFAOYSA-N
Synon: 2C-C-NB4OMe Acetyl derivative
Formula: C20H24ClNO4
MW: 377
ExactMass: 377.139385
CASNO: 0
ID: 4063
Comment: ENFSI/DWG
Num Peaks: 134
36 1; 38 1; 39 6; 41 4; 42 6; 
43 57; 44 2; 50 3; 51 11; 52 6; 
53 7; 54 1; 55 4; 56 1; 62 1; 
63 7; 64 4; 65 14; 66 2; 67 3; 
73 4; 74 1; 75 5; 76 3; 77 70; 
78 46; 79 11; 80 1; 81 1; 87 1; 
88 1; 89 20; 90 14; 91 46; 92 8; 
93 4; 94 4; 99 9; 100 1; 101 3; 
102 2; 103 5; 104 4; 105 17; 106 10; 
107 10; 108 2; 109 8; 110 1; 111 3; 
112 7; 113 5; 114 3; 115 2; 117 2; 
118 3; 119 6; 121 999; 122 90; 123 6; 
124 1; 125 10; 126 3; 127 7; 128 2; 
129 1; 131 1; 132 2; 133 5; 134 7; 
135 7; 136 47; 137 6; 138 1; 139 1; 
140 3; 141 3; 142 8; 143 2; 144 2; 
147 2; 148 15; 149 4; 150 3; 151 1; 
152 1; 153 1; 154 3; 155 27; 156 4; 
157 9; 158 1; 160 1; 162 1; 163 1; 
164 6; 165 1; 167 1; 168 1; 169 11; 
170 3; 171 6; 172 1; 178 3; 179 5; 
180 1; 182 1; 183 27; 184 20; 185 31; 
186 8; 187 8; 188 1; 192 6; 193 1; 
195 1; 196 1; 198 381; 199 50; 200 126; 
201 15; 202 1; 207 3; 209 1; 214 1; 
253 1; 334 2; 336 1; 341 1; 346 1; 
377 34; 378 7; 379 12; 380 2; 
