Name: 25B-NBOMe Acetyl derivative
InChIKey: WQCPBOAEPJPLGL-UHFFFAOYSA-N
Synon: 25B-NB2OMe Acetyl derivative
Synon: 2C-B-NB2OMe Acetyl derivative
Synon: 2C-B-NBOMe Acetyl derivative
Formula: C20H24BrNO4
MW: 421
ExactMass: 421.088871
CASNO: 0
ID: 4064
Comment: ENFSI/DWG
Num Peaks: 147
38 1; 39 6; 41 3; 42 7; 43 66; 
44 2; 50 3; 51 12; 52 5; 53 9; 
55 2; 56 1; 62 2; 63 11; 64 6; 
65 40; 66 3; 67 2; 74 1; 75 3; 
76 6; 77 59; 78 33; 79 15; 80 2; 
81 1; 87 1; 89 21; 90 20; 91 316; 
92 37; 93 36; 94 5; 102 2; 103 6; 
104 8; 105 36; 106 13; 107 26; 108 5; 
109 3; 116 1; 117 6; 118 11; 119 14; 
121 999; 122 92; 123 7; 131 2; 132 5; 
133 11; 134 16; 135 11; 136 38; 137 3; 
143 7; 144 1; 145 6; 146 1; 147 2; 
148 42; 149 12; 150 101; 151 12; 152 2; 
155 3; 156 2; 157 3; 158 2; 159 2; 
160 1; 161 1; 162 2; 163 2; 164 10; 
165 3; 168 1; 169 6; 170 2; 171 9; 
172 2; 173 3; 174 1; 178 2; 179 2; 
180 2; 181 1; 182 1; 183 2; 184 4; 
185 3; 186 10; 187 3; 188 5; 190 1; 
191 1; 192 86; 193 10; 194 1; 198 9; 
199 25; 200 7; 201 26; 202 3; 203 1; 
210 1; 211 1; 212 1; 213 10; 214 2; 
215 9; 216 2; 217 1; 226 1; 227 16; 
228 15; 229 40; 230 15; 231 24; 232 2; 
238 1; 239 1; 240 2; 242 351; 243 47; 
244 338; 245 45; 246 4; 253 1; 258 2; 
260 2; 268 2; 269 1; 271 1; 272 1; 
283 1; 347 1; 348 1; 349 1; 377 1; 
378 3; 380 3; 421 29; 422 6; 423 26; 
424 5; 425 1; 
