Name: 25B-NB4OMe Acetyl derivative
InChIKey: JLZFAHHFWUUIFZ-UHFFFAOYSA-N
Synon: 2C-B-NB4OMe Acetyl derivative
Formula: C20H24BrNO4
MW: 421
ExactMass: 421.088871
CASNO: 0
ID: 4066
Comment: ENFSI/DWG
Num Peaks: 165
38 1; 39 6; 41 4; 42 5; 43 53; 
44 3; 45 1; 50 4; 51 12; 52 6; 
53 9; 54 1; 55 3; 56 1; 60 1; 
62 2; 63 9; 64 6; 65 14; 66 2; 
67 2; 73 8; 74 1; 75 3; 76 5; 
77 71; 78 49; 79 14; 80 5; 81 2; 
82 4; 87 1; 88 1; 89 19; 90 20; 
91 48; 92 13; 93 5; 94 4; 95 1; 
102 2; 103 4; 104 6; 105 26; 106 17; 
107 13; 108 3; 109 8; 116 1; 117 3; 
118 6; 119 10; 120 12; 121 999; 122 94; 
123 6; 131 1; 132 3; 133 9; 134 11; 
135 13; 136 48; 137 6; 143 3; 145 4; 
146 1; 147 4; 148 33; 149 9; 150 8; 
151 2; 152 1; 155 1; 156 2; 157 3; 
158 2; 159 1; 162 2; 163 1; 164 10; 
165 2; 166 1; 169 3; 170 2; 171 6; 
172 1; 173 2; 177 1; 178 2; 179 7; 
180 1; 182 1; 183 1; 184 3; 185 2; 
186 5; 187 2; 188 3; 191 1; 192 8; 
193 2; 195 1; 196 1; 197 1; 198 1; 
199 13; 200 3; 201 14; 202 1; 203 1; 
207 8; 208 1; 209 2; 211 1; 213 6; 
214 2; 215 8; 216 1; 217 1; 221 1; 
225 1; 227 11; 228 11; 229 25; 230 12; 
231 14; 232 1; 239 1; 240 1; 242 284; 
243 37; 244 276; 245 35; 246 3; 252 1; 
253 5; 254 1; 255 1; 258 1; 260 1; 
268 5; 269 1; 270 1; 271 1; 281 4; 
282 1; 283 1; 311 1; 313 1; 327 1; 
331 1; 341 2; 343 1; 346 1; 347 1; 
348 1; 378 1; 380 1; 405 1; 406 1; 
417 1; 421 31; 422 7; 423 28; 424 6; 
