Name: 2-MPA Acetyl derivative
InChIKey: MTPDSLPKRUSIJH-UHFFFAOYSA-N
Formula: C10H15NOS
MW: 197
ExactMass: 197.087435
CASNO: 0
ID: 4067
Comment: ENFSI/DWG
Num Peaks: 89
37 1; 38 3; 39 25; 40 3; 41 14; 
42 72; 43 132; 44 7; 45 48; 46 1; 
47 4; 50 5; 51 11; 52 5; 53 37; 
54 8; 55 5; 56 72; 57 28; 58 999; 
59 36; 60 1; 61 1; 62 3; 63 9; 
64 1; 65 10; 66 4; 67 1; 68 2; 
69 15; 70 8; 71 17; 72 2; 73 1; 
74 18; 75 1; 77 11; 78 5; 79 10; 
80 2; 81 3; 82 5; 83 2; 84 6; 
85 5; 86 1; 89 1; 91 17; 92 2; 
93 2; 94 3; 95 7; 96 7; 97 172; 
98 16; 99 14; 100 473; 101 28; 102 1; 
106 1; 107 1; 108 2; 109 8; 110 8; 
111 5; 112 2; 113 2; 120 2; 121 4; 
122 5; 123 55; 124 209; 125 33; 126 11; 
127 3; 136 1; 137 1; 138 3; 139 4; 
140 11; 141 1; 152 1; 153 2; 154 6; 
182 1; 197 16; 198 2; 199 1; 
