Name: N-Ethylnorpentedrone TFA derivative
InChIKey: VEPKBNDRHULGNT-UHFFFAOYSA-N
Formula: C15H18F3NO2
MW: 301
ExactMass: 301.128963
CASNO: 0
ID: 4072
Comment: ENFSI/DWG
Num Peaks: 109
39 16; 40 3; 41 21; 42 18; 43 17; 
44 8; 45 2; 47 2; 50 19; 51 82; 
52 8; 53 11; 54 11; 55 327; 56 64; 
57 7; 58 2; 63 4; 65 5; 66 1; 
67 1; 68 6; 69 61; 70 27; 71 11; 
72 5; 73 2; 74 5; 75 6; 76 17; 
77 361; 78 52; 79 10; 80 1; 81 1; 
82 5; 83 3; 84 8; 89 4; 90 2; 
91 27; 92 5; 94 3; 96 12; 97 8; 
98 18; 99 5; 102 2; 103 7; 104 7; 
105 449; 106 43; 107 4; 110 1; 114 27; 
115 11; 116 5; 117 6; 118 4; 120 2; 
124 35; 126 248; 127 13; 128 6; 129 3; 
130 3; 131 6; 132 5; 133 11; 138 3; 
139 2; 140 8; 141 5; 142 122; 143 8; 
144 3; 145 6; 146 8; 147 1; 152 5; 
154 439; 155 26; 156 2; 158 1; 159 3; 
160 2; 161 5; 162 12; 166 7; 167 1; 
168 4; 179 1; 180 3; 188 11; 189 1; 
190 1; 194 1; 195 13; 196 999; 197 93; 
198 6; 202 2; 232 4; 257 1; 258 1; 
272 2; 273 1; 301 21; 302 3; 
