Name: 4-EMA TFA derivative
InChIKey: DBUMVWZWBWIOSM-UHFFFAOYSA-N
Formula: C14H18F3NO
MW: 273
ExactMass: 273.134048
CASNO: 0
ID: 4076
Comment: ENFSI/DWG
Num Peaks: 92
39 12; 40 1; 41 15; 42 113; 43 3; 
47 11; 50 4; 51 12; 52 4; 53 5; 
54 2; 55 3; 56 43; 57 21; 58 15; 
60 1; 62 2; 63 10; 64 5; 65 19; 
66 2; 67 1; 69 69; 70 2; 71 3; 
74 1; 75 2; 76 4; 77 37; 78 30; 
79 14; 80 13; 84 8; 87 1; 89 12; 
90 4; 91 93; 92 13; 93 3; 96 1; 
97 5; 98 2; 101 1; 102 9; 103 35; 
104 49; 105 26; 106 2; 110 248; 111 8; 
114 1; 115 50; 116 18; 117 70; 118 12; 
119 94; 120 17; 121 2; 126 1; 127 5; 
128 12; 129 10; 130 5; 131 75; 132 10; 
133 2; 135 1; 140 1; 141 1; 142 1; 
143 1; 144 4; 146 499; 147 70; 148 4; 
152 1; 154 999; 155 60; 156 3; 158 1; 
160 3; 161 1; 174 1; 175 2; 176 1; 
177 1; 186 4; 204 7; 205 1; 206 1; 
234 1; 273 1; 
