Name: 4-Benzylpiperidine TFA derivative
InChIKey: FLCQYFFPGVUUFI-UHFFFAOYSA-N
Formula: C14H16F3NO
MW: 271
ExactMass: 271.118399
CASNO: 0
ID: 4079
Comment: ENFSI/DWG
Num Peaks: 157
39 69; 40 8; 41 56; 42 75; 43 10; 
44 6; 45 2; 46 1; 50 15; 51 39; 
52 12; 53 35; 54 31; 55 216; 56 65; 
57 14; 58 2; 59 1; 60 1; 61 1; 
62 6; 63 30; 64 10; 65 150; 66 15; 
67 134; 68 20; 69 141; 70 8; 71 2; 
72 2; 74 3; 75 6; 76 8; 77 45; 
78 46; 79 15; 80 19; 81 14; 82 40; 
83 30; 84 13; 85 7; 86 2; 87 2; 
88 2; 89 37; 91 999; 92 181; 93 14; 
94 4; 95 1; 96 24; 97 12; 98 6; 
99 3; 101 4; 102 11; 103 30; 104 79; 
105 30; 106 6; 107 1; 108 3; 109 2; 
110 35; 111 8; 112 4; 113 2; 114 11; 
115 128; 116 39; 117 151; 118 25; 119 2; 
120 1; 122 2; 124 4; 125 4; 126 99; 
127 28; 128 104; 129 124; 130 161; 131 79; 
132 62; 133 8; 134 1; 135 3; 136 1; 
138 5; 139 4; 140 14; 141 14; 142 17; 
143 27; 144 66; 145 34; 146 6; 148 1; 
150 1; 151 1; 152 68; 153 6; 154 10; 
155 6; 156 5; 157 22; 158 42; 159 14; 
160 5; 161 1; 162 4; 163 1; 164 12; 
165 68; 166 13; 167 6; 168 1; 172 1; 
174 70; 175 10; 176 2; 178 157; 179 27; 
180 274; 181 22; 182 1; 184 3; 185 1; 
191 16; 192 6; 193 2; 194 1; 202 253; 
203 39; 204 4; 212 1; 215 3; 216 1; 
217 1; 224 2; 228 1; 230 20; 231 3; 
232 1; 242 13; 243 12; 244 1; 252 2; 
253 1; 254 1; 256 5; 270 90; 271 705; 
272 113; 273 9; 
