Name: 3-Thienoamphetamine TFA derivative
InChIKey: LNUGNMPXWLNBPY-UHFFFAOYSA-N
Formula: C9H10F3NOS
MW: 237
ExactMass: 237.04352
CASNO: 0
ID: 4080
Comment: ENFSI/DWG
Num Peaks: 108
37 1; 38 6; 39 37; 40 6; 41 18; 
42 26; 43 14; 44 14; 45 149; 46 5; 
47 35; 48 1; 49 1; 50 13; 51 22; 
52 7; 53 61; 54 5; 55 1; 56 1; 
57 8; 58 15; 59 5; 60 2; 61 1; 
62 4; 63 14; 64 2; 65 17; 66 23; 
67 2; 69 195; 70 67; 71 21; 72 3; 
73 2; 74 5; 75 1; 76 1; 77 17; 
78 16; 79 20; 80 9; 81 7; 82 8; 
83 3; 84 12; 85 6; 86 1; 89 1; 
90 3; 91 27; 92 70; 93 37; 94 4; 
95 8; 96 22; 97 731; 98 116; 99 39; 
100 5; 102 1; 104 1; 106 2; 107 1; 
108 5; 109 12; 110 11; 111 4; 112 1; 
113 16; 114 2; 120 2; 121 10; 122 8; 
123 95; 124 999; 125 143; 126 52; 127 6; 
134 3; 135 1; 136 1; 138 3; 140 752; 
141 33; 142 2; 147 3; 148 1; 150 2; 
152 3; 153 2; 155 2; 161 1; 166 1; 
168 9; 169 1; 170 3; 173 1; 178 1; 
184 2; 198 4; 204 2; 205 1; 222 6; 
237 15; 238 1; 239 1; 
