Name: 3-MPA TFA derivative
InChIKey: VMRSSQDPUQBQHQ-UHFFFAOYSA-N
Formula: C10H12F3NOS
MW: 251
ExactMass: 251.05917
CASNO: 0
ID: 4081
Comment: ENFSI/DWG
Num Peaks: 97
38 4; 39 35; 40 6; 41 19; 42 206; 
43 8; 44 3; 45 74; 46 3; 47 23; 
49 1; 50 10; 51 16; 52 6; 53 37; 
54 8; 55 7; 56 66; 57 34; 58 30; 
59 3; 60 3; 61 1; 62 2; 63 8; 
64 1; 65 14; 66 5; 67 2; 69 140; 
70 11; 71 15; 72 1; 73 1; 74 1; 
75 1; 76 2; 77 16; 78 15; 79 15; 
80 20; 81 5; 82 6; 83 3; 84 21; 
85 6; 86 1; 89 1; 90 1; 91 20; 
92 12; 93 2; 94 3; 95 6; 96 8; 
97 206; 98 23; 99 10; 100 1; 104 3; 
105 1; 106 1; 108 5; 109 11; 110 372; 
111 17; 112 1; 113 1; 120 1; 121 9; 
122 6; 123 50; 124 485; 125 68; 126 25; 
127 3; 133 1; 134 1; 135 3; 136 1; 
137 2; 138 3; 139 6; 140 1; 152 2; 
154 999; 155 61; 156 3; 161 1; 164 1; 
166 1; 182 6; 184 2; 207 1; 212 4; 
236 1; 251 3; 
