Name: 3,4-CTMP TFA derivative
Synon: 3,4-Dichloromethylphenidate TFA derivative
InChIKey: IFZYHYZRBGBGEG-UHFFFAOYSA-N
Formula: C16H16Cl2F3NO3
MW: 397
ExactMass: 397.045933
CASNO: 0
ID: 4082
Comment: ENFSI/DWG
Num Peaks: 148
39 4; 41 16; 42 3; 43 2; 50 1; 
51 1; 53 2; 54 4; 55 36; 56 4; 
57 3; 59 5; 62 1; 63 2; 65 4; 
66 1; 67 44; 68 4; 69 24; 70 1; 
73 2; 74 1; 75 4; 76 1; 77 2; 
78 3; 80 1; 81 1; 82 10; 83 7; 
84 4; 85 3; 86 1; 87 2; 88 1; 
89 4; 90 1; 91 1; 96 6; 97 4; 
98 2; 99 3; 101 2; 102 2; 104 1; 
109 2; 110 11; 111 4; 112 1; 113 2; 
114 5; 115 14; 116 2; 122 1; 123 20; 
124 4; 125 13; 126 32; 127 7; 128 7; 
129 2; 130 1; 132 2; 133 1; 135 3; 
136 4; 137 2; 138 2; 139 2; 140 1; 
141 3; 142 9; 143 1; 145 1; 146 1; 
147 1; 148 2; 149 10; 150 8; 151 5; 
152 23; 153 3; 154 1; 155 1; 157 1; 
158 6; 159 15; 160 6; 161 11; 162 7; 
163 7; 164 6; 165 2; 166 1; 167 1; 
170 2; 171 2; 172 3; 173 5; 174 2; 
175 4; 176 2; 177 2; 178 4; 180 999; 
181 73; 182 5; 183 3; 184 2; 185 5; 
186 12; 187 3; 188 8; 189 14; 190 3; 
191 9; 192 2; 193 1; 197 1; 198 3; 
199 1; 200 1; 201 1; 204 1; 205 1; 
213 2; 215 1; 217 1; 218 3; 219 1; 
220 2; 225 1; 226 1; 240 1; 241 4; 
242 1; 243 2; 268 2; 269 1; 270 1; 
271 1; 312 1; 338 2; 340 1; 365 1; 
366 3; 367 1; 368 2; 
