Name: 25I-NBF TFA derivative
InChIKey: BHVOMCILEOYIFD-UHFFFAOYSA-N
Synon: 2C-I-NBF TFA derivative
Formula: C19H18F4INO3
MW: 511
ExactMass: 511.026754
CASNO: 0
ID: 4084
Comment: ENFSI/DWG
Num Peaks: 202
38 2; 39 17; 40 1; 41 3; 42 6; 
43 3; 45 1; 50 14; 51 29; 52 7; 
53 25; 54 2; 55 3; 56 7; 57 14; 
59 8; 61 1; 62 8; 63 36; 64 24; 
65 21; 66 4; 67 5; 68 1; 69 34; 
70 2; 73 1; 74 4; 75 15; 76 20; 
77 109; 78 30; 79 37; 80 3; 81 5; 
83 90; 84 4; 86 1; 87 2; 88 3; 
89 56; 90 72; 91 84; 92 40; 93 10; 
94 3; 95 6; 96 11; 97 14; 98 1; 
101 2; 102 10; 103 15; 104 10; 105 82; 
106 22; 107 44; 108 22; 109 999; 110 78; 
111 2; 115 1; 116 2; 117 5; 118 14; 
119 22; 120 44; 121 21; 122 31; 123 9; 
124 2; 125 15; 126 2; 127 9; 128 7; 
130 2; 131 3; 132 7; 133 21; 134 17; 
135 34; 136 11; 137 3; 138 1; 139 1; 
140 1; 144 1; 145 7; 146 3; 147 5; 
148 79; 149 23; 150 46; 151 11; 152 3; 
153 1; 157 1; 158 1; 159 1; 160 1; 
161 2; 162 7; 163 8; 164 20; 165 5; 
166 1; 170 1; 171 1; 172 1; 175 1; 
176 1; 177 2; 178 2; 179 2; 180 1; 
181 1; 183 4; 184 2; 185 1; 189 1; 
190 1; 191 13; 192 2; 195 1; 196 4; 
197 3; 198 1; 199 3; 200 1; 203 2; 
204 3; 205 3; 206 1; 207 1; 209 1; 
210 1; 211 1; 212 1; 213 2; 214 4; 
215 1; 216 1; 217 5; 218 1; 219 7; 
220 7; 221 2; 225 1; 226 8; 227 3; 
228 1; 229 1; 230 1; 231 2; 232 37; 
233 5; 234 17; 235 2; 242 1; 243 2; 
244 2; 245 2; 247 135; 248 14; 249 7; 
255 1; 256 2; 257 1; 258 2; 259 6; 
260 3; 261 16; 262 3; 263 2; 270 1; 
271 1; 272 1; 274 4; 275 65; 276 26; 
277 356; 278 35; 279 3; 288 3; 290 858; 
291 101; 292 9; 315 1; 326 1; 333 2; 
354 1; 365 1; 368 2; 369 1; 383 4; 
384 1; 385 4; 386 1; 444 1; 511 204; 
512 43; 513 6; 
