Name: 25C-NB4OMe TFA derivative
InChIKey: OBDZJAZJPOJGGA-UHFFFAOYSA-N
Synon: 2C-C-NB4OMe TFA derivative
Formula: C20H21ClF3NO4
MW: 431
ExactMass: 431.11112
CASNO: 0
ID: 4086
Comment: ENFSI/DWG
Num Peaks: 168
36 1; 38 2; 39 11; 41 6; 42 3; 
43 3; 45 1; 50 7; 51 23; 52 13; 
53 16; 54 1; 55 5; 56 6; 57 1; 
59 1; 61 1; 62 3; 63 17; 64 8; 
65 26; 66 3; 67 5; 69 19; 73 5; 
74 2; 75 10; 76 6; 77 131; 78 92; 
79 22; 80 2; 81 1; 85 1; 86 1; 
87 3; 88 2; 89 36; 90 23; 91 83; 
92 15; 93 5; 94 6; 95 2; 96 4; 
97 2; 98 1; 99 18; 100 2; 101 7; 
102 4; 103 8; 104 5; 105 32; 106 16; 
107 11; 108 5; 109 18; 110 2; 111 6; 
112 15; 113 9; 114 6; 115 4; 116 1; 
117 3; 118 3; 119 8; 121 999; 122 97; 
123 8; 124 2; 125 23; 126 6; 127 15; 
128 3; 129 3; 131 1; 132 4; 133 7; 
134 13; 135 14; 136 5; 137 12; 138 2; 
139 4; 140 6; 141 7; 142 15; 143 4; 
144 5; 145 1; 146 1; 147 3; 148 16; 
149 6; 150 3; 151 2; 152 2; 153 2; 
154 5; 155 66; 156 9; 157 30; 158 3; 
159 2; 160 1; 161 1; 162 9; 163 3; 
164 8; 165 4; 166 1; 167 3; 168 2; 
169 19; 170 5; 171 9; 172 2; 173 1; 
176 1; 178 1; 179 1; 181 1; 182 3; 
183 46; 184 31; 185 168; 186 25; 187 50; 
188 5; 189 1; 194 1; 195 1; 196 1; 
198 595; 199 80; 200 197; 201 26; 202 3; 
207 2; 208 1; 209 1; 210 1; 211 1; 
214 1; 215 1; 216 1; 225 1; 232 22; 
233 5; 241 2; 243 1; 246 1; 253 1; 
254 1; 274 1; 275 2; 303 1; 310 2; 
311 1; 334 1; 341 1; 400 1; 431 83; 
432 19; 433 29; 434 6; 
