Name: 25B-NB4OMe TFA derivative
InChIKey: FYYANRWTABLJDT-UHFFFAOYSA-N
Synon: 2C-B-NB4OMe TFA derivative
Formula: C20H21BrF3NO4
MW: 475
ExactMass: 475.060604
CASNO: 0
ID: 4087
Comment: ENFSI/DWG
Num Peaks: 174
38 1; 39 10; 41 5; 42 3; 43 2; 
50 7; 51 21; 52 12; 53 15; 54 1; 
55 4; 56 5; 57 1; 59 1; 62 3; 
63 16; 64 11; 65 25; 66 3; 67 4; 
69 17; 74 1; 75 6; 76 10; 77 125; 
78 90; 79 24; 80 3; 81 2; 82 1; 
87 1; 88 1; 89 35; 90 37; 91 84; 
92 25; 93 7; 94 7; 95 1; 96 3; 
97 1; 102 3; 103 7; 104 8; 105 46; 
106 26; 107 14; 108 6; 109 20; 110 2; 
115 1; 116 1; 117 4; 118 6; 119 15; 
120 23; 121 999; 122 100; 123 7; 126 1; 
131 2; 132 6; 133 13; 134 22; 135 24; 
136 9; 137 14; 138 1; 139 3; 142 1; 
143 7; 144 1; 145 7; 146 2; 147 4; 
148 49; 149 13; 150 15; 151 4; 152 1; 
155 2; 156 3; 157 10; 158 3; 159 2; 
160 1; 161 1; 162 12; 163 4; 164 14; 
165 10; 166 2; 167 1; 168 1; 169 8; 
170 3; 171 11; 172 2; 173 4; 174 1; 
175 1; 176 1; 177 2; 178 1; 179 1; 
181 1; 182 1; 183 1; 184 6; 185 3; 
186 12; 187 3; 188 6; 189 1; 190 1; 
191 1; 195 1; 196 1; 197 1; 198 14; 
199 40; 200 6; 201 39; 202 5; 203 2; 
209 1; 210 1; 211 2; 212 1; 213 12; 
214 3; 215 13; 216 3; 217 2; 225 1; 
226 3; 227 23; 228 20; 229 125; 230 29; 
231 103; 232 34; 233 6; 238 1; 239 1; 
240 1; 242 458; 243 62; 244 448; 245 58; 
246 6; 259 1; 260 1; 269 1; 271 2; 
275 14; 276 1; 284 1; 285 1; 287 1; 
347 1; 349 1; 354 1; 356 1; 378 1; 
380 1; 397 1; 444 1; 446 1; 475 100; 
476 23; 477 103; 478 22; 479 3; 
