Name: 25I-NB-3-F TFA derivative
InChIKey: PDHSRWXPQLLOAL-UHFFFAOYSA-N
Synon: 2C-I-NB-3-F TFA derivative
Formula: C19H18F4INO3
MW: 511
ExactMass: 511.026754
CASNO: 0
ID: 4090
Comment: ENFSI/DWG
Num Peaks: 217
38 3; 39 22; 40 1; 41 5; 42 9; 
43 3; 45 1; 50 18; 51 40; 52 9; 
53 34; 54 3; 55 4; 56 9; 57 17; 
58 1; 59 11; 61 2; 62 10; 63 48; 
64 32; 65 27; 66 6; 67 6; 68 2; 
69 48; 70 4; 73 1; 74 6; 75 21; 
76 27; 77 145; 78 40; 79 51; 80 5; 
81 6; 83 114; 84 6; 86 1; 87 3; 
88 4; 89 74; 90 98; 91 113; 92 54; 
93 13; 94 5; 95 15; 96 19; 97 30; 
98 2; 99 1; 101 2; 102 9; 103 19; 
104 14; 105 107; 106 30; 107 54; 108 24; 
109 987; 110 80; 111 3; 114 1; 115 2; 
116 3; 117 6; 118 19; 119 31; 120 63; 
121 29; 122 45; 123 12; 124 3; 125 9; 
126 3; 127 10; 128 7; 130 2; 131 4; 
132 10; 133 29; 134 23; 135 51; 136 20; 
137 6; 138 2; 139 1; 140 2; 144 1; 
145 7; 146 4; 147 7; 148 103; 149 33; 
150 66; 151 17; 152 5; 153 1; 155 1; 
157 2; 159 1; 160 1; 161 2; 162 10; 
163 11; 164 24; 165 7; 166 1; 170 2; 
171 1; 172 1; 173 1; 174 1; 175 1; 
176 2; 177 3; 178 2; 179 3; 180 1; 
181 1; 183 7; 184 3; 185 2; 186 1; 
189 2; 190 3; 191 17; 192 4; 194 1; 
195 1; 196 7; 197 5; 198 2; 199 4; 
200 2; 201 1; 202 1; 203 2; 204 5; 
205 5; 206 1; 207 1; 208 1; 209 2; 
210 1; 211 2; 212 1; 213 3; 214 8; 
215 2; 216 2; 217 7; 218 2; 219 10; 
220 7; 221 3; 225 2; 226 13; 227 4; 
228 2; 229 2; 230 1; 231 3; 232 47; 
233 6; 234 23; 235 3; 239 1; 240 1; 
241 1; 242 2; 243 3; 244 4; 245 2; 
247 186; 248 22; 249 11; 250 1; 255 1; 
256 4; 257 2; 258 2; 259 9; 260 4; 
261 21; 262 5; 263 4; 264 1; 270 1; 
271 2; 272 1; 273 1; 274 5; 275 81; 
276 34; 277 517; 278 52; 279 4; 288 3; 
290 999; 291 122; 292 11; 315 1; 326 1; 
333 2; 354 2; 365 1; 368 2; 369 1; 
383 4; 384 1; 385 5; 386 1; 511 249; 
512 54; 513 7; 
