Name: 25T2-NB4OMe HFBA derivative
InChIKey: GJBLVRBMMBBTSL-UHFFFAOYSA-N
Synon: 2C-T-2-NB4OMe HFBA derivative
Formula: C24H26F7NO4S
MW: 557
ExactMass: 557.147076
CASNO: 0
ID: 4095
Comment: ENFSI/DWG
Num Peaks: 266
38 1; 39 6; 41 4; 42 3; 43 2; 
45 8; 46 2; 47 1; 50 3; 51 10; 
52 6; 53 9; 54 1; 55 6; 56 4; 
57 1; 58 1; 59 19; 60 2; 61 4; 
62 2; 63 6; 64 3; 65 21; 66 4; 
67 7; 69 22; 70 1; 71 3; 73 18; 
75 7; 76 3; 77 78; 78 61; 79 26; 
80 3; 81 4; 82 1; 83 2; 84 2; 
85 7; 86 1; 88 1; 89 17; 90 19; 
91 75; 92 13; 93 10; 94 8; 95 7; 
96 5; 97 12; 98 2; 99 1; 100 6; 
101 2; 102 2; 103 6; 104 5; 105 20; 
106 17; 107 17; 108 14; 109 39; 110 14; 
111 8; 112 2; 113 2; 115 3; 116 2; 
117 5; 118 4; 119 15; 121 737; 122 89; 
123 21; 124 8; 125 10; 126 1; 127 2; 
128 2; 129 1; 131 4; 132 10; 133 15; 
134 25; 135 41; 136 14; 137 33; 138 24; 
139 10; 140 11; 141 3; 142 1; 144 1; 
145 2; 146 3; 147 14; 148 24; 149 22; 
150 16; 151 27; 152 21; 153 82; 154 13; 
155 6; 156 3; 157 2; 158 2; 159 2; 
160 1; 161 3; 162 8; 163 6; 164 24; 
165 16; 166 12; 167 23; 168 6; 169 17; 
170 2; 171 1; 175 6; 176 4; 177 4; 
178 2; 179 8; 180 8; 181 104; 182 17; 
183 17; 184 3; 185 2; 186 1; 188 1; 
190 2; 192 1; 193 5; 194 10; 195 23; 
196 10; 197 14; 198 2; 199 2; 205 1; 
206 2; 207 12; 208 2; 209 41; 210 17; 
211 999; 212 123; 213 57; 214 7; 215 1; 
219 1; 220 1; 221 1; 222 2; 223 5; 
224 681; 225 120; 226 46; 227 8; 228 1; 
236 1; 237 2; 238 2; 239 1; 240 1; 
241 1; 248 1; 249 1; 251 2; 252 2; 
253 15; 254 5; 255 3; 257 1; 263 1; 
265 1; 267 3; 268 1; 269 1; 272 1; 
279 1; 281 8; 282 3; 283 3; 296 1; 
298 1; 299 1; 301 1; 313 1; 315 2; 
316 1; 325 2; 326 1; 327 6; 328 3; 
329 3; 330 1; 331 4; 332 13; 333 3; 
341 8; 343 3; 344 1; 345 1; 346 2; 
347 1; 355 1; 357 1; 358 1; 359 1; 
360 2; 374 1; 375 5; 376 1; 377 1; 
378 1; 379 1; 384 1; 386 1; 387 2; 
388 1; 389 1; 391 2; 400 1; 403 4; 
404 2; 405 7; 406 2; 407 1; 408 1; 
415 2; 416 1; 417 1; 418 1; 419 1; 
420 1; 429 2; 430 3; 435 1; 436 2; 
437 1; 449 1; 451 2; 463 1; 465 1; 
466 1; 479 2; 492 1; 497 2; 503 1; 
507 2; 526 1; 528 1; 529 1; 553 1; 
555 1; 557 293; 558 82; 559 28; 560 3; 
627 1; 
