Name: 25D-NB4OMe HFBA derivative
InChIKey: MZDLVHCWLKERHQ-UHFFFAOYSA-N
Synon: 2C-D-NB4OMe HFBA derivative
Formula: C23H24F7NO4
MW: 511
ExactMass: 511.159355
CASNO: 0
ID: 4096
Comment: ENFSI/DWG
Num Peaks: 136
38 1; 39 11; 40 1; 41 8; 42 3; 
43 4; 45 1; 50 3; 51 14; 52 10; 
53 12; 54 1; 55 8; 56 4; 57 2; 
59 1; 62 1; 63 8; 64 5; 65 30; 
66 5; 67 11; 68 2; 69 24; 75 1; 
76 3; 77 117; 78 79; 79 61; 80 5; 
81 2; 82 1; 89 21; 90 21; 91 148; 
92 27; 93 15; 94 10; 95 2; 100 3; 
102 3; 103 37; 104 14; 105 60; 106 19; 
107 21; 108 9; 109 28; 110 2; 115 9; 
116 3; 117 11; 118 4; 119 19; 120 31; 
121 715; 122 87; 123 10; 128 1; 130 1; 
131 4; 132 5; 133 10; 134 23; 135 217; 
136 26; 137 50; 138 5; 139 1; 142 1; 
145 1; 146 3; 147 10; 148 15; 149 34; 
150 9; 151 6; 152 3; 153 1; 157 2; 
159 1; 160 1; 161 3; 162 13; 163 89; 
164 55; 165 571; 166 64; 167 6; 169 14; 
170 1; 174 1; 175 1; 176 4; 178 999; 
179 162; 180 16; 181 1; 190 1; 193 1; 
195 1; 196 1; 197 1; 205 1; 206 3; 
207 1; 209 1; 210 1; 211 1; 221 5; 
222 1; 225 1; 226 1; 239 1; 240 1; 
252 1; 253 1; 255 2; 256 2; 257 1; 
281 1; 282 2; 283 3; 284 1; 314 3; 
332 15; 333 3; 358 2; 359 1; 372 1; 
390 3; 391 1; 461 3; 511 111; 512 29; 
513 4; 
