Name: 25B-NB4OMe HFBA derivative
InChIKey: OYUUGTVTMIRBKS-UHFFFAOYSA-N
Synon: 2C-B-NB4OMe HFBA derivative
Formula: C22H21BrF7NO4
MW: 575
ExactMass: 575.05422
CASNO: 0
ID: 4098
Comment: ENFSI/DWG
Num Peaks: 170
39 7; 41 4; 42 3; 43 1; 50 5; 
51 16; 52 9; 53 12; 54 1; 55 4; 
56 5; 59 1; 62 2; 63 12; 64 8; 
65 20; 66 3; 67 3; 69 19; 74 1; 
75 4; 76 8; 77 105; 78 74; 79 21; 
80 2; 81 1; 82 1; 89 30; 90 34; 
91 75; 92 21; 93 6; 94 7; 95 1; 
100 2; 101 1; 102 3; 103 7; 104 8; 
105 39; 106 22; 107 12; 108 7; 109 24; 
110 2; 115 1; 116 1; 117 4; 118 6; 
119 16; 121 999; 122 105; 123 7; 128 1; 
131 2; 132 6; 133 11; 134 25; 135 23; 
136 9; 137 17; 138 1; 139 1; 143 5; 
145 5; 146 1; 147 3; 148 42; 149 12; 
150 14; 151 4; 152 1; 155 2; 156 2; 
157 5; 158 2; 159 2; 160 1; 161 1; 
162 6; 163 3; 164 13; 165 13; 166 2; 
167 1; 168 1; 169 19; 170 3; 171 9; 
172 2; 173 3; 175 1; 176 1; 177 2; 
178 1; 179 1; 180 1; 181 1; 182 1; 
183 1; 184 4; 185 3; 186 9; 187 2; 
188 5; 189 1; 190 1; 191 1; 195 1; 
196 2; 197 1; 198 2; 199 32; 200 5; 
201 33; 202 3; 203 2; 209 1; 210 1; 
211 2; 212 1; 213 10; 214 2; 215 11; 
216 2; 217 1; 225 1; 226 3; 227 17; 
228 18; 229 103; 230 25; 231 86; 232 9; 
238 1; 239 2; 240 2; 242 377; 243 55; 
244 367; 245 52; 246 5; 248 7; 253 1; 
255 1; 257 1; 269 1; 270 1; 271 2; 
272 1; 284 1; 285 1; 287 1; 332 17; 
333 5; 347 1; 349 1; 360 1; 375 9; 
376 1; 378 1; 380 1; 497 1; 527 1; 
575 41; 576 10; 577 41; 578 10; 579 1; 
