Name: 3,4-CTMP HFBA derivative
Synon: 3,4-Dichloromethylphenidate HFBA derivative
InChIKey: LFPOXFMJEBHLMV-UHFFFAOYSA-N
Formula: C18H16Cl2F7NO3
MW: 497
ExactMass: 497.039547
CASNO: 0
ID: 4100
Comment: ENFSI/DWG
Num Peaks: 170
39 3; 41 13; 42 3; 43 2; 51 1; 
53 2; 54 5; 55 40; 56 5; 57 3; 
59 6; 62 1; 63 2; 65 3; 67 46; 
68 5; 69 24; 70 1; 73 2; 74 1; 
75 3; 77 1; 78 1; 80 2; 81 1; 
82 12; 83 13; 84 5; 85 4; 86 1; 
87 2; 88 1; 89 4; 90 1; 91 1; 
96 1; 97 2; 99 3; 100 3; 101 2; 
102 2; 109 3; 110 2; 111 3; 112 1; 
113 2; 114 3; 115 13; 116 2; 119 4; 
123 19; 124 3; 125 12; 126 3; 127 6; 
128 8; 129 2; 131 1; 133 1; 135 2; 
136 3; 137 2; 138 1; 139 2; 140 1; 
141 2; 142 6; 143 1; 145 1; 146 1; 
147 1; 148 2; 149 10; 150 10; 151 5; 
152 4; 153 2; 154 1; 155 2; 156 1; 
157 1; 158 6; 159 16; 160 6; 161 11; 
162 6; 163 7; 164 5; 165 2; 166 1; 
167 1; 169 33; 170 3; 171 2; 172 3; 
173 6; 174 2; 175 5; 176 2; 177 2; 
178 3; 179 1; 182 1; 183 3; 184 2; 
185 6; 186 12; 187 4; 188 8; 189 17; 
190 4; 191 11; 192 2; 193 2; 196 2; 
197 3; 198 4; 199 2; 200 2; 201 1; 
203 1; 204 2; 205 2; 206 1; 207 1; 
210 3; 211 1; 212 1; 213 3; 214 5; 
215 2; 217 1; 218 2; 219 1; 220 2; 
223 1; 224 1; 225 3; 226 43; 227 4; 
232 1; 238 1; 239 1; 240 3; 241 5; 
242 3; 243 3; 252 22; 253 2; 254 1; 
260 1; 261 2; 262 1; 264 1; 266 1; 
268 2; 269 2; 270 1; 271 1; 278 3; 
280 999; 281 113; 282 7; 300 1; 438 2; 
440 1; 465 1; 466 2; 467 1; 468 1; 
