Name: 25I-NB-3-F HFBA derivative
InChIKey: QCXUCUOZHVBNHR-UHFFFAOYSA-N
Synon: 2C-I-NB-3-F HFBA derivative
Formula: C21H18F8INO3
MW: 611
ExactMass: 611.020367
CASNO: 0
ID: 4103
Comment: ENFSI/DWG
Num Peaks: 242
38 1; 39 13; 41 3; 42 6; 43 2; 
45 1; 50 11; 51 24; 52 6; 53 22; 
54 2; 55 3; 56 8; 57 11; 59 7; 
61 1; 62 6; 63 30; 64 21; 65 19; 
66 4; 67 4; 68 1; 69 45; 70 2; 
73 1; 74 3; 75 13; 76 17; 77 98; 
78 29; 79 37; 80 3; 81 5; 83 78; 
84 4; 86 1; 87 2; 88 3; 89 52; 
90 69; 91 83; 92 38; 93 10; 94 4; 
95 9; 96 6; 97 25; 98 1; 100 5; 
101 2; 102 7; 103 15; 104 12; 105 77; 
106 22; 107 39; 108 21; 109 979; 110 76; 
111 2; 115 1; 116 2; 117 5; 118 15; 
119 31; 120 49; 121 25; 122 38; 123 13; 
124 2; 125 10; 126 1; 127 8; 128 8; 
130 1; 131 5; 132 9; 133 23; 134 22; 
135 47; 136 20; 137 5; 138 2; 139 1; 
145 4; 146 4; 147 7; 148 82; 149 30; 
150 47; 151 18; 152 3; 153 1; 158 2; 
159 2; 160 1; 161 2; 162 10; 163 12; 
164 33; 165 8; 166 1; 169 32; 170 2; 
171 1; 172 1; 173 1; 175 1; 176 2; 
177 2; 178 3; 179 3; 180 3; 181 1; 
183 5; 184 3; 185 2; 189 1; 190 2; 
191 13; 192 1; 194 1; 195 2; 196 10; 
197 6; 198 2; 199 4; 200 1; 203 2; 
204 3; 205 3; 206 1; 207 1; 208 1; 
209 2; 210 2; 211 3; 212 2; 213 3; 
214 7; 215 2; 216 1; 217 6; 218 1; 
219 7; 220 1; 221 1; 224 1; 225 2; 
226 14; 227 5; 228 2; 229 3; 230 1; 
231 2; 232 38; 233 6; 234 17; 235 2; 
236 1; 239 2; 240 5; 241 2; 242 5; 
243 3; 244 2; 245 1; 247 162; 248 15; 
249 9; 250 1; 253 3; 254 1; 255 2; 
256 7; 257 3; 258 2; 259 6; 260 1; 
261 21; 262 5; 263 4; 264 1; 269 1; 
270 2; 271 5; 272 3; 273 1; 274 4; 
275 64; 276 41; 277 528; 278 52; 279 4; 
281 2; 288 3; 290 999; 291 148; 292 13; 
293 1; 298 2; 305 1; 306 1; 315 2; 
316 1; 318 1; 320 5; 321 3; 327 1; 
328 1; 331 1; 332 1; 333 4; 334 2; 
341 2; 342 1; 343 1; 344 1; 346 2; 
359 1; 360 2; 368 2; 374 1; 375 7; 
376 1; 382 1; 383 4; 384 1; 405 1; 
414 1; 429 1; 465 9; 466 2; 469 1; 
483 2; 484 1; 485 5; 486 1; 611 185; 
612 42; 613 6; 
