Name: 25E-NB-3-F HFBA derivative
InChIKey: ZSAUOCXSLDRIBL-UHFFFAOYSA-N
Synon: 2C-E-NB-3-F HFBA derivative
Formula: C23H23F8NO3
MW: 513
ExactMass: 513.155018
CASNO: 0
ID: 4104
Comment: ENFSI/DWG
Num Peaks: 164
39 7; 41 9; 42 3; 43 4; 45 3; 
50 2; 51 6; 52 2; 53 8; 54 1; 
55 6; 56 3; 57 7; 59 4; 62 1; 
63 7; 64 2; 65 12; 66 2; 67 6; 
68 1; 69 27; 70 1; 71 1; 75 3; 
76 2; 77 40; 78 16; 79 25; 80 2; 
81 4; 82 2; 83 42; 84 2; 89 12; 
90 6; 91 117; 92 12; 93 18; 94 3; 
95 6; 96 4; 97 22; 98 1; 100 3; 
101 1; 102 4; 103 26; 104 17; 105 36; 
106 7; 107 18; 108 14; 109 462; 110 36; 
111 1; 115 50; 116 15; 117 64; 118 13; 
119 53; 120 10; 121 37; 122 14; 123 16; 
124 2; 125 9; 126 1; 127 3; 128 4; 
129 4; 130 3; 131 12; 132 6; 133 21; 
134 55; 135 29; 136 20; 137 6; 138 1; 
143 1; 144 2; 145 6; 146 5; 147 17; 
148 12; 149 113; 150 19; 151 21; 152 3; 
153 1; 158 2; 159 4; 160 3; 161 10; 
162 7; 163 27; 164 11; 165 9; 166 2; 
169 25; 170 1; 172 1; 173 1; 174 1; 
175 3; 176 11; 177 127; 178 47; 179 732; 
180 89; 181 8; 183 1; 188 1; 189 2; 
190 8; 191 26; 192 999; 193 189; 194 19; 
195 2; 196 4; 197 1; 206 1; 207 1; 
220 1; 225 1; 226 1; 227 1; 235 5; 
236 1; 240 1; 249 3; 255 1; 257 3; 
258 1; 270 3; 271 1; 272 1; 284 5; 
285 7; 286 2; 299 1; 301 3; 316 1; 
320 13; 321 4; 328 2; 334 1; 344 1; 
346 3; 356 1; 358 1; 373 1; 385 6; 
386 1; 388 2; 389 1; 403 4; 404 2; 
513 382; 514 98; 515 14; 516 1; 
