Name: 2-Chloroamphetamine HFBA derivative
Synon: 2-CA HFBA derivative
InChIKey: CPOABQHEACAECG-UHFFFAOYSA-N
Formula: C13H11ClF7NO
MW: 365
ExactMass: 365.041739
CASNO: 0
ID: 4105
Comment: ENFSI/DWG
Num Peaks: 106
38 1; 39 13; 40 1; 41 6; 42 16; 
43 11; 44 7; 45 34; 46 1; 47 12; 
50 5; 51 10; 52 2; 58 4; 61 1; 
62 6; 63 27; 64 5; 65 11; 66 2; 
69 81; 70 10; 71 1; 73 6; 74 5; 
75 11; 76 3; 77 11; 78 4; 79 1; 
81 1; 85 1; 86 2; 87 3; 89 68; 
90 20; 91 43; 92 17; 93 4; 97 1; 
99 21; 100 14; 101 12; 102 8; 103 6; 
104 1; 105 1; 107 1; 109 9; 111 1; 
112 2; 113 2; 114 2; 115 61; 116 22; 
117 55; 118 15; 119 17; 120 1; 121 3; 
123 2; 125 166; 126 23; 127 55; 128 8; 
130 3; 131 4; 132 3; 133 1; 136 1; 
137 3; 138 2; 139 1; 142 9; 143 1; 
145 1; 146 5; 149 1; 150 2; 152 287; 
153 52; 154 94; 155 17; 156 1; 159 1; 
160 1; 166 5; 167 1; 169 121; 170 4; 
172 1; 192 33; 193 11; 194 3; 196 8; 
197 1; 212 1; 213 5; 214 1; 221 1; 
222 1; 240 999; 241 69; 242 4; 315 1; 
350 3; 
