Name: 3,4 Methylenedioxyphenyl-2-propanone
Synon: MDP2P
Synon: Piperonyl methyl ketone
Synon: PMK
InChIKey: XIYKRJLTYKUWAM-UHFFFAOYSA-N
Formula: C10H10O3
MW: 178
ExactMass: 178.062994
CASNO: 4676395
ID: 4107
Comment: DEA SWL / Fluka lot 274269
Num Peaks: 56
40 2; 41 3; 42 13; 43 149; 44 5; 
45 1; 49 3; 50 60; 51 182; 52 21; 
53 23; 54 1; 55 2; 61 5; 62 16; 
63 23; 64 5; 65 18; 66 4; 67 15; 
73 2; 74 20; 75 18; 76 38; 77 280; 
78 48; 79 60; 80 5; 81 1; 85 1; 
86 1; 87 1; 89 8; 90 2; 91 9; 
92 3; 94 1; 98 1; 102 1; 103 2; 
105 77; 106 14; 107 2; 119 1; 121 2; 
133 1; 135 999; 136 105; 137 9; 147 4; 
148 1; 161 1; 162 1; 178 214; 179 22; 
180 2; 
