Name: 2-Bromo-4,5-MDMA
Synon: 2-Bromo-4,5-methylenedioxymethamphetamine
InChIKey: ZIBHSZQEEWBQLW-UHFFFAOYSA-N
Formula: C11H14BrNO2
MW: 271
ExactMass: 271.02079
CASNO: 0
ID: 4109
Comment: Provided by www.caymanchem.com/app/template/landing%2CForensic.vm / Item #9001943  Lot #0458423
Num Peaks: 103
41 10; 42 36; 43 13; 44 4; 48 1; 
49 1; 50 17; 51 17; 52 5; 53 10; 
54 5; 55 3; 56 62; 57 18; 58 999; 
59 39; 61 4; 62 10; 63 15; 64 4; 
65 7; 66 2; 67 1; 68 1; 70 1; 
71 1; 73 2; 74 14; 75 47; 76 41; 
77 34; 78 30; 79 8; 80 6; 81 3; 
82 4; 87 1; 88 3; 89 8; 90 4; 
91 4; 92 3; 94 1; 98 1; 100 1; 
101 2; 102 9; 103 16; 104 8; 105 9; 
106 6; 107 2; 115 1; 116 1; 117 5; 
118 9; 119 2; 121 1; 122 1; 128 7; 
130 3; 131 9; 132 6; 133 2; 134 3; 
135 13; 136 5; 143 2; 145 2; 146 7; 
147 4; 148 1; 149 1; 155 13; 156 1; 
157 14; 158 1; 159 3; 160 6; 161 3; 
162 5; 174 2; 175 1; 176 5; 177 4; 
178 1; 183 3; 184 1; 185 3; 190 10; 
191 1; 192 11; 193 1; 196 1; 203 1; 
213 23; 214 7; 215 22; 216 5; 240 1; 
241 1; 242 1; 258 1; 
