Name: MMB018
Synon: Methyl-(1-pentyl-1H-indole-3-carbonyl)-L-valinate
InChIKey: XOVHYVWQBVNONJ-SFHVURJKSA-N
Formula: C20H28N2O3
MW: 344
ExactMass: 344.209993
CASNO: 0
ID: 4111
Comment: Provided by www.caymanchem.com/app/template/landing%2CForensic.vm / Item #15970  Lot #0458220
Num Peaks: 168
40 5; 41 93; 42 15; 43 169; 44 10; 
45 2; 50 1; 51 3; 52 2; 53 5; 
54 5; 55 47; 56 11; 57 3; 59 38; 
60 3; 62 3; 63 7; 64 2; 65 3; 
67 2; 68 2; 69 11; 70 7; 71 6; 
72 3; 73 5; 74 3; 75 9; 76 10; 
77 18; 78 6; 82 2; 83 10; 84 2; 
85 1; 86 1; 87 5; 88 15; 89 49; 
90 9; 91 4; 98 3; 99 1; 100 2; 
101 21; 102 60; 103 28; 104 4; 106 1; 
107 1; 113 1; 114 27; 115 89; 116 150; 
117 27; 118 12; 119 1; 126 1; 127 7; 
128 69; 129 138; 130 141; 131 21; 132 6; 
133 1; 135 1; 140 3; 141 4; 142 12; 
143 141; 144 553; 145 60; 146 7; 147 1; 
152 1; 153 2; 154 11; 155 19; 156 29; 
157 48; 158 34; 159 5; 160 9; 166 1; 
167 4; 168 6; 169 5; 170 42; 171 16; 
172 7; 173 129; 174 64; 175 7; 180 1; 
181 1; 182 3; 183 4; 184 23; 185 13; 
186 55; 187 29; 188 14; 189 1; 195 2; 
196 2; 197 3; 198 8; 199 4; 200 3; 
201 5; 202 2; 207 4; 208 1; 209 1; 
210 2; 211 6; 212 43; 214 999; 215 356; 
216 32; 217 2; 225 1; 226 2; 227 8; 
228 7; 230 929; 231 137; 232 12; 233 1; 
240 1; 241 5; 242 22; 243 4; 245 8; 
246 1; 253 4; 254 1; 255 2; 258 1; 
267 2; 269 35; 270 17; 271 3; 281 2; 
283 3; 284 2; 285 39; 286 8; 287 28; 
288 5; 297 24; 298 5; 302 19; 303 4; 
311 2; 312 17; 313 14; 314 2; 315 2; 
326 4; 327 9; 328 2; 329 1; 342 1; 
344 176; 345 39; 346 5; 
