Name: 5-Fluoro-PB-22 5-hydroxyquinoline isomer
Synon: Quinolin-5-yl-1-(5-fluoropentyl)-1H-indole-3-carboxylate
Synon: 5F-PB-22 5-hydroxyquinoline isomer
InChIKey: DBBSWUCEVLGAQH-UHFFFAOYSA-N
Formula: C23H21FN2O2
MW: 376
ExactMass: 376.158707
CASNO: 0
ID: 4117
Comment: Provided by www.caymanchem.com/app/template/landing%2CForensic.vm / Item #14513  Lot #0449554
Num Peaks: 82
41 21; 42 1; 43 7; 47 5; 50 1; 
51 3; 52 1; 53 1; 55 1; 59 3; 
61 2; 62 6; 63 19; 64 3; 65 3; 
66 1; 67 1; 69 8; 73 2; 74 3; 
75 7; 76 6; 77 6; 78 3; 79 1; 
86 1; 87 4; 88 11; 89 69; 90 12; 
91 2; 100 1; 101 11; 102 25; 103 8; 
104 1; 114 11; 115 33; 116 151; 117 19; 
118 1; 127 2; 128 20; 129 39; 130 17; 
131 1; 135 1; 140 1; 141 1; 144 189; 
145 28; 146 2; 147 1; 148 1; 154 3; 
155 1; 156 5; 157 10; 158 5; 167 1; 
168 2; 170 10; 171 2; 176 2; 182 1; 
184 4; 185 1; 198 1; 204 1; 207 5; 
210 1; 212 31; 213 4; 214 3; 230 10; 
232 999; 233 151; 234 12; 235 1; 253 1; 
301 2; 376 1; 
