Name: 5-Fluoro-PB-22 8-hydroxyisoquinoline isomer
Synon: Isoquinolin-8-yl-1-(5-fluoropentyl)-1H-indole-3-carboxylate
Synon: 5F-PB-22 8-hydroxyisoquinoline isomer
InChIKey: FHGAUDJAEICVMC-UHFFFAOYSA-N
Formula: C23H21FN2O2
MW: 376
ExactMass: 376.158707
CASNO: 0
ID: 4120
Comment: Provided by www.caymanchem.com/app/template/landing%2CForensic.vm / Item #14553  Lot #0449704
Num Peaks: 88
41 23; 42 1; 43 8; 47 5; 50 2; 
51 3; 52 1; 53 2; 55 2; 59 2; 
61 2; 62 7; 63 19; 64 2; 65 3; 
67 2; 69 7; 73 2; 74 3; 75 7; 
76 6; 77 7; 78 2; 86 1; 87 5; 
88 11; 89 61; 90 11; 91 1; 101 10; 
102 22; 103 8; 104 1; 114 10; 115 34; 
116 160; 117 20; 118 2; 126 1; 128 19; 
129 36; 130 18; 131 2; 135 1; 140 1; 
141 1; 143 31; 144 189; 145 29; 146 3; 
147 1; 154 4; 155 2; 156 5; 157 9; 
158 8; 159 1; 167 2; 168 2; 170 9; 
171 2; 176 1; 182 1; 183 1; 184 3; 
185 1; 198 1; 203 1; 204 1; 205 1; 
207 4; 209 1; 210 1; 212 24; 213 3; 
214 2; 230 11; 232 999; 233 150; 234 13; 
253 1; 255 1; 281 2; 301 1; 325 1; 
341 1; 376 5; 377 1; 
