Name: 5-Fluoro-PB-22 5-hydroxyisoquinoline isomer
Synon: Isoquinolin-5-yl-1-(5-fluoropentyl)-1H-indole-3-carboxylate
Synon: 5F-PB-22 5-hydroxyisoquinoline isomer
InChIKey: VDXHSBSNZLWZEP-UHFFFAOYSA-N
Formula: C23H21FN2O2
MW: 376
ExactMass: 376.158707
CASNO: 0
ID: 4123
Comment: Provided by www.caymanchem.com/app/template/landing%2CForensic.vm / Item #14550  Lot #0449707
Num Peaks: 78
41 20; 42 1; 43 9; 47 5; 50 1; 
51 3; 52 1; 53 2; 55 1; 59 3; 
61 3; 62 7; 63 22; 64 3; 65 2; 
67 1; 69 7; 73 3; 74 3; 75 6; 
76 5; 77 5; 78 2; 86 1; 87 4; 
88 11; 89 63; 90 10; 91 1; 101 9; 
102 22; 103 7; 104 1; 114 10; 115 33; 
116 150; 117 19; 118 1; 127 2; 128 18; 
129 37; 130 17; 131 2; 135 1; 140 1; 
141 1; 144 195; 145 26; 146 2; 154 3; 
155 1; 156 5; 157 9; 158 5; 167 2; 
168 2; 170 9; 171 2; 176 2; 182 1; 
184 3; 185 1; 198 1; 204 1; 207 2; 
210 1; 212 21; 213 3; 214 2; 230 11; 
232 999; 233 149; 234 12; 253 1; 281 1; 
301 2; 341 1; 376 2; 
