Name: Desomorphine
Synon: Krokodil
Synon: Morphinan-3-ol, 4,5-epoxy-17-methyl-, (5.alpha.)-
Synon: Morphine, 6-deoxy-7,8-dihydro-
Synon: Deoxydihydromorphine D
Synon: Dihydrodeoxymorphine
Synon: Dihydrodesoxymorphine
Synon: Morphine D, deoxydihydro-
Synon: Permonid
Synon: 4,5-Epoxy-3-hydroxy-N-methylmorphinan
Synon: Morphinan-3-ol, 4,5-.alpha.-epoxy-17-methyl-
Synon: Desomorfin
Synon: Dihydrodesoxymorphine-D
Synon: Dihydroepoxymorphine
Synon: Desmorphine
Synon: 6-Deoxy-7,8-dihydromorphine
InChIKey: LNNWVNGFPYWNQE-UHFFFAOYSA-N
Formula: C17H21NO2
MW: 271
ExactMass: 271.157228
CASNO: 427009
ID: 4124
Comment: Provided by www.caymanchem.com/app/template/landing%2CForensic.vm / Item #15126  Lot #0457723
Num Peaks: 194
40 6; 41 54; 42 165; 43 26; 44 66; 
45 2; 50 6; 51 20; 52 8; 53 18; 
54 9; 55 38; 56 15; 57 24; 58 28; 
59 60; 60 7; 62 5; 63 24; 64 10; 
65 38; 66 19; 67 39; 68 28; 70 113; 
71 16; 72 10; 73 6; 74 4; 75 12; 
76 16; 77 96; 78 35; 79 40; 80 14; 
81 26; 82 75; 83 27; 84 19; 86 3; 
87 5; 88 7; 89 30; 91 84; 92 19; 
93 14; 94 46; 95 18; 96 30; 97 16; 
98 13; 100 6; 101 14; 102 29; 103 50; 
104 17; 105 32; 106 16; 107 31; 108 34; 
109 15; 110 31; 111 5; 112 6; 115 193; 
116 43; 117 31; 118 21; 119 14; 120 37; 
121 20; 122 20; 123 24; 124 8; 125 2; 
126 12; 127 68; 128 107; 129 52; 130 22; 
131 81; 132 36; 133 13; 134 48; 136 35; 
137 13; 139 30; 140 11; 141 58; 142 20; 
143 30; 144 52; 145 42; 146 63; 147 63; 
148 186; 149 36; 150 15; 151 15; 152 67; 
153 52; 154 23; 155 42; 156 20; 157 55; 
158 25; 159 26; 160 40; 161 48; 162 22; 
163 16; 164 15; 165 62; 166 28; 167 53; 
168 34; 169 36; 170 20; 171 92; 172 30; 
173 51; 174 41; 175 18; 176 36; 177 16; 
178 12; 179 10; 181 49; 182 21; 183 27; 
184 41; 185 68; 186 59; 187 47; 188 17; 
189 7; 190 11; 191 5; 192 4; 193 8; 
194 15; 195 70; 196 28; 197 45; 198 31; 
199 57; 200 47; 201 27; 202 32; 203 18; 
204 8; 205 3; 207 12; 208 6; 209 7; 
210 9; 211 26; 212 60; 213 107; 214 289; 
215 106; 216 33; 217 6; 218 1; 221 3; 
222 3; 223 5; 224 7; 225 10; 226 28; 
228 180; 229 37; 230 21; 231 3; 236 1; 
238 4; 240 21; 242 89; 243 42; 244 6; 
252 4; 253 8; 254 92; 256 149; 257 25; 
265 1; 266 1; 267 2; 268 7; 270 393; 
271 999; 272 187; 273 22; 274 1; 
