Name: Bufotenine
Synon: 5-Hydroxy-N,N-Dimethyltryptamine
Synon: 5-HO-DMT
Synon: TIHKAL #19
Synon: N,N-Dimethylserotonin
Synon: Mappine
Synon: 5-Hydroxy-DMT
Synon: 3-(.beta.-Dimethylaminoethyl)-5-hydroxyindole
Synon: 3-(2-Dimethylaminoethyl)-5-indolol
InChIKey: VTTONGPRPXSUTJ-UHFFFAOYSA-N
Formula: C12H16N2O
MW: 204
ExactMass: 204.126264
CASNO: 487934
ID: 4125
Comment: DEA SWL / SWGDRUG Monograph available
Num Peaks: 67
40 1; 41 3; 42 32; 43 8; 44 3; 
50 3; 51 8; 52 5; 53 3; 54 1; 
55 2; 56 5; 57 12; 58 999; 59 36; 
62 2; 63 9; 64 3; 65 13; 66 2; 
73 1; 74 1; 75 3; 76 3; 77 12; 
78 4; 79 2; 80 1; 87 1; 88 1; 
89 13; 90 9; 91 18; 92 2; 93 1; 
101 3; 102 4; 103 7; 104 4; 105 3; 
114 1; 115 5; 116 5; 117 21; 118 8; 
119 2; 128 4; 129 1; 130 9; 131 7; 
132 3; 133 3; 142 1; 143 1; 144 2; 
145 6; 146 52; 147 6; 158 4; 159 13; 
160 13; 161 1; 171 1; 201 1; 202 1; 
204 41; 205 5; 
