Name: PTI-2
Synon: N-(2-methoxyethyl)-N-(1-methylethyl)-2-(1-pentyl-1H-indol-3-yl)-4-thiazolemethanamine
InChIKey: PSAKYYVEVVAWJL-UHFFFAOYSA-N
Formula: C23H33N3OS
MW: 399
ExactMass: 399.234434
CASNO: 0
ID: 4126
Comment: Provided by www.caymanchem.com/app/template/landing%2CForensic.vm / Item #9001950  Lot #0458839
Num Peaks: 232
40 6; 41 64; 42 19; 43 163; 44 7; 
45 76; 46 1; 47 2; 50 1; 51 2; 
52 1; 53 2; 54 4; 55 10; 56 24; 
57 2; 58 9; 59 18; 60 1; 63 1; 
64 1; 65 2; 66 1; 67 2; 68 4; 
69 5; 70 26; 71 108; 72 24; 73 19; 
74 4; 75 2; 76 1; 77 7; 78 4; 
80 2; 82 1; 83 1; 84 45; 85 8; 
86 9; 87 1; 88 9; 89 4; 90 1; 
91 1; 94 1; 95 1; 96 1; 98 2; 
99 2; 100 5; 101 12; 102 9; 103 2; 
104 1; 107 1; 109 1; 110 1; 111 1; 
112 3; 113 15; 114 14; 115 21; 116 201; 
117 18; 118 2; 119 1; 120 1; 121 2; 
122 2; 125 1; 126 1; 128 30; 129 13; 
130 17; 131 4; 132 1; 133 2; 135 5; 
139 1; 140 6; 141 7; 142 51; 143 69; 
144 7; 145 1; 146 1; 147 2; 148 2; 
149 6; 150 1; 152 1; 153 5; 154 13; 
155 227; 156 93; 157 14; 158 2; 159 2; 
160 6; 161 1; 162 2; 163 1; 164 6; 
166 2; 167 4; 168 12; 169 21; 170 6; 
171 3; 172 3; 173 3; 174 1; 175 1; 
177 26; 179 11; 180 10; 181 12; 182 7; 
183 11; 184 9; 185 5; 186 14; 187 5; 
188 1; 191 1; 192 5; 193 11; 194 8; 
195 6; 196 3; 197 11; 198 7; 199 1; 
200 4; 201 1; 205 1; 206 2; 207 6; 
208 3; 209 4; 210 4; 211 19; 212 62; 
213 128; 214 30; 215 6; 216 1; 220 1; 
221 2; 223 1; 224 1; 225 12; 226 41; 
227 37; 228 12; 229 1; 230 4; 233 1; 
235 1; 237 1; 238 3; 239 15; 240 5; 
241 7; 242 2; 243 3; 244 1; 249 4; 
250 3; 251 2; 252 2; 253 8; 254 16; 
255 5; 256 3; 257 1; 265 2; 266 1; 
267 5; 268 4; 269 3; 270 1; 271 1; 
274 1; 278 1; 279 2; 280 3; 281 18; 
283 999; 284 495; 285 129; 286 31; 287 5; 
296 4; 297 26; 298 140; 299 28; 300 8; 
301 1; 309 1; 310 15; 311 7; 312 3; 
313 2; 322 1; 324 15; 325 5; 326 3; 
327 2; 328 1; 334 4; 339 1; 340 1; 
341 2; 342 1; 343 1; 350 1; 352 4; 
354 93; 355 21; 356 5; 357 1; 365 1; 
367 150; 368 44; 369 12; 370 1; 384 2; 
397 1; 398 1; 
