Name: M-144
Synon: XLR11 2-methylindole analog
InChIKey: SVBIXYNVVDXJGW-UHFFFAOYSA-N
Formula: C22H30FNO
MW: 343
ExactMass: 343.231142
CASNO: 156285
ID: 4130
Comment: Provided by www.caymanchem.com/app/template/landing%2CForensic.vm / Item #16084  Lot #0458601
Num Peaks: 268
41 128; 42 11; 43 61; 44 3; 45 2; 
46 4; 47 12; 48 1; 50 5; 51 3; 
52 1; 53 17; 54 5; 55 81; 56 6; 
57 20; 58 2; 59 20; 60 3; 61 7; 
62 2; 63 7; 64 2; 65 15; 66 4; 
67 25; 68 5; 69 56; 70 4; 71 1; 
72 1; 73 16; 74 3; 75 4; 76 3; 
77 32; 78 6; 79 23; 80 1; 81 48; 
82 5; 83 56; 84 8; 85 2; 86 2; 
87 2; 88 5; 89 18; 90 9; 91 16; 
92 1; 93 4; 94 2; 95 6; 96 9; 
97 19; 98 4; 99 1; 100 1; 101 13; 
102 21; 103 44; 104 6; 105 1; 106 6; 
107 5; 108 2; 109 21; 110 6; 111 3; 
112 1; 113 4; 114 3; 115 82; 116 21; 
117 20; 118 6; 119 5; 120 2; 121 2; 
122 1; 123 1; 125 12; 127 22; 128 43; 
129 34; 130 93; 131 16; 132 11; 133 4; 
134 1; 135 1; 138 1; 139 5; 140 9; 
141 8; 142 33; 143 54; 144 95; 145 12; 
146 2; 147 6; 148 2; 152 11; 153 5; 
154 20; 155 11; 156 26; 157 38; 158 208; 
159 28; 160 2; 162 2; 163 2; 164 7; 
165 6; 166 8; 167 30; 168 30; 169 9; 
170 24; 171 16; 172 10; 173 6; 174 1; 
175 1; 176 2; 177 1; 178 5; 179 7; 
180 37; 181 35; 182 36; 183 8; 184 16; 
185 3; 186 3; 187 3; 188 1; 189 4; 
191 3; 193 8; 194 41; 195 18; 196 28; 
197 12; 198 13; 199 6; 200 4; 202 1; 
203 3; 204 7; 205 4; 206 2; 207 18; 
208 19; 209 14; 210 22; 211 7; 212 7; 
213 2; 214 1; 215 3; 216 1; 218 5; 
219 96; 220 28; 221 4; 222 7; 223 2; 
224 39; 225 7; 226 19; 227 3; 228 3; 
229 1; 230 3; 231 1; 232 8; 233 1; 
234 2; 236 1; 237 1; 238 17; 239 9; 
240 5; 242 1; 243 1; 244 7; 245 2; 
246 999; 247 161; 248 18; 249 3; 251 1; 
252 4; 253 5; 254 6; 255 2; 256 3; 
257 2; 258 1; 259 2; 260 37; 261 23; 
262 4; 264 2; 265 2; 266 4; 267 4; 
268 10; 269 5; 270 154; 271 28; 272 12; 
273 2; 276 1; 277 1; 278 1; 280 1; 
281 6; 282 3; 283 1; 284 48; 285 23; 
286 33; 287 15; 288 6; 289 1; 291 1; 
294 2; 295 2; 296 2; 298 1; 299 1; 
300 34; 301 4; 302 25; 303 4; 306 1; 
308 1; 309 1; 310 1; 311 2; 312 2; 
313 14; 314 5; 315 1; 316 2; 317 1; 
318 1; 320 1; 322 1; 323 2; 325 2; 
326 2; 328 187; 329 42; 330 8; 333 1; 
338 2; 341 4; 342 2; 343 124; 344 29; 
345 1; 346 1; 347 1; 
