Name: 4-Iodoamphetamine
Synon: 4-IA
Synon: p-IA
Synon: para-Iodoamphetamine
InChIKey: VZPKOWYCGWOYRF-UHFFFAOYSA-N
Formula: C9H12IN
MW: 261
ExactMass: 261.001448
CASNO: 21894586
ID: 4133
Comment: Provided by www.caymanchem.com/app/template/landing%2CForensic.vm / Item #9001853  Lot #0455605
Num Peaks: 97
40 14; 41 12; 42 57; 43 20; 44 999; 
45 22; 47 1; 49 2; 50 18; 51 24; 
52 5; 53 4; 54 1; 55 1; 56 2; 
57 2; 58 2; 59 12; 60 12; 61 6; 
62 19; 63 56; 64 23; 65 28; 66 5; 
67 2; 68 1; 71 1; 73 2; 74 11; 
75 9; 76 12; 77 13; 78 7; 79 2; 
80 3; 83 1; 84 1; 85 1; 86 5; 
87 6; 88 2; 89 133; 90 111; 91 72; 
92 10; 93 2; 94 1; 96 1; 101 1; 
102 5; 103 3; 104 5; 105 1; 106 1; 
108 1; 109 1; 113 1; 114 1; 115 19; 
116 7; 117 20; 118 17; 119 12; 120 2; 
123 3; 127 40; 128 27; 130 4; 131 2; 
132 2; 133 2; 141 1; 146 1; 152 2; 
158 1; 162 1; 167 1; 197 1; 199 1; 
202 1; 204 1; 217 44; 218 15; 220 1; 
224 1; 230 1; 233 1; 243 1; 244 6; 
245 1; 246 5; 247 1; 249 1; 258 1; 
260 2; 261 2; 
