Name: SDB-006 N-phenyl analog
Synon: 1-Pentyl-N-phenyl-1H-indole-3-carboxamide
InChIKey: SPUQBSMPSCYQLS-UHFFFAOYSA-N
Formula: C20H22N2O
MW: 306
ExactMass: 306.173214
CASNO: 143062920
ID: 4137
Comment: Provided by www.caymanchem.com/app/template/landing%2CForensic.vm / Item #16044  Lot #0458518
Num Peaks: 197
41 43; 42 1; 43 67; 44 7; 46 1; 
47 2; 49 1; 50 1; 51 4; 52 1; 
53 4; 54 1; 55 11; 59 1; 61 1; 
62 4; 63 8; 64 4; 65 52; 66 8; 
67 1; 68 1; 69 3; 71 3; 72 1; 
73 17; 74 1; 75 8; 76 9; 77 23; 
78 5; 79 1; 80 1; 81 1; 83 1; 
84 1; 85 1; 86 2; 87 1; 88 10; 
89 26; 90 3; 91 6; 92 37; 93 17; 
94 4; 96 5; 98 1; 101 14; 102 36; 
103 11; 104 3; 105 3; 109 1; 110 3; 
111 3; 113 2; 114 11; 115 41; 116 72; 
117 10; 118 2; 119 3; 120 2; 121 1; 
123 2; 124 1; 125 4; 127 2; 128 26; 
129 48; 130 26; 131 4; 132 3; 133 3; 
134 3; 135 5; 136 1; 138 1; 140 2; 
141 3; 142 4; 143 48; 144 226; 145 25; 
146 3; 149 1; 150 1; 151 1; 152 1; 
153 2; 154 7; 155 4; 156 13; 157 11; 
158 5; 159 1; 160 1; 161 2; 163 1; 
164 1; 165 6; 166 1; 167 2; 168 2; 
169 1; 170 4; 171 1; 172 1; 173 2; 
176 1; 178 6; 179 1; 180 4; 181 2; 
182 2; 183 1; 184 5; 185 1; 186 5; 
187 2; 190 3; 191 4; 192 1; 193 7; 
194 3; 195 2; 196 2; 197 1; 198 1; 
199 1; 201 1; 203 1; 204 1; 205 3; 
206 10; 207 13; 210 1; 212 12; 214 999; 
215 159; 216 11; 217 11; 218 5; 219 4; 
220 2; 221 3; 223 2; 224 2; 225 1; 
227 1; 231 1; 233 2; 234 3; 235 16; 
236 1; 237 1; 243 1; 248 1; 249 10; 
250 2; 251 3; 252 1; 253 13; 257 1; 
259 1; 260 1; 261 1; 263 1; 264 1; 
269 3; 270 1; 274 1; 275 1; 276 1; 
277 6; 278 2; 279 2; 280 1; 281 8; 
284 1; 285 1; 288 1; 289 1; 290 1; 
291 1; 294 1; 295 1; 297 1; 301 1; 
303 2; 304 2; 305 3; 306 125; 307 30; 
308 3; 309 1; 
