Name: SDB-005
Synon: Naphthalen-1-yl-pentyl-1H-indazole-3-carboxylate
InChIKey: JBVNFKZVDLFOAY-UHFFFAOYSA-N
Formula: C23H22N2O2
MW: 358
ExactMass: 358.168127
CASNO: 0
ID: 4138
Comment: Provided by www.caymanchem.com/app/template/landing%2CForensic.vm / Item #15389  Lot #0457435 / SWGDRUG Monograph available
Num Peaks: 86
41 19; 42 3; 43 21; 44 1; 50 2; 
51 3; 52 1; 53 1; 55 6; 61 1; 
62 6; 63 13; 64 3; 65 6; 67 1; 
69 2; 70 1; 71 1; 73 2; 74 3; 
75 9; 76 12; 77 11; 78 2; 86 1; 
87 5; 88 31; 89 36; 90 49; 91 5; 
92 1; 102 26; 103 62; 104 10; 105 1; 
113 8; 115 167; 116 27; 117 25; 118 3; 
119 1; 126 5; 127 17; 128 15; 129 21; 
130 16; 131 18; 132 2; 133 1; 135 1; 
137 1; 143 42; 145 349; 146 34; 147 3; 
151 2; 155 1; 156 1; 157 3; 158 4; 
159 1; 171 6; 172 1; 185 4; 186 1; 
187 1; 191 1; 199 1; 201 1; 202 2; 
207 3; 213 8; 215 999; 216 146; 217 12; 
218 1; 242 1; 243 1; 253 1; 255 1; 
256 1; 281 1; 301 1; 358 44; 359 11; 
360 1; 
