Name: 25C-NBF
Synon: 2C-C-NBF
Synon: 2-(4-chloro-2,5-dimethoxyphenyl)-N-(2-fluorobenzyl)ethanamine
InChIKey: UWNVVDHYCKNSNC-UHFFFAOYSA-N
Formula: C17H19ClFNO2
MW: 323
ExactMass: 323.108835
CASNO: 153925980
ID: 4140
Comment: Provided by www.caymanchem.com/app/template/landing%2CForensic.vm / Item #15969  Lot #0458217
Num Peaks: 134
41 2; 42 4; 43 2; 50 4; 51 9; 
52 2; 53 6; 55 1; 57 6; 59 4; 
60 1; 61 1; 62 3; 63 15; 64 5; 
65 8; 66 1; 67 4; 68 2; 69 2; 
70 2; 73 6; 74 4; 75 16; 76 5; 
77 46; 78 8; 79 8; 80 1; 81 3; 
82 1; 83 64; 84 4; 85 2; 86 1; 
87 3; 88 2; 89 27; 90 6; 91 26; 
92 7; 93 3; 94 2; 95 3; 96 5; 
97 2; 98 1; 99 18; 100 2; 101 6; 
102 5; 103 3; 104 3; 105 20; 106 3; 
107 20; 108 16; 109 999; 110 77; 111 5; 
112 13; 113 7; 114 5; 115 2; 116 1; 
117 2; 118 5; 119 3; 120 2; 121 7; 
122 8; 123 3; 124 3; 125 16; 126 3; 
127 11; 128 3; 129 2; 130 1; 132 1; 
133 3; 134 3; 135 7; 136 38; 137 9; 
138 782; 139 68; 140 8; 141 3; 142 17; 
143 3; 144 5; 145 1; 147 3; 148 3; 
149 1; 150 1; 151 2; 152 3; 153 1; 
154 2; 155 36; 156 4; 157 15; 158 1; 
159 1; 162 1; 164 2; 165 1; 168 2; 
169 8; 170 5; 171 13; 172 2; 173 3; 
182 3; 183 6; 184 7; 185 33; 186 100; 
187 18; 188 35; 189 3; 196 1; 198 3; 
199 3; 200 1; 201 1; 207 2; 290 7; 
291 3; 292 4; 293 1; 323 1; 
