Name: O-3-Monoacetylmorphine
Synon: 3-Monoacetylmorphine
Synon: 3-MAM
InChIKey: GMLREHXYJDLZOU-UHFFFAOYSA-N
Formula: C19H21NO4
MW: 327
ExactMass: 327.147058
CASNO: 5140283
ID: 4142
Comment: DEA SWL
Num Peaks: 230
40 9; 41 30; 42 337; 43 507; 44 214; 
45 6; 50 21; 51 29; 52 19; 53 59; 
54 13; 55 89; 56 39; 57 51; 58 47; 
59 86; 60 10; 62 10; 63 40; 64 11; 
65 57; 66 17; 67 37; 68 31; 69 9; 
70 150; 71 9; 72 12; 74 13; 75 16; 
76 22; 77 125; 78 32; 79 28; 80 25; 
81 211; 82 82; 83 34; 84 14; 86 10; 
88 8; 89 62; 90 24; 91 89; 92 15; 
93 17; 94 138; 95 26; 96 64; 97 23; 
98 6; 99 6; 100 10; 101 28; 102 42; 
103 67; 104 24; 105 33; 106 14; 107 48; 
108 21; 109 66; 110 30; 111 11; 112 24; 
113 24; 114 32; 115 293; 116 59; 117 40; 
118 27; 119 14; 120 23; 121 16; 122 17; 
124 249; 125 26; 126 29; 127 125; 128 144; 
129 75; 130 35; 131 87; 132 40; 133 30; 
134 36; 135 20; 136 35; 137 11; 138 7; 
139 84; 140 19; 141 101; 142 32; 143 42; 
144 90; 145 48; 146 126; 147 60; 148 48; 
149 17; 150 23; 151 38; 152 154; 153 116; 
154 32; 155 28; 156 36; 157 56; 158 29; 
159 17; 160 76; 161 84; 162 684; 163 101; 
164 78; 165 134; 166 34; 167 46; 168 51; 
169 72; 170 44; 171 74; 172 50; 173 74; 
174 215; 175 97; 176 59; 177 16; 178 18; 
179 21; 180 18; 181 126; 182 34; 183 41; 
184 45; 185 66; 186 39; 187 32; 188 27; 
189 17; 190 21; 191 16; 192 13; 193 19; 
194 22; 195 31; 196 36; 197 66; 198 80; 
199 56; 200 84; 201 28; 202 40; 203 46; 
204 33; 205 14; 206 9; 207 16; 208 17; 
209 38; 210 45; 211 52; 212 35; 213 54; 
214 124; 215 470; 216 145; 217 10; 220 6; 
221 8; 222 13; 223 13; 224 21; 225 43; 
226 99; 227 68; 228 102; 229 32; 230 7; 
231 8; 232 7; 235 6; 236 10; 237 13; 
238 12; 239 7; 240 48; 241 10; 242 59; 
243 16; 244 8; 245 5; 246 5; 250 23; 
251 10; 252 18; 253 18; 254 36; 255 10; 
256 67; 257 26; 258 20; 264 8; 265 8; 
266 177; 267 169; 268 188; 269 32; 270 48; 
271 14; 281 12; 282 27; 283 29; 284 273; 
285 999; 286 159; 287 24; 298 30; 308 13; 
309 9; 310 81; 311 27; 312 18; 313 5; 
325 6; 326 113; 327 894; 328 168; 329 24; 
