Name: MDMB-CHMINACA
Synon: N-[[1-(cyclohexylmethyl)-1H-indazol-3-yl]carbonyl]-3-methyl-L-valine, methyl ester
InChIKey: DGQMLBSSRFFINY-LJQANCHMSA-N
Formula: C22H31N3O3
MW: 385
ExactMass: 385.236542
CASNO: 118587970
ID: 4144
Comment: Provided by www.caymanchem.com/app/template/landing%2CForensic.vm / Item #16200  Lot #0459976
Num Peaks: 267
41 149; 42 14; 43 21; 44 15; 45 1; 
47 5; 49 5; 50 5; 51 2; 52 4; 
53 11; 54 15; 55 183; 56 30; 57 200; 
58 9; 59 31; 60 2; 63 5; 64 1; 
65 7; 66 1; 67 27; 68 5; 69 34; 
70 18; 71 4; 73 43; 74 17; 75 10; 
76 15; 77 31; 78 16; 79 15; 80 5; 
81 11; 82 4; 83 47; 84 10; 85 9; 
86 14; 87 4; 88 34; 89 19; 90 35; 
91 19; 92 2; 93 5; 95 12; 96 7; 
97 25; 98 4; 99 3; 100 1; 101 2; 
102 23; 103 141; 104 46; 105 3; 106 6; 
108 1; 109 1; 110 4; 112 4; 113 3; 
114 5; 115 14; 116 4; 117 31; 118 17; 
119 1; 120 2; 122 2; 127 2; 128 8; 
129 26; 130 47; 131 321; 132 47; 133 4; 
136 1; 137 4; 138 1; 140 4; 141 1; 
142 5; 143 8; 144 36; 145 564; 146 57; 
147 9; 150 1; 151 3; 155 4; 156 7; 
157 7; 158 21; 159 6; 160 2; 161 1; 
162 2; 166 1; 167 1; 168 2; 169 7; 
170 1; 171 11; 174 8; 175 3; 176 2; 
177 2; 179 1; 181 2; 182 1; 183 3; 
184 5; 185 4; 186 14; 187 3; 189 1; 
193 2; 194 5; 195 4; 197 6; 198 1; 
199 5; 200 3; 201 126; 202 11; 203 3; 
204 1; 205 1; 207 9; 208 3; 209 6; 
210 5; 211 1; 212 8; 213 6; 214 15; 
215 4; 216 1; 218 2; 222 1; 223 3; 
225 2; 226 7; 228 3; 229 1; 230 2; 
231 1; 232 4; 233 1; 234 2; 236 3; 
237 1; 238 2; 239 20; 241 999; 242 190; 
243 29; 244 6; 245 1; 246 12; 247 8; 
248 1; 249 1; 250 6; 251 4; 252 1; 
253 7; 254 100; 255 23; 256 14; 257 5; 
258 2; 259 1; 261 1; 262 1; 263 1; 
264 3; 265 5; 268 6; 270 2; 271 2; 
273 1; 275 2; 276 1; 278 1; 279 2; 
281 11; 282 3; 283 5; 286 8; 287 6; 
288 2; 290 2; 292 2; 293 1; 295 2; 
296 2; 297 157; 298 18; 299 6; 300 3; 
302 3; 303 2; 306 1; 307 1; 308 2; 
309 4; 310 2; 311 6; 313 1; 314 1; 
316 2; 318 2; 319 2; 320 1; 321 3; 
322 3; 324 2; 325 6; 326 149; 327 27; 
328 11; 329 244; 330 32; 332 2; 333 1; 
334 1; 335 3; 336 1; 338 6; 340 3; 
342 5; 343 6; 344 3; 345 1; 346 1; 
348 3; 350 3; 352 2; 353 3; 354 4; 
355 5; 356 1; 359 1; 360 1; 361 1; 
362 1; 364 5; 366 1; 368 3; 369 1; 
370 7; 371 2; 372 2; 373 2; 376 1; 
377 1; 378 3; 379 1; 385 23; 386 3; 
387 2; 389 1; 
