Name: N-Desmethylloperamide
Synon: dLop
Synon: R 20905
Synon: 4-(4-Chlorophenyl)-4-hydroxy-N-methyl-.alpha.,.alpha.-diphenyl-1-piperidinebutanamide
InChIKey: ZMOPTLXEYOVARP-UHFFFAOYSA-N
Formula: C28H31ClN2O2
MW: 462
ExactMass: 462.207405
CASNO: 66164076
ID: 4145
Comment: Provided by www.caymanchem.com/app/template/landing%2CForensic.vm / Item #16126  Lot #0459217
Num Peaks: 346
40 41; 41 35; 42 432; 43 59; 44 23; 
45 6; 46 3; 47 2; 48 2; 49 8; 
50 31; 51 66; 52 21; 53 6; 54 21; 
55 57; 56 192; 57 50; 58 474; 59 22; 
60 20; 61 5; 62 20; 63 55; 64 16; 
65 30; 66 4; 67 5; 68 32; 69 14; 
70 46; 71 27; 72 10; 73 55; 74 68; 
75 63; 76 73; 77 187; 78 96; 79 9; 
80 6; 81 19; 82 65; 83 38; 84 69; 
85 12; 86 57; 87 17; 88 36; 89 79; 
90 16; 91 139; 92 14; 94 11; 95 12; 
96 14; 97 9; 98 15; 99 11; 100 12; 
101 36; 102 75; 103 105; 104 54; 105 18; 
106 4; 107 8; 108 4; 109 5; 110 7; 
111 55; 112 41; 113 32; 114 19; 115 271; 
116 93; 117 70; 118 65; 119 19; 120 15; 
121 2; 122 3; 123 5; 124 5; 125 89; 
126 43; 127 80; 128 72; 129 83; 130 49; 
131 33; 132 23; 133 8; 134 5; 135 21; 
136 14; 137 95; 138 21; 139 186; 140 29; 
141 56; 142 31; 143 11; 144 30; 145 6; 
146 19; 147 38; 149 30; 150 16; 151 48; 
152 97; 153 50; 154 73; 155 26; 156 11; 
157 11; 158 25; 159 3; 160 6; 161 12; 
162 10; 163 37; 164 56; 165 561; 166 217; 
167 148; 168 64; 169 15; 170 13; 171 21; 
172 9; 173 5; 174 15; 175 6; 176 36; 
177 68; 178 320; 179 304; 180 203; 181 43; 
182 11; 184 4; 185 5; 186 4; 187 9; 
188 10; 189 151; 190 64; 191 108; 192 166; 
193 203; 194 159; 195 41; 196 141; 197 21; 
198 11; 202 5; 203 18; 204 20; 205 25; 
206 267; 207 142; 208 162; 209 30; 210 97; 
211 15; 212 22; 213 4; 214 1; 215 3; 
216 4; 217 5; 218 11; 219 20; 220 227; 
222 159; 224 785; 225 814; 226 352; 227 45; 
228 4; 229 4; 230 2; 231 2; 232 4; 
233 7; 234 7; 235 7; 236 14; 237 25; 
238 999; 239 148; 240 339; 241 66; 242 1; 
243 2; 246 4; 247 3; 248 3; 249 18; 
250 186; 251 67; 252 137; 253 64; 254 8; 
255 9; 256 4; 257 4; 258 3; 260 1; 
261 2; 262 2; 263 6; 265 3; 266 3; 
269 7; 270 6; 271 3; 272 2; 274 2; 
275 3; 278 4; 279 7; 280 2; 281 25; 
282 1; 283 13; 284 3; 285 4; 286 3; 
287 1; 288 1; 289 2; 292 2; 293 5; 
294 3; 296 3; 299 1; 302 3; 303 2; 
304 2; 306 1; 309 1; 310 1; 311 5; 
312 4; 313 2; 314 1; 315 5; 316 3; 
317 1; 319 1; 320 2; 321 2; 323 2; 
325 9; 326 6; 327 4; 328 1; 329 1; 
330 1; 331 13; 332 2; 336 2; 338 3; 
339 3; 341 21; 342 10; 343 7; 344 4; 
345 5; 346 6; 350 2; 351 2; 353 2; 
354 6; 355 9; 356 6; 357 6; 360 2; 
361 1; 363 2; 364 1; 366 1; 367 2; 
368 1; 369 2; 372 2; 374 3; 377 2; 
378 2; 380 2; 382 1; 384 8; 385 4; 
387 6; 388 2; 390 1; 392 1; 394 1; 
395 1; 396 2; 398 1; 399 3; 400 2; 
401 1; 402 3; 403 5; 405 6; 406 2; 
408 1; 410 1; 412 5; 414 1; 415 4; 
416 1; 418 1; 420 2; 423 1; 424 1; 
426 1; 428 1; 429 4; 430 3; 431 4; 
432 4; 434 3; 437 1; 439 2; 441 1; 
444 3; 445 2; 447 3; 448 1; 451 2; 
452 2; 455 1; 456 2; 457 1; 459 1; 
460 1; 461 6; 462 3; 463 1; 464 4; 
465 1; 
