Name: N,N-Dimethylpentylone
Synon: 1-(1,3-benzodioxol-5-yl)-2-(dimethylamino)-1-pentanone
InChIKey: PQTJKFUXRBKONZ-UHFFFAOYSA-N
Formula: C14H19NO3
MW: 249
ExactMass: 249.136494
CASNO: 17763132
ID: 4147
Comment: Provided by www.caymanchem.com/app/template/landing%2CForensic.vm / Item #9001933  Lot #0457892 / SWGDRUG Monograph available
Num Peaks: 120
41 14; 42 54; 43 12; 44 18; 45 8; 
46 3; 47 1; 49 1; 50 3; 51 5; 
52 1; 53 6; 54 1; 55 13; 56 29; 
57 6; 58 73; 59 3; 60 1; 62 13; 
63 34; 64 3; 65 54; 66 5; 67 3; 
68 8; 69 2; 70 28; 71 82; 72 21; 
73 2; 74 2; 76 4; 77 3; 78 3; 
79 5; 80 2; 81 2; 82 7; 84 31; 
85 8; 86 1; 87 1; 89 2; 90 3; 
91 19; 92 1; 94 1; 96 2; 97 1; 
98 13; 99 11; 100 999; 101 58; 103 5; 
104 1; 105 2; 106 1; 108 1; 109 1; 
110 1; 112 1; 115 2; 116 1; 117 1; 
119 6; 120 6; 121 49; 122 7; 128 1; 
129 1; 130 1; 131 2; 132 1; 133 3; 
135 9; 137 1; 138 2; 145 2; 147 5; 
148 1; 149 68; 150 8; 151 1; 160 2; 
161 1; 162 2; 163 3; 164 4; 165 1; 
166 1; 173 1; 175 2; 176 2; 177 3; 
178 5; 179 1; 183 1; 184 1; 185 1; 
188 3; 189 1; 190 2; 191 1; 194 2; 
197 1; 203 2; 204 2; 205 1; 206 5; 
207 4; 208 2; 211 1; 218 1; 225 1; 
227 1; 236 1; 244 1; 246 1; 248 1; 
