Name: Diphenidine
Synon: DEP
Synon: 1-(1,2-diphenylethyl)piperidine
InChIKey: JQWJJJYHVHNXJH-UHFFFAOYSA-N
Formula: C19H23N
MW: 265
ExactMass: 265.18305
CASNO: 28383155
ID: 4148
Comment: Provided by www.caymanchem.com/app/template/landing%2CForensic.vm / Item #15518  Lot #0459009 / SWGDRUG Monograph available
Num Peaks: 90
40 2; 41 40; 42 11; 43 2; 50 3; 
51 10; 52 3; 53 3; 54 5; 55 8; 
56 4; 62 1; 63 8; 64 2; 65 44; 
66 2; 67 3; 68 2; 69 14; 70 1; 
74 1; 75 2; 76 6; 77 47; 78 13; 
79 21; 80 2; 82 3; 83 2; 84 5; 
87 1; 88 1; 89 20; 90 16; 91 292; 
92 22; 93 1; 101 1; 102 10; 103 41; 
104 32; 105 11; 106 19; 107 1; 115 10; 
116 4; 117 22; 118 17; 119 2; 120 1; 
126 1; 127 2; 128 4; 129 2; 130 10; 
131 4; 132 3; 139 2; 141 2; 143 2; 
144 7; 145 4; 150 1; 151 5; 152 10; 
153 4; 154 1; 158 1; 163 1; 164 2; 
165 34; 166 19; 167 2; 170 1; 171 1; 
172 27; 173 9; 174 999; 175 154; 176 14; 
177 5; 178 32; 179 25; 180 12; 181 9; 
182 2; 188 4; 262 1; 263 1; 264 1; 
