Name: Lefetamine
Synon: Santenol
Synon: N,N-dimethyl-.alpha.-phenyl-benzeneethanamine
InChIKey: YEJZJVJJPVZXGX-UHFFFAOYSA-N
Formula: C16H19N
MW: 225
ExactMass: 225.15175
CASNO: 24301904
ID: 4149
Comment: Provided by www.caymanchem.com/app/template/landing%2CForensic.vm / Item #15566  Lot #0458607
Num Peaks: 79
40 2; 41 5; 42 37; 43 4; 44 3; 
50 5; 51 14; 52 4; 53 1; 56 2; 
62 2; 63 12; 64 3; 65 42; 66 2; 
74 4; 75 3; 76 7; 77 51; 78 18; 
79 4; 82 1; 83 1; 86 1; 87 1; 
88 1; 89 19; 90 6; 91 157; 92 13; 
93 1; 94 1; 101 1; 102 8; 103 24; 
104 11; 105 5; 106 1; 115 5; 116 4; 
117 9; 118 66; 119 10; 120 1; 126 2; 
127 1; 128 3; 129 1; 130 2; 131 5; 
132 26; 133 9; 134 999; 135 94; 136 4; 
139 3; 141 2; 144 1; 146 1; 148 6; 
150 1; 151 3; 152 10; 153 3; 163 1; 
164 1; 165 22; 166 8; 167 1; 176 6; 
177 4; 178 25; 179 19; 180 14; 181 4; 
182 2; 222 2; 223 1; 224 1; 
