Name: 25T4-NBOMe
InChIKey: BOWHVFJVXBVJCU-UHFFFAOYSA-N
Synon: 2C-T-4-NBOMe
Synon: 2,5-Dimethoxy-4-isopropylthiophenethylamine-NBOMe
Synon: 25T4-NB2OMe
Synon: 2C-T-4-NB2OMe
Formula: C21H29NO3S
MW: 375
ExactMass: 375.186815
CASNO: 1566571730
ID: 4152
Comment: Provided by www.caymanchem.com/app/template/landing%2CForensic.vm / Item #9001989  Lot #0459581
Num Peaks: 158
40 9; 41 40; 42 16; 43 35; 44 3; 
45 4; 47 1; 49 1; 50 1; 51 5; 
52 5; 53 4; 55 1; 57 1; 59 3; 
60 1; 62 1; 63 4; 64 3; 65 39; 
66 5; 67 4; 68 1; 69 4; 70 1; 
71 1; 73 6; 74 1; 75 4; 76 2; 
77 32; 78 28; 79 13; 80 3; 81 1; 
82 1; 83 1; 84 1; 85 5; 86 1; 
89 9; 90 8; 91 325; 92 30; 93 33; 
94 5; 95 2; 96 3; 97 8; 98 1; 
102 1; 103 2; 104 4; 105 12; 106 7; 
107 18; 108 9; 109 9; 110 12; 111 3; 
112 1; 115 1; 116 1; 117 5; 118 10; 
119 9; 120 12; 121 999; 122 105; 123 14; 
124 3; 125 7; 126 1; 127 1; 131 1; 
132 3; 133 7; 134 13; 135 8; 136 13; 
137 7; 138 16; 139 3; 140 6; 141 2; 
147 4; 148 31; 149 8; 150 343; 151 43; 
152 9; 153 45; 154 8; 155 5; 156 1; 
161 1; 162 1; 163 2; 164 5; 165 2; 
166 4; 167 7; 168 4; 169 14; 171 1; 
177 1; 179 2; 180 2; 181 13; 182 8; 
183 73; 184 25; 185 5; 186 1; 191 1; 
192 1; 195 2; 196 3; 197 5; 198 1; 
199 1; 203 1; 207 2; 209 1; 211 2; 
212 1; 219 1; 222 1; 223 2; 224 1; 
225 44; 226 291; 227 41; 228 21; 229 1; 
235 1; 238 3; 239 2; 240 1; 249 1; 
253 4; 254 1; 255 1; 268 1; 270 1; 
281 1; 282 1; 283 1; 300 1; 325 1; 
329 1; 331 1; 341 1; 342 7; 343 3; 
344 2; 346 1; 373 2; 
