Name: MA-CHMINACA
Synon: AMB N-methylcyclohexyl analog
Synon: MAB-AB-CHMINACA
Synon: Methyl-(1-(cyclohexylmethyl)-1H-indazole-3-carbonyl)-L-valinate
InChIKey: CRGGXDSTBHQLKJ-SFHVURJKSA-N
Formula: C21H29N3O3
MW: 371
ExactMass: 371.220892
CASNO: 0
ID: 4153
Comment: Provided by www.caymanchem.com/app/template/landing%2CForensic.vm / Item #16421  Lot #0460324
Num Peaks: 157
40 3; 41 65; 42 7; 43 55; 44 6; 
45 1; 50 1; 51 3; 52 1; 53 9; 
54 7; 55 115; 56 13; 57 2; 59 33; 
60 1; 62 2; 63 3; 64 1; 65 3; 
66 1; 67 22; 68 4; 69 10; 70 7; 
71 5; 72 13; 73 6; 74 2; 75 4; 
76 10; 77 21; 78 4; 79 7; 80 2; 
81 7; 82 2; 83 26; 84 3; 85 1; 
86 1; 87 3; 88 20; 89 13; 90 29; 
91 6; 92 1; 93 3; 94 1; 95 11; 
96 2; 97 11; 98 12; 99 1; 101 2; 
102 20; 103 103; 104 32; 105 3; 114 1; 
115 3; 116 3; 117 18; 118 8; 119 2; 
127 1; 128 3; 129 29; 130 65; 131 139; 
132 23; 133 3; 142 2; 143 4; 144 18; 
145 459; 146 46; 147 4; 154 1; 155 3; 
156 4; 157 8; 158 21; 159 9; 160 2; 
161 14; 162 1; 168 1; 169 7; 170 2; 
171 5; 172 3; 173 2; 174 44; 175 48; 
176 5; 181 1; 183 2; 184 1; 185 4; 
186 8; 187 2; 196 1; 197 1; 198 1; 
199 1; 200 1; 201 5; 202 1; 207 4; 
209 1; 210 2; 211 5; 212 6; 213 32; 
214 8; 215 1; 216 3; 228 22; 229 13; 
230 2; 239 20; 241 999; 242 164; 243 14; 
244 1; 246 1; 253 1; 254 3; 255 7; 
256 23; 257 100; 258 16; 259 1; 269 11; 
270 3; 281 2; 282 1; 288 19; 289 8; 
290 1; 297 4; 310 2; 312 343; 313 72; 
314 8; 324 2; 328 7; 329 8; 330 2; 
339 6; 340 3; 341 1; 356 1; 371 53; 
372 12; 373 1; 
