Name: Methoxphenidine
Synon: MXP
Synon: 2-MeO-Diphenidine
Synon: 1-(1-(2-methoxyphenyl)-2-phenylethyl)piperidine
InChIKey: QXXCUXIRBHSITD-UHFFFAOYSA-N
Formula: C20H25NO
MW: 295
ExactMass: 295.193615
CASNO: 0
ID: 4155
Comment: Provided by www.caymanchem.com/app/template/landing%2CForensic.vm / Item #15519  Lot #0459181 / SWGDRUG Monograph available
Num Peaks: 149
40 9; 41 25; 42 9; 43 3; 44 2; 
46 1; 49 1; 50 2; 51 9; 52 4; 
53 3; 54 7; 55 11; 56 8; 57 3; 
62 1; 63 7; 64 4; 65 45; 66 7; 
67 4; 68 3; 69 3; 70 1; 73 5; 
74 2; 75 6; 76 3; 77 28; 78 22; 
79 11; 80 2; 81 1; 82 7; 83 17; 
84 10; 85 2; 87 2; 88 2; 89 15; 
90 13; 91 233; 92 24; 93 9; 94 1; 
95 1; 96 3; 98 5; 101 1; 102 6; 
103 16; 104 16; 105 18; 106 5; 107 13; 
108 3; 109 2; 110 1; 113 1; 115 11; 
116 4; 117 9; 118 13; 119 14; 120 19; 
121 64; 122 5; 124 1; 127 3; 128 6; 
129 5; 130 4; 131 7; 132 13; 133 7; 
134 10; 135 4; 136 4; 139 4; 140 1; 
141 3; 143 1; 144 5; 145 2; 146 8; 
147 7; 148 6; 149 1; 150 2; 151 4; 
152 19; 153 5; 154 2; 155 2; 156 1; 
159 1; 160 11; 162 2; 163 1; 164 3; 
165 32; 166 10; 167 7; 168 2; 169 1; 
170 2; 172 19; 173 3; 174 3; 175 2; 
176 9; 177 6; 178 28; 179 11; 180 3; 
181 2; 182 1; 183 1; 186 2; 187 1; 
188 62; 189 5; 190 1; 191 1; 194 3; 
195 8; 196 5; 200 2; 202 15; 204 999; 
205 143; 206 15; 207 6; 209 2; 210 10; 
211 1; 212 5; 213 1; 235 1; 241 1; 
247 1; 250 1; 253 1; 254 1; 278 1; 
281 1; 283 1; 293 1; 294 1; 
