Name: MCHB-1
Synon: N-Methylcyclohexyl benzimidazole analog 1
Synon: 1-(Cyclohexylmethyl)-2-[(4-ethoxyphenyl)methyl]-N,N-diethyl-1H-benzimidazole-5-carboxamide
InChIKey: WRVZBXHTUOPQJS-UHFFFAOYSA-N
Formula: C28H37N3O2
MW: 447
ExactMass: 447.288578
CASNO: 0
ID: 4156
Comment: Provided by www.caymanchem.com/app/template/landing%2CForensic.vm / Item #9001949  Lot #0458838
Num Peaks: 309
41 42; 42 22; 43 12; 44 21; 45 2; 
50 3; 51 4; 52 3; 53 8; 54 9; 
55 183; 56 22; 57 5; 58 13; 62 1; 
63 6; 64 3; 65 6; 66 3; 67 37; 
68 12; 69 16; 70 7; 71 5; 72 22; 
73 12; 74 1; 75 6; 76 15; 77 35; 
78 16; 79 15; 80 3; 81 38; 82 4; 
83 4; 84 1; 88 1; 89 8; 90 11; 
91 12; 92 4; 93 6; 94 9; 95 17; 
96 8; 97 17; 98 1; 99 1; 100 11; 
101 4; 102 11; 103 10; 104 6; 105 6; 
106 4; 107 262; 108 20; 109 1; 110 1; 
111 4; 112 3; 114 1; 115 6; 116 6; 
117 7; 118 6; 119 6; 120 3; 121 1; 
122 1; 124 1; 125 5; 127 2; 128 5; 
129 22; 130 19; 131 14; 132 16; 133 8; 
134 2; 135 112; 136 10; 137 1; 138 2; 
139 3; 140 3; 141 2; 142 3; 143 4; 
144 8; 145 7; 146 1; 147 2; 148 1; 
149 2; 150 1; 151 3; 152 1; 153 3; 
154 5; 155 5; 156 6; 157 48; 158 14; 
159 6; 160 1; 161 3; 164 1; 165 2; 
166 4; 167 8; 168 11; 169 7; 170 3; 
171 3; 172 2; 174 32; 175 1; 176 2; 
177 2; 178 3; 179 4; 180 3; 181 3; 
182 6; 183 4; 184 4; 185 2; 186 1; 
188 12; 189 1; 190 1; 191 2; 192 22; 
193 37; 194 30; 195 12; 196 4; 197 3; 
198 1; 199 1; 202 1; 203 3; 204 5; 
205 29; 206 20; 207 21; 208 8; 209 6; 
210 3; 211 5; 212 21; 213 11; 214 1; 
215 1; 216 11; 217 15; 218 7; 219 7; 
220 9; 221 55; 222 207; 223 59; 224 14; 
225 3; 226 1; 227 1; 228 2; 229 2; 
230 3; 231 4; 232 4; 233 7; 234 10; 
235 14; 236 24; 237 9; 239 19; 240 2; 
241 2; 242 1; 243 1; 244 1; 245 2; 
246 1; 247 3; 248 5; 249 23; 250 70; 
251 111; 252 29; 253 11; 254 2; 255 2; 
256 1; 257 1; 258 1; 259 1; 260 1; 
261 2; 262 4; 263 10; 264 13; 265 8; 
266 4; 267 1; 268 1; 269 2; 270 1; 
273 1; 274 1; 275 1; 277 12; 279 127; 
280 27; 281 8; 282 2; 283 1; 284 1; 
285 2; 288 2; 289 1; 290 4; 291 4; 
292 3; 293 3; 294 3; 303 3; 304 5; 
305 4; 306 4; 307 1; 308 2; 310 3; 
312 61; 313 15; 314 1; 315 1; 317 3; 
318 5; 319 4; 320 2; 321 4; 322 20; 
323 5; 324 1; 325 2; 327 2; 328 1; 
329 1; 330 1; 331 3; 332 1; 333 2; 
334 2; 335 2; 336 3; 341 2; 342 1; 
343 1; 344 1; 345 5; 346 18; 347 15; 
348 10; 350 98; 351 21; 352 7; 353 1; 
355 1; 356 1; 359 2; 360 1; 361 4; 
362 9; 363 4; 364 10; 365 7; 366 2; 
367 1; 371 1; 373 13; 375 999; 376 304; 
377 40; 378 3; 390 1; 402 2; 403 2; 
404 3; 405 2; 416 1; 418 5; 419 1; 
429 1; 430 4; 431 1; 432 3; 433 1; 
439 1; 442 1; 443 1; 444 2; 446 512; 
447 364; 448 101; 449 14; 450 1; 
