Name: (1H-Indol-3-yl)(2,2,3,3-tetramethylcyclopropyl)methanone
InChIKey: WYZQBEQQQKCTHM-UHFFFAOYSA-N
Formula: C16H19NO
MW: 241
ExactMass: 241.146665
CASNO: 895152666
ID: 4160
Comment: Provided by www.caymanchem.com/app/template/landing%2CForensic.vm / Item #9001966  Lot #0459658
Num Peaks: 141
41 67; 42 6; 43 23; 44 3; 49 1; 
50 5; 51 5; 52 3; 53 13; 54 7; 
55 63; 56 4; 57 14; 58 3; 59 8; 
60 1; 62 11; 63 28; 64 6; 65 11; 
66 6; 67 15; 68 1; 69 17; 70 1; 
71 2; 72 3; 73 1; 74 3; 75 7; 
76 7; 77 17; 78 5; 79 19; 80 3; 
81 45; 82 5; 83 31; 84 6; 86 3; 
87 7; 88 15; 89 163; 90 32; 91 8; 
92 1; 93 2; 96 6; 97 23; 98 2; 
99 2; 101 5; 102 5; 103 7; 105 18; 
106 3; 109 42; 110 4; 111 1; 113 10; 
114 16; 115 45; 116 168; 117 47; 118 25; 
119 1; 121 1; 125 1; 126 3; 127 7; 
128 14; 129 7; 130 26; 131 4; 132 1; 
135 2; 139 5; 140 6; 141 9; 142 7; 
143 28; 144 999; 145 111; 146 8; 147 1; 
148 1; 151 2; 152 4; 153 2; 154 18; 
155 6; 156 7; 157 3; 158 8; 159 40; 
160 4; 161 1; 164 1; 165 3; 166 7; 
167 48; 168 106; 169 14; 170 9; 171 2; 
178 1; 180 10; 182 92; 183 58; 184 14; 
185 2; 190 1; 191 2; 192 4; 193 4; 
194 1; 195 2; 196 4; 197 6; 198 37; 
199 5; 200 10; 201 2; 206 1; 207 4; 
208 4; 209 3; 210 5; 211 11; 212 2; 
216 1; 224 5; 226 95; 227 18; 228 2; 
236 1; 239 1; 240 1; 241 88; 242 12; 
243 1; 
