Name: Tetrahydrocannabivarin
Synon: 6H-Dibenzo[b,d]pyran-1-ol, 6a,7,8,10a-tetrahydro-6,6,9-trimethyl-3-propyl-, (6aR-trans)-
Synon: .delta.1-Tetrahydrocannabidivarol
Synon: .delta.9-trans-Tetrahydrocannabivarin
Synon: (-)-.delta.9-trans-Tetrahydrocannabivarin
Synon: Cannabidivarol, .delta.1-tetrahydro-
Synon: .delta.9-Tetrahydrocannabivarol
Synon: Cannabivarol, .delta.9-tetrahydro-
Synon: 6,6,9-Trimethyl-3-propyl-6a,7,8,10a-tetrahydro-6H-benzo[c]chromen-1-ol-, (6aR-trans)-
Synon: 6H-Dibenzo[b,d]pyran-1-ol, 6a,7,8,10a-tetrahydro-6,6,9-trimethyl-3-propyl-, (6aR,10aR)-
Synon: .delta.9-Tetrahydrocannabivarin
InChIKey: ZROLHBHDLIHEMS-UHFFFAOYSA-N
Formula: C19H26O2
MW: 286
ExactMass: 286.19328
CASNO: 31262370
ID: 4165
Comment: Provided by www.caymanchem.com/app/template/landing%2CForensic.vm / Item #15538  Lot #0456611
Num Peaks: 198
41 194; 42 18; 43 123; 44 3; 50 4; 
51 19; 52 11; 53 52; 55 62; 56 6; 
57 5; 59 16; 60 1; 62 3; 63 14; 
65 48; 66 17; 67 78; 68 15; 69 56; 
70 5; 71 3; 72 1; 73 2; 74 2; 
75 6; 77 114; 78 37; 79 77; 80 17; 
81 79; 82 13; 83 8; 84 2; 85 2; 
86 1; 87 4; 88 2; 89 19; 91 151; 
92 26; 93 41; 94 10; 95 45; 96 5; 
97 4; 98 2; 99 3; 100 8; 101 6; 
102 14; 103 38; 104 15; 105 65; 106 18; 
107 62; 108 18; 109 16; 110 3; 111 5; 
113 7; 115 122; 116 32; 117 39; 118 11; 
119 53; 120 17; 121 44; 123 32; 124 11; 
125 2; 127 43; 128 107; 129 61; 130 16; 
131 45; 132 15; 133 25; 134 12; 135 19; 
136 14; 137 24; 138 4; 139 16; 141 61; 
142 26; 143 27; 144 23; 145 37; 147 69; 
148 12; 149 22; 150 8; 151 15; 152 52; 
153 46; 154 20; 155 31; 156 10; 157 37; 
158 20; 159 34; 160 36; 161 47; 162 10; 
163 26; 165 187; 166 35; 167 20; 168 21; 
169 34; 170 14; 171 29; 173 67; 174 114; 
175 46; 176 12; 177 12; 178 23; 179 34; 
180 8; 181 36; 182 22; 183 42; 184 17; 
185 43; 186 25; 187 93; 188 39; 189 124; 
190 29; 191 17; 193 40; 194 12; 195 22; 
196 13; 197 32; 198 20; 199 60; 200 47; 
201 127; 203 938; 204 159; 205 50; 206 9; 
207 8; 208 4; 209 12; 210 12; 211 25; 
212 14; 213 64; 214 39; 215 92; 216 44; 
217 52; 218 52; 219 9; 220 1; 221 1; 
222 1; 223 4; 224 7; 225 16; 226 13; 
227 38; 228 33; 229 110; 230 35; 231 15; 
232 2; 237 2; 238 3; 239 7; 240 6; 
241 25; 243 766; 244 138; 245 26; 246 2; 
251 1; 253 9; 254 3; 255 15; 257 66; 
258 45; 259 8; 267 5; 269 77; 271 999; 
272 195; 273 24; 274 2; 281 2; 286 769; 
287 157; 288 20; 289 1; 
