Name: 3,4-EDMA
Synon: 3,4-Ethylenedioxy-N-methylamphetamine
InChIKey: UJKWLAZYSLJTKA-UHFFFAOYSA-N
Formula: C12H17NO2
MW: 207
ExactMass: 207.125929
CASNO: 0
ID: 4167
Comment: Provided by www.caymanchem.com/app/template/landing%2CForensic.vm / Item #15164  Lot #0457928
Num Peaks: 88
40 3; 41 10; 42 28; 43 13; 44 3; 
50 5; 51 23; 52 7; 53 5; 54 3; 
55 6; 56 47; 58 999; 59 38; 60 1; 
61 1; 62 5; 63 15; 64 8; 65 75; 
66 17; 67 5; 68 1; 70 2; 71 1; 
74 2; 75 3; 77 55; 78 16; 79 12; 
80 6; 81 3; 82 1; 86 1; 87 1; 
89 13; 90 4; 91 29; 92 8; 93 8; 
94 22; 95 3; 96 3; 102 1; 103 7; 
104 3; 105 14; 106 9; 107 6; 108 3; 
115 2; 116 1; 117 1; 118 2; 119 2; 
120 7; 121 6; 123 24; 124 2; 131 5; 
132 2; 133 2; 134 4; 135 5; 136 5; 
137 1; 146 1; 147 2; 149 85; 150 130; 
151 12; 152 1; 161 1; 162 2; 163 1; 
164 1; 175 2; 176 5; 177 6; 178 1; 
190 3; 191 3; 192 9; 193 1; 204 1; 
205 4; 206 4; 207 1; 
