Name: Yangonin
Synon: 2H-Pyran-2-one, 4-methoxy-6-[2-(4-methoxyphenyl)ethenyl]-, (E)-
Synon: 2H-Pyran-2-one, 4-methoxy-6-(p-methoxystyryl)-
Synon: 5-Hydroxy-3-methoxy-7-(p-methoxyphenyl)-2,4,6-heptatrienoic acid .gamma.-lactone
Synon: 4-Methoxy-6-(.beta.-(p-anisyl)vinyl)-.alpha.-pyrone
Synon: 4-Methoxy-6-(p-methoxystyryl)-2H-pyran-2-one
Synon: 4-Methoxy-6-[(E)-2-(4-methoxyphenyl)ethenyl]-2H-pyran-2-one
InChIKey: XLHIYUYCSMZCCC-VMPITWQZSA-N
Formula: C15H14O4
MW: 258
ExactMass: 258.089209
CASNO: 500629
ID: 4168
Comment: Provided by www.caymanchem.com/app/template/landing%2CForensic.vm / Item #14351  Lot #0456780 / SWGDRUG Monograph available
Num Peaks: 175
40 8; 41 10; 42 5; 43 7; 44 3; 
45 1; 50 13; 51 26; 52 5; 53 30; 
54 13; 55 11; 56 2; 57 4; 58 1; 
59 66; 60 1; 61 3; 62 17; 63 62; 
64 32; 65 18; 66 32; 67 6; 69 220; 
70 9; 71 2; 72 1; 73 21; 74 13; 
75 26; 76 30; 77 88; 78 19; 79 33; 
81 9; 82 9; 83 5; 84 1; 85 5; 
86 7; 87 13; 89 125; 90 72; 91 31; 
92 39; 93 22; 95 7; 97 2; 98 5; 
99 2; 100 3; 101 16; 102 59; 103 46; 
104 7; 105 4; 107 11; 108 9; 109 8; 
110 2; 111 2; 113 7; 115 202; 116 54; 
117 32; 118 62; 119 14; 121 60; 122 6; 
123 2; 125 61; 126 15; 127 67; 128 78; 
129 43; 130 11; 131 29; 132 56; 133 71; 
134 13; 135 29; 136 3; 137 3; 138 1; 
139 17; 140 12; 141 17; 142 6; 143 23; 
144 113; 145 69; 146 28; 147 28; 148 10; 
149 3; 150 4; 151 27; 152 6; 153 3; 
155 31; 156 15; 157 18; 158 30; 159 122; 
160 22; 161 73; 162 7; 163 2; 165 3; 
167 4; 168 8; 169 18; 170 13; 171 57; 
172 25; 173 11; 174 7; 175 6; 176 1; 
177 3; 178 1; 179 3; 181 1; 182 2; 
183 15; 184 10; 185 18; 187 588; 188 81; 
189 8; 191 2; 193 1; 195 3; 196 1; 
197 13; 198 26; 199 29; 200 17; 201 21; 
202 41; 203 9; 205 1; 207 7; 208 2; 
209 6; 210 2; 211 3; 212 1; 213 4; 
215 153; 216 21; 217 2; 218 1; 222 1; 
223 1; 225 3; 226 6; 227 15; 228 7; 
230 311; 231 44; 232 5; 233 1; 239 1; 
241 32; 242 7; 243 5; 252 1; 253 10; 
254 3; 255 3; 258 999; 259 161; 260 16; 
