Name: FAB-144
Synon: (1-(5-Fluoropentyl)-1H-indazol-3-yl)(2,2,3,3-tetramethylcyclopropyl)methanone
InChIKey: LVJQJRUAYXVEGN-UHFFFAOYSA-N
Formula: C20H27FN2O
MW: 330
ExactMass: 330.210741
CASNO: 0
ID: 4169
Comment: Provided by www.caymanchem.com/app/template/landing%2CForensic.vm / Item #15155  Lot #0459249
Num Peaks: 254
41 211; 42 16; 43 84; 44 5; 45 4; 
46 1; 47 24; 48 2; 50 5; 51 16; 
52 8; 53 38; 54 10; 55 239; 56 13; 
57 39; 58 5; 59 18; 60 2; 61 6; 
62 8; 63 9; 64 10; 65 22; 66 12; 
67 70; 68 7; 69 148; 70 16; 71 2; 
72 1; 73 31; 74 4; 75 25; 76 20; 
77 48; 78 11; 79 34; 80 3; 81 63; 
82 9; 83 51; 84 16; 85 4; 86 3; 
87 1; 88 25; 89 39; 90 65; 91 30; 
92 14; 93 7; 94 2; 95 22; 96 110; 
97 208; 98 13; 99 1; 100 2; 101 5; 
102 58; 103 120; 104 48; 105 13; 106 10; 
107 1; 108 2; 109 23; 110 13; 111 3; 
113 19; 114 5; 115 25; 116 24; 117 45; 
118 29; 119 18; 120 10; 122 1; 125 12; 
126 5; 127 13; 128 23; 129 52; 130 58; 
131 196; 132 31; 133 11; 134 3; 135 3; 
137 2; 138 2; 139 6; 140 13; 141 9; 
142 11; 143 33; 144 33; 145 473; 146 45; 
147 12; 149 4; 151 2; 152 10; 153 9; 
154 12; 155 18; 156 14; 157 28; 158 15; 
159 78; 160 21; 161 2; 163 1; 164 2; 
165 7; 166 3; 167 11; 168 27; 169 27; 
170 16; 171 35; 172 8; 173 22; 174 5; 
175 4; 177 69; 178 10; 179 5; 180 5; 
181 16; 182 17; 183 130; 184 35; 185 44; 
186 8; 187 6; 188 4; 189 2; 190 8; 
191 8; 192 5; 193 8; 195 12; 196 10; 
197 63; 198 23; 199 25; 200 5; 201 2; 
202 1; 203 4; 204 2; 205 8; 206 5; 
207 48; 208 28; 209 20; 210 8; 211 21; 
212 11; 213 116; 214 17; 215 3; 217 2; 
218 1; 219 39; 220 27; 221 7; 223 6; 
224 4; 225 17; 226 12; 227 24; 228 4; 
229 1; 230 3; 231 8; 232 5; 233 999; 
234 154; 235 42; 236 4; 237 4; 238 1; 
239 6; 240 3; 241 13; 242 8; 243 5; 
245 1; 246 4; 247 324; 248 74; 249 7; 
251 5; 253 8; 254 3; 255 23; 256 9; 
257 3; 259 28; 260 8; 261 4; 263 1; 
267 4; 268 1; 269 6; 271 307; 272 82; 
273 27; 274 9; 275 4; 277 1; 279 2; 
281 30; 283 9; 284 2; 285 3; 286 3; 
287 64; 288 18; 289 7; 291 1; 293 1; 
294 2; 295 3; 297 25; 298 5; 299 4; 
300 3; 301 2; 302 5; 303 3; 305 1; 
306 1; 307 1; 309 1; 310 1; 311 4; 
312 4; 313 10; 315 212; 316 46; 317 4; 
319 3; 322 1; 324 2; 325 2; 327 4; 
330 146; 331 27; 332 4; 333 2; 
