Name: Ethyl Phenylacetate
Synon: Benzeneacetic acid, ethyl ester
Synon: Acetic acid, phenyl-, ethyl ester
Synon: .alpha.-Toluic acid, ethyl ester
Synon: Ethyl .alpha.-toluate
Synon: Ethyl benzeneacetate
Synon: Ethyl phenacetate
Synon: Ethyl 2-phenylethanoate
Synon: Phenylacetic acid, ethyl ester
Synon: Ethyl phenylethanoate
Synon: Ethyl 2-phenylacetate
Synon: 2-Phenylacetic acid ethyl ester
InChIKey: DULCUDSUACXJJC-UHFFFAOYSA-N
Formula: C10H12O2
MW: 164
ExactMass: 164.08373
CASNO: 101973
ID: 4174
Comment: DEA SWL
Num Peaks: 42
37 1; 38 5; 39 39; 40 3; 41 9; 
42 2; 43 4; 44 1; 45 5; 50 12; 
51 25; 52 8; 53 2; 61 2; 62 12; 
63 41; 64 12; 65 133; 66 7; 74 2; 
75 2; 76 1; 77 10; 78 5; 79 5; 
86 2; 87 2; 89 49; 90 32; 91 999; 
92 123; 93 6; 105 25; 106 2; 107 2; 
118 8; 119 23; 120 2; 136 9; 164 203; 
165 22; 166 2; 
