Name: PV9
Synon: 1-Phenyl-2-(pyrrolidin-1-yl)octan-1-one
Synon: .alpha.-POP
InChIKey: RCGHPLZKUHDGCC-UHFFFAOYSA-N
Formula: C18H27NO
MW: 273
ExactMass: 273.209265
CASNO: 0
ID: 4183
Comment: Provided by www.caymanchem.com/app/template/landing%2CForensic.vm / Item #15062  Lot #0452123
Num Peaks: 101
41 66; 42 35; 43 39; 44 6; 50 7; 
51 31; 52 3; 53 8; 54 24; 55 60; 
56 25; 57 4; 63 1; 65 3; 66 1; 
67 9; 68 26; 69 61; 70 37; 71 3; 
72 4; 74 2; 75 2; 77 177; 78 20; 
79 6; 80 7; 81 7; 82 13; 84 86; 
85 5; 89 2; 91 18; 92 2; 93 2; 
94 8; 96 100; 97 63; 98 32; 99 2; 
102 2; 103 4; 105 118; 106 11; 107 1; 
108 6; 110 106; 111 10; 112 1; 115 6; 
116 2; 117 4; 118 2; 119 1; 120 7; 
121 1; 122 1; 124 8; 125 1; 126 1; 
127 1; 128 3; 129 2; 130 3; 131 4; 
132 2; 133 4; 134 1; 136 1; 138 5; 
139 1; 140 3; 141 1; 143 1; 144 1; 
145 1; 146 2; 152 1; 153 1; 154 1; 
156 1; 158 1; 159 2; 160 6; 161 1; 
164 4; 166 30; 168 999; 169 275; 170 16; 
171 1; 172 1; 173 1; 184 1; 186 5; 
188 25; 189 5; 200 1; 207 3; 214 5; 
272 4; 
