Name: 2-APB
Synon: 1-(1-benzofuran-2-yl)propan-2-amine
InChIKey: QGLBWEFCBFEAPH-UHFFFAOYSA-N
Formula: C11H13NO
MW: 175
ExactMass: 175.099714
CASNO: 30455733
ID: 4187
Comment: ENFSI / EDND webpage; Swedish NFP
Num Peaks: 74
38 8; 39 32; 40 5; 41 9; 42 61; 
43 22; 44 999; 45 40; 50 30; 51 69; 
52 15; 53 13; 54 2; 55 10; 56 1; 
57 1; 61 3; 62 20; 63 51; 64 10; 
65 14; 66 10; 74 15; 75 20; 76 31; 
77 188; 78 29; 79 7; 80 9; 85 1; 
86 4; 87 6; 88 3; 89 16; 90 4; 
91 6; 92 1; 98 1; 99 1; 100 1; 
101 8; 102 62; 103 53; 104 13; 105 19; 
106 3; 107 2; 113 2; 114 2; 115 18; 
116 3; 117 2; 118 2; 124 1; 127 5; 
128 10; 129 4; 130 2; 131 274; 132 183; 
133 25; 134 1; 142 1; 144 4; 156 2; 
157 5; 158 4; 159 9; 160 10; 172 2; 
173 3; 174 3; 175 27; 176 5; 
