Name: 4-AcO-DALT
Synon: 4-Acetoxy-N,N-diallyltryptamine
InChIKey: MRILFONSBOOXMJ-UHFFFAOYSA-N
Formula: C18H22N2O2
MW: 298
ExactMass: 298.168127
CASNO: 0
ID: 4189
Comment: ENFSI / EDND webpage, Finnish NFP
Num Peaks: 100
38 1; 39 24; 40 3; 41 160; 42 53; 
43 67; 44 3; 45 1; 50 1; 51 4; 
52 2; 53 6; 54 2; 55 14; 56 4; 
62 1; 63 5; 64 2; 65 6; 66 2; 
67 3; 68 38; 69 5; 70 8; 74 1; 
75 1; 76 2; 77 11; 78 4; 79 24; 
80 4; 81 27; 82 7; 84 2; 88 1; 
89 13; 90 10; 91 12; 92 2; 93 1; 
94 3; 95 1; 96 3; 101 2; 102 5; 
103 8; 104 5; 105 2; 108 6; 109 3; 
110 999; 111 78; 112 6; 113 1; 114 1; 
115 15; 116 6; 117 24; 118 19; 119 1; 
128 4; 129 3; 130 21; 131 6; 132 3; 
133 5; 140 2; 141 1; 142 2; 143 1; 
144 2; 145 8; 146 65; 147 10; 148 1; 
154 1; 155 1; 156 1; 157 2; 158 4; 
159 13; 160 26; 161 3; 171 1; 172 2; 
173 2; 184 1; 185 2; 186 2; 187 1; 
188 5; 189 1; 201 1; 202 3; 214 2; 
239 1; 256 1; 257 2; 269 1; 298 4; 
