Name: 2-MAPB
Synon: 2-(N-methyl-2-aminopropyl)-1-benzofuran
InChIKey: ANJIDHKQUCZNQY-UHFFFAOYSA-N
Formula: C12H15NO
MW: 189
ExactMass: 189.115364
CASNO: 806596156
ID: 4190
Comment: ENFSI / EDND webpage, Swedish NFP / SWGDRUG Monograph available
Num Peaks: 80
38 4; 39 21; 40 2; 41 12; 42 46; 
43 22; 44 5; 50 16; 51 41; 52 9; 
53 7; 54 4; 55 9; 56 78; 57 25; 
58 999; 59 53; 61 2; 62 11; 63 29; 
64 6; 65 8; 67 2; 70 1; 72 2; 
73 2; 74 9; 75 12; 76 19; 77 109; 
78 13; 79 3; 80 1; 81 2; 85 1; 
86 4; 87 8; 88 2; 89 13; 90 4; 
91 9; 92 2; 94 1; 101 7; 102 36; 
103 28; 104 5; 105 8; 113 2; 114 3; 
115 24; 116 7; 117 3; 118 5; 119 2; 
127 9; 128 15; 129 7; 130 5; 131 143; 
132 24; 133 6; 139 3; 141 2; 143 3; 
144 10; 145 4; 146 3; 147 2; 155 3; 
156 3; 157 9; 158 8; 159 7; 160 3; 
172 4; 173 5; 174 7; 188 5; 189 3; 
