Name: 4-Fluoro-PV9
Synon: para-Fluoro-PV9
Synon: 1-(4-Fluorophenyl)-2-(pyrrolidin-1-yl)octan-1-one
Synon: 4F-.alpha.-POP
Synon: 4-Fluoro-.alpha.-POP
InChIKey: MNXIGHJMEAJIEV-UHFFFAOYSA-N
Formula: C18H26FNO
MW: 291
ExactMass: 291.199842
CASNO: 0
ID: 4193
Comment: Provided by www.caymanchem.com/app/template/landing%2CForensic.vm / Item #15063  Lot #0456867
Num Peaks: 67
41 30; 42 15; 43 17; 44 2; 50 1; 
51 1; 53 3; 54 11; 55 24; 56 10; 
57 2; 65 1; 67 4; 68 14; 69 31; 
70 19; 71 2; 72 1; 75 19; 76 2; 
77 2; 79 1; 80 3; 81 2; 82 6; 
83 4; 84 35; 85 2; 93 1; 95 81; 
96 53; 97 26; 98 13; 99 1; 101 1; 
103 1; 108 3; 109 11; 110 42; 111 4; 
115 1; 120 1; 121 1; 123 71; 124 10; 
125 1; 133 2; 134 1; 135 1; 136 1; 
138 7; 140 1; 148 1; 149 1; 151 2; 
164 2; 166 14; 168 999; 169 120; 170 7; 
177 1; 178 2; 204 2; 206 11; 207 2; 
232 1; 290 1; 
