Name: Dipentylone
Synon: 1-(1,3-benzodioxol-5-yl)-2-(dimethylamino)-pentan-1-one
InChIKey: PQTJKFUXRBKONZ-UHFFFAOYSA-N
Formula: C14H19NO3
MW: 249
ExactMass: 249.136494
CASNO: 803614360
ID: 4195
Comment: ENFSI / Swedish NFP, confirmed by NMR
Num Peaks: 99
30 4; 37 1; 38 2; 39 20; 40 2; 
41 15; 42 85; 43 18; 44 20; 45 1; 
46 3; 50 4; 51 10; 52 2; 53 11; 
54 4; 55 26; 56 61; 57 16; 58 161; 
59 5; 61 3; 62 18; 63 63; 64 9; 
65 92; 66 7; 67 2; 68 9; 69 2; 
70 43; 71 123; 72 47; 73 2; 74 3; 
75 2; 76 2; 77 8; 78 3; 79 5; 
80 1; 81 1; 82 5; 83 3; 84 30; 
85 6; 86 1; 88 1; 89 3; 90 2; 
91 30; 92 5; 93 1; 94 1; 98 13; 
100 999; 101 124; 102 6; 104 2; 105 3; 
106 1; 115 2; 117 1; 118 2; 119 9; 
120 7; 121 63; 122 6; 131 1; 132 1; 
133 1; 135 16; 136 1; 145 1; 146 2; 
147 8; 149 79; 150 7; 159 1; 160 1; 
161 1; 162 2; 163 1; 164 2; 175 4; 
176 3; 177 4; 178 7; 188 3; 189 1; 
190 3; 191 1; 204 5; 205 2; 206 11; 
207 2; 220 1; 247 1; 249 1; 
