Name: Sunifiram
Synon: 1-Benzoyl-4-propanoylpiperazine
Synon: DM-235
InChIKey: DGOWDUFJCINDGI-UHFFFAOYSA-N
Formula: C14H18N2O2
MW: 246
ExactMass: 246.136827
CASNO: 314728853
ID: 4198
Comment: ENFSI / Nootropic, ICP Prague
Num Peaks: 133
26 2; 27 19; 28 17; 29 63; 30 7; 
38 1; 39 3; 40 1; 41 7; 42 30; 
43 8; 44 8; 50 14; 51 56; 52 5; 
53 1; 54 9; 55 25; 56 100; 57 90; 
58 17; 59 1; 62 1; 63 1; 65 1; 
67 1; 68 12; 69 174; 70 12; 71 4; 
72 1; 74 4; 75 5; 76 16; 77 325; 
78 25; 79 2; 81 2; 82 1; 83 7; 
84 6; 85 335; 86 24; 87 1; 89 2; 
90 1; 91 7; 92 2; 96 1; 97 1; 
98 14; 99 7; 100 11; 101 2; 102 1; 
103 3; 104 19; 105 999; 106 81; 107 5; 
109 1; 111 1; 112 13; 113 14; 114 2; 
115 1; 116 1; 117 4; 118 5; 119 6; 
120 5; 121 1; 122 63; 123 10; 124 5; 
125 55; 126 5; 127 17; 128 2; 130 2; 
131 2; 132 7; 133 4; 134 63; 135 37; 
136 9; 137 1; 139 1; 140 1; 141 45; 
142 4; 143 1; 144 1; 145 6; 146 24; 
147 28; 148 45; 149 5; 150 1; 155 1; 
158 1; 159 2; 160 43; 161 19; 162 9; 
163 2; 169 2; 171 4; 172 9; 173 70; 
174 12; 175 9; 176 1; 178 97; 179 11; 
180 1; 187 1; 188 2; 189 44; 190 25; 
191 4; 192 1; 202 2; 203 2; 217 7; 
218 2; 231 7; 232 1; 244 1; 245 28; 
246 79; 247 14; 248 1; 
