Name: 4-Fluoropentedrone
Synon: 4-F-Pentedrone
Synon: 4-FPD
Synon: 1-(4-fluorophenyl)-2-(methylamino)pentan-1-one
InChIKey: QBFXBDUCRNGHSA-UHFFFAOYSA-N
Formula: C12H16FNO
MW: 209
ExactMass: 209.1215925
CASNO: 0
ID: 4202
Comment: ENFSI / French NFP
Num Peaks: 74
39 11; 40 2; 41 20; 42 66; 43 20; 
44 302; 45 9; 49 1; 50 10; 51 9; 
52 2; 53 4; 54 6; 55 31; 56 45; 
57 55; 58 43; 59 2; 61 1; 62 2; 
63 4; 68 10; 69 12; 70 25; 71 7; 
74 8; 75 68; 76 7; 77 4; 81 1; 
82 2; 83 3; 84 21; 85 3; 86 999; 
87 60; 88 3; 89 1; 93 2; 94 10; 
95 149; 96 15; 97 4; 101 3; 103 1; 
107 4; 108 2; 109 11; 110 2; 120 1; 
121 3; 122 3; 123 79; 124 7; 125 2; 
133 4; 134 1; 135 1; 136 2; 138 4; 
145 1; 146 2; 147 1; 148 3; 149 2; 
150 2; 151 6; 152 2; 164 2; 165 1; 
166 19; 167 3; 180 1; 210 1; 
