Name: AM694 chloro derivative
Synon: 1-[(5-chloropentyl)-1H-indol-3-yl]-(2-iodophenyl)methanone
InChIKey: VOYWJWCIGAFJEL-UHFFFAOYSA-N
Formula: C20H19ClINO
MW: 451
ExactMass: 451.01999
CASNO: 0
ID: 4207
Comment: ENFSI / HIFS Budapest, proposed 5-position to be confirmed
Num Peaks: 142
39 12; 40 9; 41 72; 43 17; 50 20; 
51 11; 55 10; 62 9; 63 31; 69 74; 
73 5; 74 14; 75 37; 76 87; 77 40; 
78 2; 87 14; 88 41; 89 57; 90 10; 
91 2; 96 1; 97 13; 102 71; 103 19; 
104 28; 105 35; 114 24; 115 62; 116 101; 
117 22; 123 9; 127 36; 128 77; 129 59; 
130 117; 131 14; 135 10; 137 9; 139 16; 
140 9; 143 28; 144 258; 145 27; 147 6; 
149 10; 150 16; 151 34; 152 22; 154 15; 
156 24; 157 13; 158 15; 161 12; 162 13; 
163 95; 164 144; 165 125; 166 20; 167 11; 
170 29; 175 13; 176 96; 177 49; 178 57; 
179 6; 180 10; 184 25; 185 15; 188 10; 
189 26; 190 119; 191 46; 192 15; 193 12; 
195 1; 203 201; 204 262; 205 61; 206 26; 
207 19; 208 26; 209 17; 210 15; 212 32; 
214 9; 216 20; 217 34; 218 33; 219 75; 
220 699; 221 124; 222 25; 231 387; 232 239; 
233 91; 234 99; 235 25; 246 18; 248 999; 
249 153; 250 318; 251 54; 252 10; 253 14; 
254 12; 255 12; 256 55; 257 9; 258 9; 
265 4; 267 4; 268 10; 270 9; 281 6; 
282 12; 283 1; 284 13; 288 33; 289 12; 
318 11; 323 20; 324 83; 325 33; 326 30; 
327 16; 332 9; 341 3; 343 2; 347 39; 
349 9; 355 6; 356 9; 360 340; 361 84; 
362 11; 405 4; 415 17; 451 925; 452 200; 
453 331; 454 80; 
