Name: 4-HTMPIPO
Synon: 4-Hydroxy-3,3,4-trimethyl-1-(1-pentyl-1H-indol-3-yl)pentan-1-one
InChIKey: GWHGUYKAGQLPTQ-UHFFFAOYSA-N
Formula: C21H31NO2
MW: 329
ExactMass: 329.23548
CASNO: 0
ID: 4208
Comment: ENFSI / EDND webpage, Swedish NFP, confirmed by NMR
Num Peaks: 164
29 14; 31 2; 39 7; 40 1; 41 29; 
42 3; 43 45; 44 1; 51 1; 53 5; 
55 17; 56 1; 57 4; 59 15; 63 2; 
65 2; 67 4; 69 7; 71 1; 75 2; 
76 2; 77 8; 78 1; 79 8; 80 1; 
81 35; 82 2; 83 8; 87 1; 88 2; 
89 9; 90 3; 91 3; 95 2; 97 2; 
101 4; 102 10; 103 6; 104 2; 105 1; 
106 1; 109 43; 110 3; 112 2; 113 10; 
114 4; 115 20; 116 20; 117 10; 118 9; 
120 8; 125 3; 126 2; 127 16; 128 16; 
129 18; 130 46; 131 8; 132 7; 139 6; 
140 5; 141 6; 142 6; 143 13; 144 53; 
145 6; 148 2; 151 2; 152 8; 153 6; 
154 15; 155 7; 156 10; 157 6; 158 5; 
159 1; 164 1; 165 4; 166 10; 167 48; 
168 28; 169 5; 170 7; 171 2; 172 8; 
173 2; 178 4; 179 4; 180 36; 181 22; 
182 31; 183 8; 184 5; 185 4; 186 6; 
187 25; 188 28; 189 3; 191 2; 192 2; 
193 4; 194 16; 195 7; 196 20; 197 5; 
198 5; 199 1; 200 4; 201 1; 204 1; 
206 1; 207 1; 208 4; 209 3; 210 33; 
211 10; 212 8; 214 138; 215 23; 216 2; 
222 2; 224 31; 225 10; 226 4; 227 1; 
229 68; 230 11; 231 1; 236 1; 237 2; 
238 23; 239 10; 240 3; 252 37; 253 14; 
254 13; 255 2; 256 19; 257 3; 266 3; 
267 2; 268 9; 269 2; 270 4; 271 24; 
272 6; 273 1; 278 1; 280 3; 281 33; 
282 8; 283 1; 293 1; 294 5; 296 999; 
297 211; 298 23; 299 2; 311 164; 312 40; 
313 5; 314 2; 329 5; 330 1; 
