Name: NPDPA
Synon: N-(1,2-diphenylethyl)propan-2-amine
InChIKey: FBRJTEBLJRHAQX-UHFFFAOYSA-N
Formula: C17H21N
MW: 239
ExactMass: 239.167399
CASNO: 0
ID: 4209
Comment: ENFSI / EDND webpage, German NFP
Num Peaks: 56
39 3; 41 7; 42 4; 43 9; 44 6; 
51 6; 58 3; 63 3; 65 10; 76 5; 
77 48; 78 8; 79 97; 80 8; 82 3; 
89 10; 90 3; 91 35; 92 5; 102 4; 
103 35; 104 28; 105 10; 106 368; 107 28; 
115 6; 117 6; 118 8; 120 8; 128 3; 
130 5; 132 23; 133 5; 139 3; 141 3; 
146 16; 147 5; 148 999; 149 113; 150 9; 
151 3; 152 10; 153 6; 162 5; 165 36; 
166 27; 167 5; 176 6; 177 5; 178 31; 
179 19; 180 5; 181 52; 182 9; 196 6; 
240 3; 
