Name: MDMB-CHMICA
Synon: N-((1-(cyclohexylmethyl)-1H-indol-3-yl)carbonyl)-3-methyl-valine, methyl ester
Synon: MMB-CHMINACA
Synon: Methyl 2-(1-(cyclohexylmethyl)-1H-indole-3-carboxamido)-3,3-dimethylbutanoate
InChIKey: SRJKCVHWIDFUBO-HXUWFJFHSA-N
Formula: C23H32N2O3
MW: 384
ExactMass: 384.241293
CASNO: 0
ID: 4211
Comment: ENFSI / HIFS Budapest, confirmed by NMR
Num Peaks: 128
41 22; 42 2; 43 3; 44 2; 53 3; 
55 56; 56 3; 57 18; 59 2; 63 1; 
65 1; 67 5; 68 1; 69 6; 70 1; 
73 2; 75 1; 76 1; 77 4; 78 1; 
79 1; 81 1; 83 2; 88 2; 89 6; 
90 1; 91 1; 95 3; 97 7; 101 4; 
102 14; 103 6; 114 3; 115 14; 116 24; 
117 5; 118 3; 127 1; 128 16; 129 57; 
130 35; 131 5; 132 1; 142 2; 143 27; 
144 219; 145 23; 146 2; 154 5; 155 4; 
156 7; 157 25; 158 10; 159 1; 167 3; 
168 5; 169 1; 170 3; 171 3; 172 1; 
173 4; 174 1; 180 1; 181 1; 182 2; 
183 1; 184 4; 185 4; 186 1; 196 2; 
198 1; 200 1; 207 5; 208 1; 209 1; 
210 1; 211 3; 212 9; 213 12; 214 2; 
237 1; 238 22; 240 999; 241 206; 242 24; 
243 2; 245 176; 246 27; 247 3; 253 1; 
254 1; 255 1; 267 10; 268 108; 269 21; 
270 2; 281 3; 282 1; 295 14; 296 80; 
297 16; 298 1; 301 21; 302 4; 310 11; 
311 2; 325 7; 326 2; 327 2; 328 246; 
329 53; 330 7; 337 17; 338 4; 351 1; 
352 9; 353 11; 354 2; 355 2; 366 2; 
367 11; 368 2; 369 4; 370 1; 382 1; 
384 221; 385 59; 386 8; 
