Name: ADB-CHMICA
Synon: N-(1-amino-3,3-dimethyl-1-oxobutan-2-yl)-1-(cyclohexylmethyl)-1H-indole-3-carboxamide
InChIKey: LPXKQKOUEIQHLR-LJQANCHMSA-N
Formula: C22H31N3O2
MW: 369
ExactMass: 369.241627
CASNO: 0
ID: 4212
Comment: ENFSI / EDND webpage, Slovenian NFP, confirmed by NMR
Num Peaks: 145
51 3; 52 1; 53 10; 54 4; 55 193; 
56 12; 57 43; 58 2; 59 1; 62 1; 
63 3; 64 1; 65 3; 66 1; 67 12; 
68 3; 69 17; 70 4; 71 2; 73 4; 
74 1; 75 3; 76 4; 77 12; 78 4; 
79 4; 80 1; 81 3; 82 2; 83 6; 
84 1; 86 4; 87 1; 88 4; 89 15; 
90 3; 91 3; 93 1; 95 6; 96 3; 
97 15; 98 2; 100 2; 101 9; 102 30; 
103 13; 104 2; 112 1; 114 7; 115 25; 
116 44; 117 9; 118 6; 119 1; 122 1; 
127 2; 128 27; 129 85; 130 59; 131 10; 
132 2; 133 1; 140 1; 141 1; 142 4; 
143 42; 144 300; 145 32; 146 2; 153 1; 
154 7; 155 11; 156 13; 157 30; 158 13; 
159 2; 163 1; 166 1; 167 4; 168 7; 
169 3; 170 4; 171 3; 172 1; 173 8; 
174 1; 180 1; 181 1; 182 3; 183 3; 
184 5; 185 3; 191 2; 193 1; 194 1; 
196 2; 198 2; 199 6; 200 1; 207 13; 
208 3; 209 2; 210 1; 211 3; 212 14; 
213 15; 214 5; 230 3; 236 1; 237 1; 
238 20; 240 999; 241 193; 242 22; 243 2; 
267 3; 268 13; 269 3; 281 4; 282 1; 
283 1; 286 2; 293 1; 294 12; 295 38; 
296 58; 297 11; 298 1; 311 1; 312 1; 
313 6; 314 1; 324 1; 325 15; 326 5; 
327 1; 336 3; 337 4; 338 1; 351 12; 
352 7; 353 1; 369 27; 370 7; 371 1; 
