Name: CUMYL-BICA
Synon: 1-butyl-N-(2-phenylpropan-2-yl)-1H-indole-3-carboxamide
InChIKey: BSZWUQMCGNYLJR-UHFFFAOYSA-N
Formula: C22H26N2O
MW: 334
ExactMass: 334.204514
CASNO: 0
ID: 4217
Comment: ENFSI / EDND webpage, Slovenian NFP, confirmed by NMR
Num Peaks: 128
51 28; 52 7; 53 4; 54 1; 55 9; 
56 2; 57 23; 58 7; 61 1; 62 6; 
63 16; 64 4; 65 12; 66 1; 73 2; 
74 6; 75 12; 76 14; 77 83; 78 40; 
79 18; 80 1; 86 1; 87 5; 88 12; 
89 46; 90 10; 91 113; 92 10; 93 1; 
95 6; 96 1; 99 1; 100 1; 101 21; 
102 41; 103 81; 104 45; 105 13; 106 1; 
107 2; 113 1; 114 18; 115 80; 116 105; 
117 85; 118 88; 119 56; 120 9; 121 1; 
127 4; 128 52; 129 47; 130 86; 131 19; 
132 4; 133 2; 134 8; 135 2; 138 5; 
140 2; 141 4; 142 15; 143 61; 144 300; 
145 41; 146 10; 147 1; 153 2; 154 5; 
155 72; 156 42; 157 14; 158 9; 160 6; 
161 1; 165 1; 167 6; 168 3; 169 3; 
170 14; 171 6; 172 21; 173 171; 174 63; 
175 6; 181 1; 182 1; 183 3; 184 4; 
186 1; 187 2; 191 1; 192 1; 193 1; 
196 2; 197 2; 198 36; 200 999; 201 150; 
202 12; 204 1; 206 2; 207 5; 208 1; 
214 2; 216 414; 217 63; 218 6; 234 2; 
239 4; 240 1; 241 1; 243 1; 249 3; 
250 1; 275 1; 277 1; 281 2; 291 7; 
292 1; 317 3; 318 1; 319 3; 320 2; 
334 131; 335 31; 336 4; 
