Name: .alpha.-PVT
Synon: .alpha.-Pyrrolidinopentiothiophenone
Synon: CDC
Synon: 2-(Pyrrolidin-1-yl)-1-(thiophen-2-yl)pentan-1-one
InChIKey: OOSRPGUQJAKBLV-UHFFFAOYSA-N
Formula: C13H19NOS
MW: 237
ExactMass: 237.118735
CASNO: 0
ID: 4220
Comment: Provided by www.caymanchem.com/app/template/landing%2CForensic.vm / Item #14182  Lot #0446933 / SWGDRUG Monograph available
Num Peaks: 65
40 4; 41 30; 42 30; 43 7; 44 1; 
45 5; 50 1; 51 1; 52 1; 53 6; 
54 15; 55 31; 56 10; 57 9; 58 2; 
59 1; 65 2; 66 1; 67 4; 68 14; 
69 32; 70 20; 71 2; 72 2; 77 2; 
78 1; 79 1; 80 6; 81 6; 82 12; 
83 34; 84 40; 85 5; 91 1; 93 1; 
94 5; 96 42; 97 42; 98 12; 106 1; 
108 2; 109 2; 111 105; 112 7; 113 5; 
121 1; 122 5; 123 3; 124 24; 126 999; 
127 88; 128 3; 133 1; 135 1; 136 1; 
137 2; 138 1; 139 3; 151 1; 160 1; 
166 1; 168 1; 194 4; 208 1; 235 2; 
