Name: Oxandrolone
Synon: 17.alpha.-methyl-17.beta.-hydroxy-2-oxa-[5.alpha.]-androstan-3-one
Synon: Oxandrin
Synon: Anavar
InChIKey: QSLJIVKCVHQPLV-UHFFFAOYSA-N
Formula: C19H30O3
MW: 306
ExactMass: 306.219496
CASNO: 53394
ID: 4221
Comment: DEA SWL / SWGDRUG Monograph available
Num Peaks: 223
40 30; 41 417; 42 76; 43 851; 44 30; 
45 38; 50 3; 51 23; 52 23; 53 202; 
54 38; 55 369; 56 19; 57 148; 58 272; 
59 54; 60 5; 61 6; 63 8; 64 4; 
65 117; 66 42; 67 493; 68 177; 69 182; 
70 29; 71 999; 72 178; 73 19; 74 9; 
75 4; 76 3; 77 288; 78 65; 79 586; 
80 113; 81 499; 82 80; 83 112; 84 16; 
85 59; 86 6; 87 4; 88 6; 89 12; 
91 531; 92 99; 93 556; 94 130; 95 392; 
96 52; 97 98; 98 19; 99 9; 100 2; 
101 6; 102 12; 103 42; 104 22; 105 375; 
106 122; 107 475; 108 185; 109 228; 110 35; 
111 61; 112 4; 113 25; 114 2; 115 48; 
116 23; 117 88; 118 40; 119 288; 120 161; 
121 348; 122 232; 123 295; 124 30; 125 54; 
126 26; 127 21; 128 36; 129 34; 130 15; 
131 93; 132 38; 133 196; 134 97; 135 192; 
136 39; 137 89; 138 14; 139 66; 140 12; 
141 16; 142 8; 143 31; 144 11; 145 111; 
146 42; 147 207; 148 55; 149 77; 150 31; 
151 18; 152 16; 153 87; 154 12; 155 12; 
156 4; 157 27; 158 15; 159 101; 160 41; 
161 176; 162 155; 163 130; 164 62; 165 28; 
166 7; 167 21; 168 2; 169 7; 170 3; 
171 48; 172 22; 173 92; 174 71; 175 168; 
176 305; 177 82; 178 36; 179 38; 180 14; 
181 51; 182 10; 183 6; 184 2; 185 20; 
186 13; 187 46; 188 40; 189 141; 190 23; 
191 30; 192 13; 193 25; 194 11; 195 3; 
197 7; 198 2; 199 13; 200 3; 201 25; 
202 14; 203 26; 204 13; 205 14; 206 38; 
207 37; 208 9; 209 3; 211 10; 212 2; 
213 31; 214 10; 215 23; 216 18; 217 30; 
218 20; 219 49; 220 30; 221 34; 222 7; 
223 2; 227 10; 228 9; 229 25; 230 10; 
231 53; 232 65; 233 177; 234 41; 235 51; 
236 52; 237 17; 239 3; 243 3; 244 3; 
245 9; 246 186; 247 39; 248 304; 249 273; 
250 36; 251 4; 253 2; 255 7; 257 1; 
259 34; 260 8; 262 2; 263 1; 267 4; 
269 2; 273 167; 274 38; 275 6; 276 1; 
277 2; 278 2; 281 4; 282 2; 287 3; 
288 89; 289 20; 291 380; 292 67; 293 8; 
295 1; 306 17; 307 5; 
