Name: 25I-NB4OMe
InChIKey: NWOROGLTELSWAZ-UHFFFAOYSA-N
Synon: 2-(4-Iodo-2,5-dimethoxyphenyl)-N-(4-methoxybenzyl)ethan-1-amine
Synon: 2C-I-NB4OMe
Formula: C18H22INO3
MW: 427
ExactMass: 427.064442
CASNO: 0
ID: 4222
Comment: Provided by www.caymanchem.com/app/template/landing%2CForensic.vm / Item #14785  Lot #0450151 / SWGDRUG Monograph available
Num Peaks: 98
41 2; 42 1; 43 1; 50 3; 51 10; 
52 5; 53 7; 54 1; 55 1; 62 2; 
63 11; 64 9; 65 15; 66 2; 67 3; 
73 1; 74 2; 75 4; 76 7; 77 70; 
78 56; 79 15; 80 2; 81 1; 89 23; 
90 29; 91 51; 92 14; 93 5; 94 2; 
102 1; 103 3; 104 7; 105 25; 106 16; 
107 12; 108 4; 109 1; 115 1; 116 1; 
117 4; 118 5; 119 10; 121 999; 122 90; 
123 7; 127 12; 128 16; 132 3; 133 7; 
134 11; 135 11; 136 6; 137 1; 146 1; 
148 56; 150 209; 151 24; 152 2; 162 1; 
163 4; 164 4; 165 2; 177 1; 179 1; 
191 3; 205 1; 206 1; 207 4; 208 1; 
209 1; 217 1; 219 2; 220 1; 232 9; 
233 2; 234 4; 247 24; 248 2; 249 1; 
253 1; 260 1; 261 4; 262 2; 263 3; 
268 1; 275 3; 276 6; 277 22; 278 59; 
279 5; 281 1; 282 1; 290 2; 291 2; 
394 18; 395 3; 396 1; 
