Name: 25C-NB3OMe
InChIKey: CSLNJUOCJZCEIR-UHFFFAOYSA-N
Synon: 2C-C-NB3OMe
Synon: 2-(4-chloro-2,5-dimethoxyphenyl)-N-(3-methoxybenzyl)ethanamine
Formula: C18H22ClNO3
MW: 335
ExactMass: 335.12882
CASNO: 0
ID: 4224
Comment: DEA SFL1 Lot # N17-P72C / SWGDRUG Monograph available
Num Peaks: 117
30 1; 38 1; 39 10; 40 1; 41 4; 
42 5; 43 3; 50 4; 51 16; 52 10; 
53 10; 54 1; 55 2; 62 2; 63 13; 
64 6; 65 36; 66 4; 67 4; 73 2; 
74 1; 75 7; 76 4; 77 75; 78 64; 
79 15; 80 2; 81 1; 85 1; 87 1; 
88 1; 89 24; 90 16; 91 122; 92 17; 
93 5; 94 2; 95 1; 99 13; 100 1; 
101 5; 102 2; 103 3; 104 5; 105 23; 
106 18; 107 9; 108 3; 109 1; 111 3; 
112 11; 113 6; 114 4; 115 2; 116 1; 
117 4; 118 6; 119 7; 120 7; 121 999; 
122 97; 123 7; 124 1; 125 15; 126 3; 
127 10; 128 2; 129 2; 130 1; 132 2; 
133 4; 134 8; 135 5; 136 3; 139 1; 
140 5; 141 3; 142 11; 143 3; 144 3; 
145 1; 147 3; 148 16; 149 6; 150 535; 
151 57; 152 5; 153 1; 154 2; 155 28; 
156 3; 157 11; 158 1; 159 1; 162 1; 
163 1; 164 2; 165 1; 168 2; 169 8; 
170 3; 171 10; 172 1; 173 2; 182 3; 
183 3; 184 7; 185 24; 186 73; 187 15; 
188 23; 189 2; 198 1; 199 3; 201 1; 
303 1; 304 1; 
