Name: MT-45
Synon: IC 6
Synon: 1-cyclohexyl-4-(1,2-diphenylethyl)-piperazine
InChIKey: IGBRRSIHEGCUEN-UHFFFAOYSA-N
Formula: C24H32N2
MW: 348
ExactMass: 348.25655
CASNO: 52694550
ID: 4225
Comment: ENFSI / Verified with GC-MS, FTIR, LC-MS and NMR / SWGDRUG Monograph available
Num Peaks: 137
29 7; 30 5; 39 11; 40 1; 41 64; 
42 37; 43 10; 44 13; 50 2; 51 10; 
52 2; 53 11; 54 25; 55 165; 56 148; 
57 14; 58 28; 59 1; 63 4; 64 1; 
65 27; 66 2; 67 11; 68 22; 69 7; 
70 15; 71 6; 72 1; 74 1; 75 1; 
76 3; 77 49; 78 10; 79 14; 80 5; 
81 13; 82 27; 83 45; 84 15; 85 37; 
86 2; 87 1; 89 11; 90 8; 91 261; 
92 21; 93 2; 94 11; 95 3; 96 13; 
97 7; 98 6; 99 1; 100 6; 101 2; 
102 8; 103 83; 104 32; 105 29; 106 7; 
107 87; 109 3; 110 14; 111 13; 112 10; 
113 1; 114 1; 115 10; 116 3; 117 20; 
118 22; 119 3; 120 9; 121 1; 122 4; 
123 14; 124 32; 125 7; 126 6; 127 2; 
128 4; 129 5; 130 14; 131 7; 132 17; 
133 2; 134 4; 136 2; 137 1; 138 32; 
139 4; 140 1; 141 4; 143 1; 144 8; 
145 3; 146 28; 147 3; 150 1; 151 5; 
152 10; 153 7; 154 1; 158 2; 159 1; 
160 2; 163 1; 164 2; 165 58; 166 66; 
167 28; 168 3; 171 2; 172 1; 173 36; 
174 7; 175 26; 176 6; 177 3; 178 25; 
179 24; 180 8; 181 42; 182 6; 200 3; 
201 5; 208 5; 209 3; 222 1; 229 4; 
255 8; 257 999; 258 200; 259 18; 271 1; 
347 1; 348 1; 
