Name: Methedrone
Synon: 4-Methoxymethcathinone
Synon: p-Methoxymethcathinone
Synon: bk-PMMA
Synon: PMMC
Synon: Methoxyphedrine
Synon: 4-methedrone
Synon: 1-(4-methoxyphenyl)-2-(methylamino)-1-propanone
Synon: 4-Methoxy-N-methylcathinone
InChIKey: MQUIHBQDYYAEMH-UHFFFAOYSA-N
Formula: C11H15NO2
MW: 193
ExactMass: 193.110279
CASNO: 530541
ID: 4226
Comment: DEA NCL (contributed by TAD) / SWGDRUG Monograph available
Num Peaks: 68
37 1; 38 6; 39 6; 40 1; 41 7; 
42 31; 43 17; 44 1; 50 15; 51 12; 
52 2; 53 5; 54 2; 55 5; 56 54; 
57 18; 58 999; 59 36; 61 1; 62 7; 
63 41; 64 52; 65 12; 66 4; 74 7; 
75 6; 76 16; 77 88; 78 13; 79 6; 
80 1; 89 2; 90 1; 91 7; 92 87; 
93 7; 94 2; 102 1; 103 3; 104 3; 
105 3; 106 2; 107 25; 108 6; 109 1; 
117 1; 118 1; 119 1; 120 2; 121 9; 
122 1; 131 1; 132 1; 133 2; 134 2; 
135 78; 136 7; 137 1; 147 1; 148 1; 
150 2; 160 1; 162 3; 163 2; 164 1; 
178 3; 193 1; 194 1; 
