Name: Methandriol
Synon: 17-.alpha.-Methyl-5-androstene-3-.beta.,17-.beta.-diol
Synon: Methylandrostenediol
InChIKey: WRWBCPJQPDHXTJ-UHFFFAOYSA-N
Formula: C20H32O2
MW: 304
ExactMass: 304.24023
CASNO: 521108
ID: 4227
Comment: DEA SWL / SWGDRUG Monograph available
Num Peaks: 192
41 369; 43 753; 44 44; 45 38; 50 3; 
51 24; 52 13; 53 167; 55 379; 56 31; 
57 303; 58 107; 59 38; 63 10; 65 107; 
66 47; 67 345; 68 51; 69 112; 71 234; 
72 32; 73 7; 77 341; 78 99; 79 556; 
80 87; 81 362; 82 46; 83 76; 84 16; 
85 50; 86 8; 87 4; 89 8; 91 775; 
92 150; 93 414; 94 109; 95 246; 96 40; 
97 58; 98 9; 99 7; 100 4; 102 13; 
103 91; 105 726; 106 167; 107 432; 108 108; 
109 131; 110 33; 111 26; 112 6; 113 6; 
115 146; 116 79; 117 305; 118 124; 119 495; 
120 239; 121 207; 122 66; 123 66; 124 32; 
125 26; 126 9; 127 38; 128 152; 129 216; 
130 94; 131 327; 132 103; 133 299; 134 111; 
135 211; 136 41; 137 26; 138 13; 139 9; 
141 77; 142 82; 143 314; 144 125; 145 484; 
146 126; 147 201; 148 70; 149 53; 150 18; 
151 20; 152 21; 153 24; 154 17; 155 69; 
156 101; 157 234; 158 196; 159 343; 160 162; 
161 219; 162 54; 163 46; 164 15; 165 25; 
166 10; 167 16; 168 12; 169 88; 170 42; 
171 241; 172 107; 173 277; 174 112; 175 161; 
176 53; 177 30; 178 22; 179 18; 180 5; 
181 12; 182 8; 183 72; 184 31; 185 139; 
186 112; 187 148; 188 46; 189 40; 190 19; 
191 12; 192 10; 193 21; 194 4; 195 10; 
197 204; 198 65; 199 118; 200 54; 201 105; 
202 31; 203 22; 204 10; 205 4; 207 6; 
209 4; 211 185; 213 784; 214 146; 215 258; 
216 61; 217 27; 218 11; 219 12; 225 34; 
226 80; 227 222; 228 261; 229 199; 230 55; 
231 237; 232 59; 233 19; 238 3; 239 20; 
240 13; 241 6; 242 10; 243 22; 244 45; 
245 43; 246 128; 247 24; 248 4; 253 999; 
254 216; 255 23; 257 12; 258 6; 261 4; 
268 104; 269 25; 271 446; 272 93; 273 14; 
286 227; 287 56; 289 74; 290 16; 304 254; 
305 52; 306 5; 
