Name: 4-Hydroxy-MIPT
Synon: 4-Hydroxy-N-methyl-N-isopropyltryptamine
Synon: 4-HO-MIPT
InChIKey: RXKGHZCQFXXWFQ-UHFFFAOYSA-N
Formula: C14H20N2O
MW: 232
ExactMass: 232.157563
CASNO: 77872436
ID: 4230
Comment: Provided by www.caymanchem.com/app/template/landing%2CForensic.vm / Item #11552  Lot #0438458 / SWGDRUG Monograph available
Num Peaks: 99
40 2; 41 27; 42 32; 43 43; 44 351; 
45 9; 50 3; 51 8; 52 4; 53 3; 
54 2; 55 3; 56 23; 57 3; 58 11; 
62 3; 63 14; 64 6; 65 17; 66 2; 
67 1; 68 1; 70 14; 71 11; 72 9; 
73 3; 74 3; 75 4; 76 6; 77 19; 
78 9; 79 2; 80 1; 84 4; 86 999; 
87 62; 88 4; 89 25; 90 17; 91 25; 
92 5; 93 1; 95 2; 100 1; 101 5; 
102 8; 103 11; 104 9; 105 4; 106 1; 
109 7; 113 3; 114 4; 115 29; 116 14; 
117 50; 118 38; 119 4; 120 1; 127 1; 
128 8; 130 36; 131 13; 132 5; 133 5; 
134 1; 140 3; 141 2; 142 2; 143 2; 
144 4; 145 12; 146 126; 147 19; 148 5; 
155 1; 156 2; 157 4; 158 10; 159 33; 
160 47; 161 5; 171 1; 172 1; 173 1; 
174 2; 185 1; 187 1; 188 2; 189 3; 
199 1; 201 1; 207 1; 215 2; 217 1; 
230 1; 232 251; 233 42; 234 3; 
