Name: 4-Hydroxy-N,N-diisopropyltryptamine
Synon: 4-HO-DIPT
Synon: TIHKAL #17
Synon: 4-Hydroxy-DIPT
Synon: 4-OH-DIPT
InChIKey: KBRYKXCBGISXQV-UHFFFAOYSA-N
Formula: C16H24N2O
MW: 260
ExactMass: 260.188864
CASNO: 0
ID: 4231
Comment: DEA SWL / SWGDRUG Monograph available
Num Peaks: 89
40 1; 41 32; 42 13; 43 50; 44 7; 
50 1; 51 5; 52 2; 53 1; 54 2; 
55 3; 56 30; 57 6; 58 5; 62 1; 
63 7; 64 3; 65 12; 66 1; 68 1; 
70 16; 71 4; 72 196; 73 10; 74 1; 
75 2; 76 3; 77 11; 78 6; 79 2; 
80 1; 84 3; 86 6; 87 1; 88 1; 
89 15; 90 11; 91 19; 92 3; 93 1; 
98 3; 99 1; 100 4; 101 4; 102 7; 
103 8; 104 6; 105 3; 112 2; 113 4; 
114 999; 115 101; 116 11; 117 33; 118 30; 
119 3; 123 5; 128 5; 129 3; 130 30; 
131 9; 132 4; 133 6; 134 1; 140 2; 
141 1; 142 2; 143 1; 144 2; 145 6; 
146 115; 147 24; 148 3; 156 1; 157 3; 
158 8; 159 26; 160 37; 161 4; 172 1; 
173 1; 174 4; 175 1; 202 1; 216 1; 
217 1; 243 1; 260 45; 261 8; 
