Name: Flurazepam
Synon: Dalmane
InChIKey: SAADBVWGJQAEFS-UHFFFAOYSA-N
Formula: C21H23ClFN3O
MW: 387
ExactMass: 387.15137
CASNO: 1172185
ID: 4233
Comment: DEA SWL / SWGDRUG Monograph available
Num Peaks: 136
41 2; 42 17; 43 5; 44 9; 51 1; 
54 2; 55 1; 56 22; 57 7; 58 54; 
59 2; 63 2; 70 7; 71 9; 72 3; 
73 1; 74 1; 75 5; 76 1; 77 1; 
81 1; 83 2; 84 15; 86 999; 87 59; 
88 2; 89 7; 90 2; 91 1; 94 1; 
95 2; 96 1; 97 2; 98 2; 99 61; 
100 7; 101 1; 102 4; 103 1; 107 3; 
108 1; 109 10; 110 2; 111 3; 112 1; 
113 1; 114 1; 115 1; 116 1; 117 5; 
118 1; 121 1; 122 1; 123 2; 124 1; 
125 4; 126 1; 127 1; 130 1; 131 1; 
133 1; 134 3; 135 2; 136 2; 137 1; 
138 2; 139 1; 141 1; 144 1; 149 1; 
150 3; 151 3; 152 3; 153 1; 154 1; 
157 2; 158 1; 162 1; 163 5; 164 2; 
165 1; 166 2; 168 2; 169 2; 170 2; 
172 1; 176 1; 177 3; 178 1; 179 1; 
180 1; 181 5; 182 5; 183 18; 184 4; 
190 2; 191 1; 195 2; 196 1; 197 1; 
208 3; 209 2; 210 3; 211 7; 212 1; 
217 2; 218 1; 219 1; 222 1; 223 2; 
224 1; 236 1; 237 1; 244 1; 245 7; 
246 2; 247 2; 253 2; 255 1; 257 1; 
258 1; 259 2; 260 1; 271 2; 272 1; 
273 5; 274 1; 275 1; 285 1; 287 1; 
315 6; 316 1; 317 2; 387 11; 388 2; 
389 4; 
