Name: Fluoxymesterone
Synon: 9.alpha.-Fluoro-11.beta.,17.beta.-dihydroxy-17.alpha.-methyl-4-androstene-3-one
InChIKey: YLRFCQOZQXIBAB-UHFFFAOYSA-N
Formula: C20H29FO3
MW: 336
ExactMass: 336.210073
CASNO: 76437
ID: 4234
Comment: DEA SWL / SWGDRUG Monograph available
Num Peaks: 254
40 36; 41 346; 43 999; 44 43; 45 40; 
47 17; 49 8; 50 6; 51 39; 52 20; 
53 184; 54 28; 55 358; 56 20; 57 173; 
58 148; 59 85; 60 6; 61 9; 63 18; 
65 130; 66 60; 67 280; 68 58; 69 161; 
71 685; 72 117; 73 50; 74 7; 75 17; 
77 367; 78 87; 79 482; 80 73; 81 165; 
82 35; 83 101; 84 21; 85 83; 86 14; 
87 15; 88 25; 89 16; 91 466; 92 83; 
93 260; 94 102; 95 268; 96 90; 97 151; 
98 25; 99 50; 100 10; 101 34; 102 17; 
103 80; 104 25; 105 304; 106 92; 107 305; 
108 123; 109 460; 110 96; 111 120; 112 55; 
113 50; 115 161; 116 56; 117 144; 118 53; 
119 187; 120 73; 121 284; 122 242; 123 480; 
124 291; 125 135; 126 29; 127 58; 128 121; 
129 151; 130 55; 131 173; 132 55; 133 210; 
134 78; 135 188; 136 106; 137 269; 138 89; 
139 73; 140 15; 141 84; 142 81; 143 137; 
144 81; 145 144; 146 86; 147 169; 148 127; 
149 133; 150 43; 151 86; 152 72; 153 76; 
154 42; 155 94; 156 44; 157 136; 158 61; 
159 127; 160 91; 161 185; 162 149; 163 125; 
164 53; 165 87; 166 44; 167 45; 168 30; 
169 79; 170 30; 171 92; 172 62; 173 132; 
174 47; 175 246; 176 85; 177 110; 178 46; 
179 51; 180 33; 181 115; 182 44; 183 116; 
184 58; 185 136; 186 94; 187 96; 188 50; 
189 69; 190 39; 191 74; 192 63; 193 52; 
194 31; 195 79; 196 53; 197 159; 198 159; 
199 134; 200 60; 201 71; 202 33; 203 64; 
204 60; 205 49; 206 117; 207 71; 208 23; 
209 73; 210 39; 211 65; 212 72; 213 126; 
214 64; 215 54; 216 47; 217 57; 218 19; 
219 28; 220 11; 221 33; 222 34; 223 89; 
224 33; 225 159; 226 41; 227 153; 228 72; 
229 49; 230 27; 231 35; 232 17; 233 43; 
234 17; 235 13; 236 9; 237 67; 238 64; 
239 34; 240 97; 241 62; 242 26; 243 68; 
244 43; 245 80; 246 25; 247 61; 248 12; 
249 6; 251 82; 252 52; 253 13; 254 25; 
255 60; 256 92; 257 52; 258 27; 259 35; 
260 40; 261 23; 262 18; 263 65; 265 150; 
266 89; 267 22; 268 5; 269 14; 270 24; 
271 11; 272 22; 273 48; 274 111; 275 27; 
276 8; 279 279; 280 90; 281 21; 283 95; 
284 24; 285 41; 286 8; 287 7; 288 15; 
289 7; 293 5; 298 138; 299 30; 300 21; 
301 17; 302 5; 303 24; 304 5; 316 108; 
317 27; 318 105; 319 30; 320 5; 321 13; 
322 4; 336 344; 337 72; 338 9; 
