Name: 5-Fluoro-THJ
Synon: 1-(5-Fluoropentyl)-N-(quinolin-8-yl)-1H-indazole-3-carboxamide
Synon: 5F-THJ
InChIKey: GMRIDDSOZRLMAN-UHFFFAOYSA-N
Formula: C22H21FN4O
MW: 376
ExactMass: 376.169939
CASNO: 0
ID: 4235
Comment: Provided by www.caymanchem.com/app/template/landing%2CForensic.vm / Item #14890  Lot #0451504 / SWGDRUG Monograph available
Num Peaks: 218
41 109; 42 8; 43 30; 44 2; 45 2; 
47 20; 48 1; 50 5; 51 15; 52 5; 
53 8; 54 2; 55 11; 57 1; 59 13; 
60 2; 61 8; 62 12; 63 29; 64 12; 
65 13; 66 3; 67 10; 69 95; 70 5; 
73 8; 74 5; 75 26; 76 36; 77 61; 
78 8; 79 4; 85 1; 86 2; 87 8; 
88 49; 89 115; 90 168; 91 21; 92 5; 
93 1; 96 5; 98 1; 99 1; 100 3; 
101 43; 102 90; 103 170; 104 36; 105 3; 
106 1; 112 1; 114 20; 115 46; 116 224; 
117 108; 118 16; 119 2; 120 1; 121 4; 
123 2; 125 1; 127 9; 128 52; 129 86; 
130 35; 131 55; 132 10; 133 5; 134 1; 
135 7; 137 15; 142 77; 143 132; 144 154; 
145 799; 146 76; 147 10; 148 2; 150 87; 
152 2; 153 2; 154 4; 155 17; 156 11; 
157 14; 158 9; 159 5; 160 2; 161 1; 
162 1; 163 2; 164 1; 165 3; 167 2; 
168 1; 169 5; 171 335; 172 42; 173 3; 
174 1; 175 1; 177 107; 178 13; 179 2; 
181 2; 182 1; 183 1; 185 16; 186 3; 
187 1; 188 3; 189 4; 191 6; 192 1; 
193 7; 194 1; 195 2; 196 1; 197 2; 
198 1; 199 2; 201 1; 202 3; 203 5; 
204 3; 205 12; 207 97; 208 20; 209 10; 
210 1; 211 2; 213 133; 214 20; 215 7; 
216 3; 217 3; 219 1; 220 1; 221 1; 
227 1; 229 20; 230 26; 231 46; 233 999; 
234 146; 235 12; 239 1; 241 2; 242 1; 
243 2; 244 3; 245 1; 247 1; 251 1; 
253 21; 254 5; 255 2; 256 2; 257 1; 
258 8; 259 8; 260 2; 261 1; 265 2; 
267 3; 268 1; 269 6; 270 1; 271 2; 
273 29; 274 5; 281 9; 282 3; 283 2; 
284 2; 285 4; 287 39; 288 9; 289 1; 
297 1; 299 2; 301 51; 302 14; 303 1; 
312 1; 315 5; 316 2; 317 1; 327 3; 
328 1; 329 2; 330 2; 331 8; 332 2; 
334 3; 336 1; 341 4; 343 4; 344 2; 
345 1; 346 3; 348 69; 349 18; 350 2; 
355 3; 356 5; 357 2; 358 3; 359 4; 
360 4; 361 1; 371 1; 372 1; 376 741; 
377 189; 378 19; 379 3; 
