Name: 5-Fluoro-SDB-005
Synon: Naphthalen-1-yl-1-(5-fluoropentyl)-1H-indazole-3-carboxylate
Synon: 5F-SDB-005
InChIKey: FNMFGMMHNFDPNT-UHFFFAOYSA-N
Formula: C23H21FN2O2
MW: 376
ExactMass: 376.158707
CASNO: 0
ID: 4238
Comment: Provided by www.caymanchem.com/app/template/landing%2CForensic.vm / Item #15353  Lot #0454996 / SWGDRUG Monograph available
Num Peaks: 149
40 3; 41 44; 42 4; 43 9; 44 1; 
47 12; 50 4; 51 12; 52 1; 53 5; 
55 9; 57 1; 59 8; 60 1; 61 4; 
62 10; 63 21; 64 8; 65 15; 66 1; 
67 9; 69 43; 70 2; 72 2; 73 6; 
74 10; 75 17; 76 23; 77 17; 78 6; 
84 1; 85 1; 86 1; 87 8; 88 43; 
89 73; 90 82; 91 7; 97 1; 98 2; 
99 2; 100 1; 101 7; 102 39; 103 115; 
104 17; 105 1; 107 1; 108 1; 113 11; 
115 309; 116 51; 117 39; 118 10; 119 2; 
121 2; 126 6; 127 27; 128 27; 129 36; 
130 28; 131 26; 132 3; 133 3; 134 2; 
135 3; 136 1; 143 80; 144 68; 145 436; 
146 45; 147 6; 148 1; 150 1; 151 1; 
152 2; 155 6; 156 2; 157 5; 158 5; 
159 6; 160 1; 161 1; 162 1; 166 1; 
167 2; 169 2; 170 2; 171 17; 175 2; 
177 54; 178 7; 179 1; 182 1; 185 9; 
191 6; 193 1; 196 1; 197 1; 199 3; 
200 1; 201 1; 202 7; 203 3; 204 2; 
207 19; 208 7; 210 2; 211 1; 213 116; 
214 20; 215 10; 217 1; 221 1; 228 1; 
229 3; 230 1; 231 6; 233 999; 234 151; 
236 1; 237 1; 242 1; 243 2; 251 2; 
253 3; 255 1; 256 1; 260 1; 265 2; 
267 1; 268 1; 269 1; 281 3; 282 2; 
284 1; 298 1; 301 2; 302 1; 303 1; 
311 1; 325 1; 327 2; 331 1; 346 2; 
355 2; 356 4; 376 45; 377 15; 
