Name: 5-Fluoro-NPB-22
Synon: 1-(5-Fluoropentyl)-8-quinolinyl ester-1H-indazole-3-carboxylic acid
Synon: 5F-NPB-22
InChIKey: DZNDVBLSHUYZLI-UHFFFAOYSA-N
Formula: C22H20FN3O2
MW: 377
ExactMass: 377.153955
CASNO: 1445579792
ID: 4240
Comment: Provided by www.caymanchem.com/app/template/landing%2CForensic.vm / Item #15536  Lot 0456474 / SWGDRUG Monograph available
Num Peaks: 169
40 4; 41 54; 42 3; 43 18; 44 1; 
45 2; 46 1; 47 13; 49 1; 50 5; 
51 8; 52 4; 53 5; 54 1; 55 6; 
56 1; 59 8; 61 5; 62 16; 63 36; 
64 9; 65 8; 66 3; 67 5; 69 56; 
70 3; 71 1; 73 10; 74 3; 75 17; 
76 22; 77 23; 78 6; 79 1; 82 1; 
85 1; 86 3; 87 10; 88 54; 89 149; 
90 119; 91 12; 100 1; 101 14; 102 56; 
103 106; 104 19; 105 2; 114 8; 116 214; 
117 108; 118 11; 119 3; 121 2; 123 1; 
124 1; 125 1; 126 1; 127 2; 128 25; 
129 53; 130 26; 131 25; 132 3; 133 1; 
135 7; 137 4; 142 4; 143 11; 145 556; 
146 58; 147 7; 148 1; 149 1; 151 1; 
152 3; 155 2; 156 3; 157 8; 158 7; 
159 7; 160 1; 161 1; 163 1; 164 1; 
165 2; 168 1; 169 2; 171 13; 172 4; 
173 1; 175 1; 177 71; 178 9; 179 2; 
183 2; 185 9; 186 1; 187 1; 188 2; 
189 2; 191 2; 192 2; 193 1; 195 3; 
198 1; 199 2; 200 1; 202 1; 203 6; 
204 3; 205 2; 207 7; 209 2; 210 2; 
211 1; 213 111; 214 16; 215 6; 216 1; 
221 2; 224 1; 225 1; 229 1; 231 11; 
233 999; 234 151; 235 13; 236 1; 243 2; 
244 2; 245 2; 246 1; 249 1; 253 4; 
254 2; 256 1; 257 1; 260 14; 261 4; 
265 1; 266 1; 267 2; 268 1; 269 2; 
274 2; 281 5; 282 2; 283 2; 288 1; 
295 1; 302 1; 307 1; 313 1; 315 1; 
327 2; 328 1; 331 3; 332 2; 333 2; 
342 1; 346 1; 349 3; 355 1; 357 2; 
358 1; 377 113; 378 26; 379 4; 
