Name: 5-Fluoro-ABICA
Synon: (S)-N-(1-amino-3-methyl-1-oxobutan-2-yl)-1-(5-fluoropentyl)-1H-indole-3-carboxamide
Synon: 5F-ABICA
InChIKey: GQYZBLMAONPUNX-QGZVFWFLSA-N
Formula: C19H26FN3O2
MW: 347
ExactMass: 347.200905
CASNO: 0
ID: 4243
Comment: Provided by www.caymanchem.com/app/template/landing%2CForensic.vm / Item #9001555  Lot #0456711 / SWGDRUG Monograph available
Num Peaks: 129
41 44; 42 6; 43 28; 44 40; 45 3; 
47 6; 50 1; 51 1; 52 1; 53 3; 
55 19; 56 8; 57 2; 59 3; 61 2; 
62 2; 63 4; 64 1; 65 1; 67 2; 
68 1; 69 11; 70 3; 71 1; 72 3; 
73 3; 74 1; 75 4; 76 4; 77 7; 
78 2; 83 1; 86 1; 87 3; 88 6; 
89 21; 90 3; 91 2; 98 1; 99 1; 
100 1; 101 9; 102 26; 103 12; 104 1; 
114 11; 115 36; 116 62; 117 9; 118 4; 
127 3; 128 25; 129 46; 130 36; 131 6; 
132 1; 140 1; 141 2; 142 7; 143 53; 
144 187; 145 21; 146 2; 152 3; 153 1; 
154 6; 155 8; 156 10; 157 12; 158 8; 
159 1; 167 3; 168 3; 169 2; 170 14; 
171 5; 173 28; 174 7; 176 2; 181 1; 
182 2; 183 2; 184 7; 185 3; 186 1; 
194 1; 196 1; 198 3; 199 1; 200 1; 
204 4; 205 3; 206 2; 207 1; 209 1; 
210 1; 212 15; 213 3; 214 3; 215 1; 
227 5; 228 2; 229 2; 230 14; 232 999; 
233 149; 234 13; 246 1; 248 81; 249 13; 
250 1; 253 1; 271 1; 272 2; 286 4; 
287 11; 288 5; 289 1; 303 26; 304 6; 
305 2; 315 3; 327 1; 329 2; 330 6; 
331 1; 347 35; 348 7; 349 1; 
