Name: EG-018
Synon: Naphthalen-1-yl(9-Pentyl-9H-carbazol-3-yl)methanone
InChIKey: FJMMDJDPNLZYLA-UHFFFAOYSA-N
Formula: C28H25NO
MW: 391
ExactMass: 391.193615
CASNO: 0
ID: 4244
Comment: Provided by www.caymanchem.com/app/template/landing%2CForensic.vm / Item #15533  Lot #0455794 / SWGDRUG Monograph available
Num Peaks: 203
41 41; 42 6; 43 62; 44 2; 50 1; 
51 3; 52 1; 53 3; 55 8; 62 2; 
63 6; 65 1; 67 1; 69 2; 70 1; 
71 1; 73 6; 74 5; 75 12; 76 11; 
77 34; 78 4; 86 3; 87 4; 88 2; 
89 3; 90 2; 91 1; 96 1; 98 2; 
99 3; 100 3; 101 20; 102 7; 103 1; 
104 1; 108 1; 112 1; 113 6; 114 3; 
115 5; 116 2; 117 1; 119 1; 120 1; 
124 1; 125 12; 126 79; 127 561; 128 76; 
129 6; 131 1; 132 5; 133 2; 135 1; 
138 33; 139 50; 140 20; 141 7; 142 1; 
145 4; 146 15; 147 2; 150 24; 151 90; 
152 99; 153 75; 155 195; 156 25; 157 3; 
159 5; 161 19; 162 1; 164 49; 165 51; 
167 95; 172 1; 174 1; 175 1; 176 8; 
178 245; 179 402; 180 75; 181 6; 182 1; 
187 2; 188 2; 189 2; 190 11; 191 24; 
192 16; 193 20; 194 25; 196 62; 200 2; 
201 2; 202 4; 203 7; 204 10; 205 4; 
206 7; 207 10; 208 6; 209 1; 210 1; 
211 1; 213 2; 214 1; 215 1; 216 1; 
218 2; 220 6; 221 2; 223 1; 224 1; 
225 1; 226 1; 228 1; 234 3; 235 2; 
236 4; 237 3; 238 2; 239 2; 248 1; 
249 2; 250 1; 251 2; 252 3; 253 7; 
254 1; 259 1; 261 3; 262 5; 264 154; 
265 35; 266 6; 267 2; 272 1; 274 5; 
275 4; 276 13; 277 7; 278 4; 279 1; 
281 4; 282 1; 283 1; 286 1; 288 12; 
289 13; 290 34; 291 56; 292 19; 293 3; 
294 1; 299 1; 301 5; 302 10; 303 13; 
304 44; 305 15; 306 15; 307 5; 314 2; 
315 6; 316 14; 317 12; 318 10; 319 30; 
320 94; 321 25; 322 4; 323 1; 324 1; 
325 1; 327 1; 328 1; 329 1; 330 3; 
332 23; 334 999; 335 261; 336 33; 341 2; 
342 1; 343 2; 346 2; 347 1; 348 1; 
355 1; 360 1; 362 2; 374 49; 375 14; 
376 3; 377 2; 378 1; 387 1; 391 599; 
392 181; 393 26; 394 3; 
