Name: Brephedrone
Synon: 4-Bromomethcathinone
Synon: 4-BMC
InChIKey: OOJXMFNDUXHDOV-UHFFFAOYSA-N
Formula: C10H12BrNO
MW: 241
ExactMass: 241.010226
CASNO: 486459034
ID: 4246
Comment: ENFSI / FCL Finland; confirmed by LC-MS and NMR / SWGDRUG Monograph available
Num Peaks: 81
37 1; 39 1; 40 1; 41 10; 42 31; 
43 21; 49 1; 50 51; 51 6; 52 1; 
53 1; 54 4; 55 7; 56 152; 57 23; 
58 999; 59 38; 61 1; 62 1; 63 3; 
64 1; 65 2; 67 1; 72 1; 73 1; 
74 56; 75 83; 76 66; 77 18; 78 3; 
79 1; 81 1; 87 1; 88 1; 89 7; 
90 1; 93 1; 101 1; 102 1; 103 1; 
104 13; 107 1; 113 1; 118 3; 119 1; 
129 2; 130 1; 131 12; 132 1; 142 1; 
144 1; 147 5; 154 1; 155 85; 156 6; 
157 65; 158 1; 161 1; 166 1; 168 1; 
169 3; 170 1; 183 57; 185 49; 186 1; 
196 1; 198 3; 207 3; 210 1; 212 2; 
214 2; 215 1; 221 1; 225 1; 226 1; 
229 1; 231 1; 238 1; 239 1; 240 1; 
241 1; 
