Name: Boldenone Undecylenate
Synon: Dehydrotestosterone undecylenate
InChIKey: AHMMSNQYOPMLSX-UHFFFAOYSA-N
Formula: C30H44O3
MW: 452
ExactMass: 452.329044
CASNO: 13103349
ID: 4248
Comment: DEA SWL / SWGDRUG Monograph available
Num Peaks: 170
40 3; 41 92; 42 23; 43 35; 44 1; 
45 2; 51 2; 52 1; 53 13; 54 14; 
55 173; 56 15; 57 14; 58 1; 59 1; 
60 3; 63 1; 65 8; 66 4; 67 67; 
68 13; 69 58; 70 6; 71 7; 73 4; 
77 39; 78 9; 79 54; 80 8; 81 68; 
82 14; 83 46; 84 7; 85 9; 87 1; 
89 1; 91 114; 92 25; 93 73; 94 15; 
95 40; 96 7; 97 21; 98 4; 99 5; 
100 1; 101 1; 102 1; 103 10; 104 6; 
105 69; 106 20; 107 58; 108 54; 109 65; 
110 21; 111 4; 113 1; 114 1; 115 16; 
116 6; 117 30; 118 6; 119 38; 120 15; 
121 241; 122 999; 123 104; 124 12; 125 2; 
127 5; 128 11; 129 16; 130 6; 131 37; 
132 18; 133 82; 134 82; 135 58; 136 19; 
137 5; 138 1; 140 1; 141 7; 142 6; 
143 9; 144 17; 145 43; 146 39; 147 258; 
148 39; 149 29; 150 4; 151 6; 152 2; 
153 2; 154 1; 155 5; 156 2; 157 13; 
158 14; 159 47; 160 46; 161 46; 162 6; 
163 3; 165 8; 166 3; 167 15; 168 2; 
169 3; 170 3; 171 13; 172 11; 173 47; 
174 11; 175 6; 176 1; 178 1; 179 1; 
181 2; 182 1; 183 5; 184 4; 185 10; 
186 7; 187 7; 188 4; 189 1; 193 1; 
195 2; 196 1; 197 6; 198 3; 199 7; 
200 2; 201 1; 211 6; 212 4; 213 6; 
214 2; 223 1; 224 1; 225 9; 226 4; 
227 9; 228 2; 229 1; 235 2; 239 4; 
240 8; 241 3; 250 2; 251 6; 252 1; 
253 15; 254 3; 255 1; 257 1; 267 2; 
268 27; 269 31; 270 4; 271 4; 272 1; 
285 1; 286 20; 287 5; 452 4; 454 1; 
