Name: AMB
Synon: AMP
Synon: Methyl-(1-pentyl-1H-indazole-3-carbonyl)-L-valinate
InChIKey: KTTMFFHXDMTTOB-MRXNPFEDSA-N
Formula: C19H27N3O3
MW: 345
ExactMass: 345.205242
CASNO: 0
ID: 4250
Comment: Provided by www.caymanchem.com/app/template/landing%2CForensic.vm / Item #15488  Lot #0455155 / SWGDRUG Monograph available
Num Peaks: 120
41 50; 42 9; 43 71; 44 4; 45 1; 
50 1; 51 2; 52 1; 53 3; 55 24; 
56 7; 57 2; 59 26; 60 1; 62 3; 
63 3; 64 2; 65 2; 67 2; 68 1; 
69 6; 70 7; 71 15; 72 8; 73 3; 
74 1; 75 4; 76 12; 77 15; 78 2; 
83 2; 84 1; 86 1; 87 3; 88 25; 
89 19; 90 43; 91 6; 92 1; 98 8; 
99 1; 102 22; 103 66; 104 23; 105 3; 
108 1; 114 1; 115 3; 116 6; 117 26; 
118 9; 119 3; 127 1; 128 4; 129 26; 
130 38; 131 94; 132 12; 133 1; 142 2; 
143 8; 145 333; 146 34; 147 3; 155 2; 
156 3; 157 7; 158 13; 159 5; 160 2; 
161 12; 162 1; 169 1; 170 3; 171 13; 
172 5; 174 36; 175 32; 176 3; 185 10; 
187 39; 188 7; 189 1; 198 1; 199 4; 
200 2; 201 2; 202 2; 207 1; 210 1; 
211 1; 213 14; 215 999; 216 147; 217 13; 
228 6; 229 6; 231 63; 232 11; 233 1; 
243 7; 244 1; 256 1; 270 1; 271 6; 
272 2; 284 2; 286 272; 287 54; 288 11; 
289 3; 298 2; 302 6; 303 5; 304 1; 
313 3; 314 3; 345 41; 346 8; 347 1; 
