Name: Metaxalone
Synon: Skelaxin
InChIKey: IMWZZHHPURKASS-UHFFFAOYSA-N
Formula: C12H15NO3
MW: 221
ExactMass: 221.105193
CASNO: 1665481
ID: 4253
Comment: DEA SWL
Num Peaks: 99
40 12; 41 35; 42 84; 43 42; 44 22; 
45 2; 50 17; 51 58; 52 29; 53 55; 
54 20; 55 26; 56 163; 57 19; 58 35; 
59 2; 61 1; 62 8; 63 36; 64 10; 
65 64; 66 10; 67 9; 68 1; 69 2; 
70 7; 71 6; 72 2; 73 1; 74 11; 
75 5; 76 7; 77 278; 78 79; 79 193; 
80 15; 81 3; 82 5; 85 1; 86 37; 
87 2; 88 5; 89 17; 90 5; 91 245; 
92 35; 93 40; 94 137; 95 16; 96 1; 
98 4; 99 6; 100 45; 101 3; 102 12; 
103 94; 104 44; 105 324; 106 53; 107 306; 
108 33; 109 3; 115 3; 116 1; 117 14; 
118 5; 119 29; 120 9; 121 126; 122 999; 
123 367; 124 31; 125 2; 129 2; 130 1; 
131 7; 132 5; 133 12; 134 7; 135 132; 
136 86; 137 9; 138 1; 143 1; 144 1; 
145 21; 146 5; 147 57; 148 12; 149 2; 
159 19; 160 14; 161 2; 162 1; 163 1; 
164 1; 221 243; 222 31; 223 3; 
