Name: FDU-NNEI
Synon: 1-(4-Fluorobenzyl)-N-(naphthalen-1-yl)-1H-indole-3-carboxamide
InChIKey: XYSIFMHZXZATQO-UHFFFAOYSA-N
Formula: C26H19FN2O
MW: 394
ExactMass: 394.148142
CASNO: 0
ID: 4263
Comment: Provided by www.caymanchem.com/app/template/landing%2CForensic.vm / Item #17495  Lot #0467520
Num Peaks: 105
50 1; 51 5; 57 6; 59 6; 62 6; 
63 15; 64 2; 65 3; 73 2; 74 2; 
75 8; 76 4; 77 5; 78 1; 81 2; 
83 71; 84 3; 87 4; 88 13; 89 24; 
90 4; 91 2; 100 1; 101 4; 102 4; 
103 2; 104 1; 107 9; 108 6; 109 999; 
110 75; 111 1; 113 6; 114 20; 115 135; 
116 20; 117 2; 119 1; 126 2; 127 6; 
128 5; 129 1; 134 2; 135 2; 140 9; 
141 2; 142 9; 143 50; 144 21; 145 3; 
149 1; 151 1; 152 1; 153 1; 154 1; 
165 3; 169 2; 170 1; 175 1; 176 1; 
192 3; 194 2; 195 2; 196 3; 197 1; 
200 1; 201 1; 202 2; 203 1; 204 1; 
221 4; 222 19; 223 6; 224 11; 225 3; 
227 1; 228 3; 229 1; 230 2; 240 1; 
241 2; 242 1; 249 2; 250 5; 252 615; 
253 114; 254 12; 255 3; 256 4; 257 3; 
266 2; 267 7; 268 1; 269 2; 284 1; 
285 12; 286 2; 331 1; 332 1; 341 1; 
355 2; 378 1; 394 88; 395 25; 396 4; 
