Name: 7-MAPB
Synon: 7-(2-Methylaminopropyl)benzofuran
InChIKey: UTBBEUXDYAEVKL-UHFFFAOYSA-N
Formula: C12H15NO
MW: 189
ExactMass: 189.115364
CASNO: 0
ID: 4265
Comment: Provided by www.caymanchem.com/app/template/landing%2CForensic.vm / Item #9002266  Lot #0466004 / SWGDRUG Monograph available
Num Peaks: 59
41 8; 42 31; 43 13; 44 1; 50 10; 
51 25; 52 8; 53 5; 54 3; 55 1; 
56 65; 57 16; 58 999; 59 36; 61 1; 
62 6; 63 19; 64 4; 65 2; 66 1; 
70 1; 72 2; 73 4; 74 5; 75 7; 
76 11; 77 61; 78 8; 79 1; 86 1; 
87 2; 88 1; 89 8; 90 2; 91 5; 
101 2; 102 20; 103 11; 104 3; 105 2; 
115 8; 116 2; 117 2; 118 2; 127 2; 
128 9; 129 6; 130 3; 131 50; 132 7; 
144 3; 145 1; 157 2; 158 2; 159 2; 
172 1; 174 2; 187 1; 188 1; 
