Name: para-Methyl-4-methylaminorex
Synon: 4,4-DMAR
Synon: 4-M-4-MAR
Synon: 4,5-dihydro-4-methyl-5-(4-methylphenyl)-2-oxazolamine
Synon: 4,4'-Dimethylaminorex
Synon: 4,4'-DMAR
InChIKey: NPILLHMQNMXXTL-UHFFFAOYSA-N
Formula: C11H14N2O
MW: 190
ExactMass: 190.110613
CASNO: 1445569016
ID: 4266
Comment: ENFSI / HIFS Budapest
Num Peaks: 94
37 1; 38 3; 39 32; 40 5; 41 16; 
42 91; 43 260; 44 45; 50 14; 51 36; 
52 13; 53 12; 54 15; 55 7; 56 3; 
57 1; 59 1; 61 2; 62 10; 63 36; 
64 10; 65 64; 66 5; 67 2; 69 293; 
70 999; 71 48; 73 2; 74 6; 75 10; 
76 13; 77 122; 78 60; 79 23; 80 2; 
81 1; 84 1; 85 2; 86 3; 87 7; 
89 32; 90 14; 91 204; 92 21; 93 74; 
94 6; 95 1; 98 1; 101 3; 102 24; 
103 82; 104 33; 105 61; 106 15; 107 8; 
115 38; 116 18; 117 60; 118 27; 119 145; 
120 26; 121 126; 122 14; 123 1; 127 4; 
128 12; 129 13; 130 65; 131 50; 132 79; 
133 28; 134 3; 141 1; 142 1; 143 3; 
144 14; 145 8; 146 397; 147 131; 148 12; 
149 1; 158 1; 159 1; 160 1; 161 3; 
173 1; 175 336; 176 39; 177 3; 188 3; 
189 17; 190 303; 191 38; 192 3; 
