Name: 3,4-Dimethoxymethcathinone
InChIKey: VFOPXGBJCFJIFX-UHFFFAOYSA-N
Formula: C12H17NO3
MW: 223
ExactMass: 223.120843
CASNO: 22930821
ID: 4267
Comment: Provided by www.caymanchem.com/app/template/landing%2CForensic.vm / Item #17447  Lot #0468092
Num Peaks: 72
41 7; 42 23; 43 14; 44 1; 50 9; 
51 26; 52 5; 53 8; 54 2; 55 6; 
56 51; 57 14; 58 999; 59 39; 61 1; 
62 4; 63 12; 64 6; 65 7; 66 9; 
67 2; 69 1; 74 2; 75 3; 76 11; 
77 35; 78 6; 79 52; 80 4; 81 1; 
89 1; 91 5; 92 17; 93 3; 94 10; 
95 5; 103 1; 104 2; 105 3; 106 1; 
107 18; 108 2; 109 2; 119 4; 120 4; 
121 5; 122 10; 123 4; 124 1; 133 1; 
134 1; 135 1; 137 10; 138 5; 139 1; 
147 1; 149 1; 150 1; 151 5; 162 1; 
163 1; 164 1; 165 39; 166 5; 177 1; 
178 1; 180 1; 190 1; 192 1; 194 2; 
205 1; 223 1; 
