Name: 3,4-Dimethoxy-.alpha.-Pyrrolidinohexanophenone
Synon: 3,4-Dimethoxy-.alpha.-PHP
Synon: 1-(3,4-Dimethoxyphenyl)-2-(pyrrolidin-1-yl)hexan-1-one
InChIKey: KAWWDIAYCGMAPE-UHFFFAOYSA-N
Formula: C18H27NO3
MW: 305
ExactMass: 305.199093
CASNO: 0
ID: 4271
Comment: Provided by www.caymanchem.com/app/template/landing%2CForensic.vm / Item #17137  Lot #0467117
Num Peaks: 150
40 4; 41 71; 42 48; 43 21; 44 5; 
45 1; 50 6; 51 19; 52 5; 53 14; 
54 25; 55 52; 56 30; 57 5; 59 1; 
62 2; 63 11; 64 7; 65 12; 66 19; 
67 11; 68 27; 69 80; 70 32; 71 3; 
72 2; 73 2; 74 2; 75 4; 76 17; 
77 75; 78 12; 79 87; 80 15; 81 9; 
82 11; 83 6; 84 84; 85 5; 86 1; 
89 2; 90 2; 91 11; 92 34; 93 7; 
94 38; 95 12; 96 92; 97 59; 98 32; 
99 2; 102 1; 103 3; 104 5; 105 7; 
106 4; 107 36; 108 10; 109 8; 110 67; 
111 6; 112 2; 115 2; 116 1; 117 2; 
118 2; 119 9; 120 9; 121 13; 122 30; 
123 6; 124 4; 128 1; 129 1; 130 1; 
131 3; 132 1; 133 4; 134 2; 135 5; 
136 6; 137 42; 138 44; 139 13; 140 999; 
141 267; 142 12; 143 1; 144 1; 145 1; 
146 2; 147 3; 148 1; 149 4; 150 1; 
151 12; 152 1; 154 1; 158 1; 159 1; 
160 2; 161 2; 162 3; 163 3; 164 1; 
165 116; 166 13; 167 1; 174 2; 175 3; 
176 2; 177 4; 180 9; 181 1; 186 1; 
187 1; 188 1; 189 2; 190 2; 191 4; 
192 1; 193 5; 195 1; 202 1; 203 1; 
204 3; 205 2; 206 1; 207 16; 208 3; 
209 2; 216 3; 218 1; 220 4; 221 1; 
230 1; 232 2; 234 1; 236 2; 244 1; 
246 2; 248 9; 249 2; 253 4; 254 1; 
274 2; 276 1; 281 1; 303 1; 304 1; 
