Name: .alpha.-Propylaminopentiophenone
Synon: 2-Propylamino-1-phenylpentanone
Synon: 2-(Propylamino)-valerophenone
Synon: N-Propylpentedrone
InChIKey: XRDFYYCTRQFMQB-UHFFFAOYSA-N
Formula: C14H21NO
MW: 219
ExactMass: 219.162314
CASNO: 18268150
ID: 4272
Comment: Provided by www.caymanchem.com/app/template/landing%2CForensic.vm / Item #17085  Lot #0463830
Num Peaks: 78
40 1; 41 91; 42 36; 43 116; 44 24; 
50 18; 51 77; 52 8; 53 5; 54 12; 
55 42; 56 52; 57 9; 58 10; 59 1; 
62 1; 63 2; 64 1; 65 5; 66 1; 
67 3; 68 10; 69 2; 70 98; 71 5; 
72 153; 73 5; 74 4; 75 3; 76 7; 
77 170; 78 17; 79 7; 80 1; 82 2; 
83 1; 84 11; 85 5; 86 5; 89 5; 
90 1; 91 26; 92 3; 93 1; 98 7; 
102 1; 103 5; 104 3; 105 84; 106 13; 
107 1; 110 1; 112 45; 113 4; 114 999; 
115 87; 116 4; 117 4; 118 4; 120 3; 
128 1; 129 2; 130 2; 131 2; 132 1; 
133 4; 134 5; 143 1; 146 2; 148 5; 
160 1; 161 1; 162 3; 172 1; 174 1; 
176 4; 188 1; 190 1; 
