Name: 4-Fluoro-PV8 piperidine analog
Synon: 1-(4-Fluorophenyl)-2-(piperidin-1-yl)heptan-1-one
InChIKey: NXUQZHDDLRZAGK-UHFFFAOYSA-N
Formula: C18H26FNO
MW: 291
ExactMass: 291.199842
CASNO: 0
ID: 4274
Comment: Provided by www.caymanchem.com/app/template/landing%2CForensic.vm / Item #17519  Lot #0467007
Num Peaks: 101
41 152; 42 75; 43 35; 44 25; 45 1; 
47 1; 50 3; 51 6; 52 2; 53 10; 
54 38; 55 115; 56 54; 57 26; 58 2; 
62 1; 63 1; 65 4; 66 2; 67 18; 
68 25; 69 48; 70 18; 71 1; 74 2; 
75 28; 76 5; 77 5; 78 3; 79 4; 
80 6; 81 8; 82 28; 83 20; 84 36; 
85 11; 86 1; 91 3; 92 1; 93 2; 
94 12; 95 124; 96 73; 97 10; 98 59; 
99 4; 100 2; 101 2; 102 1; 103 1; 
104 1; 105 1; 106 1; 107 3; 108 6; 
109 20; 110 44; 111 20; 112 15; 113 1; 
115 1; 119 1; 120 1; 121 3; 122 4; 
123 86; 124 43; 125 5; 126 1; 133 6; 
134 1; 135 3; 137 1; 138 10; 139 1; 
140 1; 146 1; 147 1; 148 1; 150 1; 
151 2; 156 1; 157 1; 161 1; 163 1; 
164 3; 165 1; 166 26; 167 5; 168 999; 
169 121; 170 8; 192 6; 193 2; 207 9; 
208 1; 218 1; 220 3; 221 2; 232 1; 
246 1; 
