Name: 5-Fluoro-ADB-PINACA isomer 2
Synon: N-((2S,3S)-1-amino-3-methyl-1-oxopentan-2-yl)-1-(5-fluoropentyl)-1H-indazole-3-carboxamide
Synon: 5F-ADB-PINACA isomer 2
InChIKey: BGRYUHNKCCAZCH-JBZHPUCOSA-N
Formula: C19H27FN4O2
MW: 362
ExactMass: 362.211803
CASNO: 0
ID: 4278
Comment: Provided by www.caymanchem.com/app/template/landing%2CForensic.vm / Item #17396  Lot #0466199
Num Peaks: 196
40 1; 41 88; 42 9; 43 24; 44 59; 
45 5; 46 1; 47 10; 50 3; 51 5; 
52 2; 53 7; 54 4; 55 22; 56 17; 
57 23; 58 1; 59 9; 60 1; 61 3; 
62 3; 63 6; 64 1; 65 4; 66 1; 
67 8; 68 7; 69 60; 70 16; 71 3; 
72 2; 73 11; 74 1; 75 7; 76 11; 
77 21; 78 4; 79 1; 81 2; 82 1; 
83 1; 84 14; 85 8; 86 22; 87 6; 
88 29; 89 26; 90 62; 91 11; 92 1; 
93 1; 94 1; 96 3; 97 1; 99 1; 
100 1; 101 3; 102 26; 103 74; 104 27; 
105 4; 107 1; 112 2; 114 2; 115 3; 
116 6; 117 34; 118 12; 119 4; 120 1; 
121 3; 127 1; 128 3; 129 35; 130 27; 
131 113; 132 13; 133 4; 135 2; 140 1; 
141 1; 142 3; 143 9; 144 17; 145 374; 
146 34; 147 5; 148 1; 149 2; 150 1; 
154 3; 155 3; 156 9; 157 11; 158 15; 
159 5; 161 4; 162 1; 163 2; 164 1; 
165 2; 169 3; 170 2; 171 17; 172 5; 
173 3; 174 29; 175 14; 176 2; 177 53; 
178 6; 182 1; 183 1; 184 2; 185 12; 
186 6; 187 2; 188 1; 191 3; 193 2; 
194 1; 195 2; 196 1; 197 1; 198 1; 
199 5; 200 5; 201 3; 202 1; 203 4; 
204 1; 205 2; 206 1; 207 43; 208 10; 
209 4; 211 2; 212 1; 213 78; 214 15; 
215 3; 220 1; 221 1; 228 1; 230 3; 
231 14; 232 1; 233 999; 234 146; 235 11; 
239 1; 242 2; 243 1; 245 3; 247 1; 
248 2; 249 10; 250 8; 251 1; 253 14; 
254 3; 255 2; 261 2; 265 2; 269 2; 
270 2; 271 1; 272 1; 274 1; 275 3; 
276 1; 281 4; 283 1; 284 1; 287 3; 
288 2; 289 15; 290 4; 298 3; 300 1; 
301 1; 302 1; 306 1; 315 3; 316 6; 
318 568; 319 116; 320 13; 327 1; 331 4; 
333 1; 344 2; 345 1; 346 1; 347 1; 
355 2; 
