Name: APP-CHMINACA
Synon: PX 3
Synon: N-[(1S)-2-amino-2-oxo-1-(phenylmethyl)ethyl]-1-(cyclohexylmethyl)-1H-indazole-3-carboxamide
InChIKey: DMHWDSGURMXMGE-HXUWFJFHSA-N
Formula: C24H28N4O2
MW: 404
ExactMass: 404.221226
CASNO: 1185887142
ID: 4279
Comment: Provided by www.caymanchem.com/app/template/landing%2CForensic.vm / Item #17614  Lot #0467677 / SWGDRUG Monograph available
Num Peaks: 147
41 61; 42 4; 43 13; 44 27; 45 2; 
50 3; 51 9; 52 3; 53 10; 54 6; 
55 153; 56 7; 59 1; 62 2; 63 7; 
64 3; 65 23; 66 3; 67 18; 68 3; 
69 8; 72 1; 73 2; 74 1; 75 4; 
76 10; 77 37; 78 9; 79 10; 80 1; 
81 3; 83 3; 87 1; 88 17; 89 20; 
90 42; 91 106; 92 15; 93 5; 94 2; 
95 10; 96 1; 97 17; 101 1; 102 21; 
103 105; 104 33; 105 15; 106 4; 115 1; 
116 3; 117 26; 118 17; 119 23; 120 35; 
121 2; 128 10; 129 25; 130 33; 131 100; 
132 15; 134 1; 135 2; 142 1; 143 3; 
144 19; 145 536; 146 77; 147 11; 148 2; 
149 2; 154 1; 155 1; 156 3; 157 7; 
158 16; 159 6; 161 11; 162 1; 168 1; 
169 6; 170 1; 171 2; 172 2; 174 49; 
175 42; 176 4; 177 2; 179 2; 181 1; 
182 1; 185 4; 186 6; 187 1; 191 1; 
193 2; 194 2; 195 2; 199 1; 206 1; 
208 1; 211 3; 212 4; 213 23; 214 5; 
223 1; 235 1; 239 17; 241 999; 242 168; 
243 15; 251 1; 253 2; 254 2; 255 1; 
256 2; 257 115; 258 20; 259 1; 264 1; 
267 1; 268 1; 269 1; 270 3; 271 1; 
276 2; 282 1; 295 2; 296 2; 297 1; 
313 25; 314 5; 316 1; 317 2; 327 1; 
331 1; 346 1; 358 1; 360 275; 361 76; 
362 10; 363 1; 386 1; 387 1; 404 13; 
405 4; 406 1; 
