Name: DL-4662
Synon: 1-(3,4-Dimethoxyphenyl)-2-(ethylamino)pentan-1-one
InChIKey: WZVCLFAACAERMB-UHFFFAOYSA-N
Formula: C15H23NO3
MW: 265
ExactMass: 265.167793
CASNO: 0
ID: 4283
Comment: Provided by www.caymanchem.com/app/template/landing%2CForensic.vm / Item #9002077  Lot #0461367
Num Peaks: 97
41 13; 42 7; 43 10; 44 12; 45 1; 
50 3; 51 10; 52 2; 53 5; 54 2; 
55 15; 56 34; 57 2; 58 53; 59 2; 
62 2; 63 7; 64 4; 65 6; 66 9; 
67 2; 68 3; 69 3; 70 19; 71 15; 
72 8; 73 2; 74 1; 75 3; 76 9; 
77 33; 78 6; 79 46; 80 4; 81 2; 
82 1; 83 1; 84 11; 85 1; 89 1; 
91 5; 92 15; 93 2; 94 13; 95 5; 
96 1; 98 25; 99 5; 100 999; 101 70; 
102 2; 103 2; 104 4; 105 2; 107 17; 
108 3; 109 3; 115 1; 118 1; 119 4; 
120 4; 121 6; 122 13; 123 3; 124 1; 
128 1; 133 2; 134 1; 135 3; 137 18; 
138 4; 139 1; 146 1; 147 1; 149 2; 
151 9; 161 1; 162 1; 163 2; 164 2; 
165 72; 166 8; 177 2; 178 1; 179 1; 
180 4; 189 1; 190 1; 191 2; 192 1; 
193 2; 194 2; 206 1; 207 4; 209 1; 
220 1; 222 5; 
