Name: Alprazolam-d3
InChIKey: VREFGVBLTWBCJP-FIBGUPNXSA-N
Formula: C17H10D3ClN4
MW: 311
ExactMass: 311.101704
CASNO: 112393643
ID: 4287
Comment: Provided by www.caymanchem.com/app/template/landing%2CForensic.vm / Item #10010689  Lot #0467859
Num Peaks: 254
41 21; 42 28; 43 8; 44 17; 45 50; 
46 2; 47 1; 49 9; 50 91; 51 228; 
52 47; 53 17; 54 6; 55 5; 56 7; 
57 2; 59 1; 60 3; 61 17; 62 51; 
63 107; 64 42; 65 37; 66 12; 67 5; 
68 8; 69 19; 70 13; 71 3; 72 5; 
73 41; 74 93; 75 253; 76 176; 77 485; 
78 69; 79 12; 80 6; 81 30; 84 12; 
85 16; 86 35; 87 60; 88 59; 89 161; 
90 45; 91 53; 92 21; 93 26; 94 7; 
95 2; 96 7; 97 17; 98 33; 99 56; 
100 125; 101 73; 102 245; 103 166; 104 72; 
105 23; 106 7; 107 2; 108 4; 109 16; 
110 69; 111 65; 112 76; 113 54; 114 45; 
116 47; 117 29; 118 27; 119 9; 120 70; 
121 14; 122 6; 123 23; 124 79; 125 32; 
126 67; 127 45; 128 23; 129 67; 130 23; 
131 7; 132 1; 133 2; 134 31; 135 16; 
136 99; 137 219; 138 147; 139 105; 140 55; 
141 15; 142 14; 143 10; 144 10; 145 32; 
146 11; 147 6; 148 6; 149 30; 150 86; 
151 133; 152 86; 153 29; 154 19; 155 10; 
156 7; 157 3; 159 1; 160 3; 161 13; 
162 39; 163 171; 164 110; 165 59; 166 30; 
167 9; 168 2; 169 1; 171 2; 172 2; 
173 15; 174 18; 175 42; 176 141; 177 233; 
178 112; 179 43; 180 89; 181 18; 182 28; 
183 5; 184 2; 185 4; 186 15; 187 9; 
188 23; 189 19; 190 49; 191 32; 192 27; 
193 10; 194 4; 195 3; 196 1; 197 4; 
198 13; 199 36; 200 16; 201 32; 202 71; 
203 245; 204 999; 205 517; 206 144; 207 41; 
208 24; 209 8; 210 7; 211 16; 212 29; 
213 32; 214 21; 215 18; 216 10; 217 8; 
218 11; 219 12; 220 22; 221 31; 222 172; 
223 29; 224 14; 225 6; 226 9; 227 7; 
228 5; 229 8; 230 25; 231 36; 232 83; 
233 33; 234 9; 235 3; 236 2; 237 20; 
238 172; 239 243; 240 140; 241 98; 242 34; 
243 20; 244 3; 245 13; 246 15; 247 25; 
248 195; 249 85; 250 18; 251 4; 252 4; 
253 10; 254 11; 255 23; 256 142; 257 38; 
258 48; 259 10; 260 1; 264 2; 265 26; 
266 76; 267 39; 268 33; 269 18; 270 7; 
271 1; 273 2; 274 3; 275 37; 276 444; 
277 196; 278 42; 279 8; 280 5; 281 201; 
282 570; 283 293; 284 236; 285 83; 286 16; 
287 2; 293 4; 294 3; 295 3; 296 4; 
297 1; 298 1; 308 1; 309 7; 310 236; 
311 579; 312 302; 313 227; 314 79; 315 17; 
316 2; 331 2; 343 2; 405 1; 
