Name: Dextromethorphan-d3
InChIKey: MKXZASYAUGDDCJ-FIBGUPNXSA-N
Formula: C18H22D3NO
MW: 274
ExactMass: 274.212444
CASNO: 524713562
ID: 4289
Comment: Provided by www.caymanchem.com/app/template/landing%2CForensic.vm / Item #15809  Lot #0467614
Num Peaks: 209
41 59; 42 16; 43 18; 44 20; 45 207; 
46 30; 47 139; 48 3; 50 4; 51 22; 
52 9; 53 24; 54 8; 55 34; 56 7; 
57 4; 58 12; 59 13; 60 33; 61 99; 
62 999; 63 73; 64 6; 65 26; 66 7; 
67 32; 68 7; 69 8; 70 6; 71 10; 
72 3; 73 44; 74 10; 75 7; 76 8; 
77 58; 78 29; 79 37; 80 12; 81 19; 
82 8; 83 5; 84 16; 85 73; 86 18; 
87 13; 88 4; 89 17; 90 7; 91 72; 
92 20; 93 19; 94 7; 95 5; 96 5; 
97 38; 98 16; 99 26; 100 11; 101 11; 
102 27; 103 33; 104 11; 105 23; 106 10; 
107 16; 108 21; 109 13; 110 11; 111 25; 
112 9; 113 11; 114 9; 115 160; 116 45; 
117 27; 118 8; 119 11; 120 5; 121 64; 
122 32; 123 26; 124 8; 125 32; 126 27; 
127 62; 128 150; 129 88; 130 23; 131 29; 
132 13; 133 9; 134 26; 135 27; 137 33; 
138 5; 139 34; 140 13; 141 98; 142 35; 
143 31; 144 42; 145 39; 146 37; 147 43; 
148 39; 149 26; 150 10; 151 45; 152 57; 
153 563; 154 84; 155 33; 156 19; 157 30; 
158 45; 159 58; 160 40; 161 17; 162 8; 
163 8; 164 35; 165 100; 166 27; 167 22; 
168 13; 169 25; 170 22; 171 270; 172 125; 
173 46; 174 14; 175 10; 176 4; 177 87; 
178 46; 179 24; 180 6; 181 19; 182 11; 
183 24; 184 52; 185 55; 186 26; 187 16; 
188 7; 189 6; 190 7; 191 21; 192 6; 
193 3; 194 2; 195 6; 196 7; 197 26; 
198 34; 199 31; 200 13; 201 13; 202 7; 
203 16; 204 10; 205 30; 206 135; 207 12; 
209 2; 210 2; 211 14; 212 154; 213 127; 
214 285; 215 61; 216 14; 217 27; 218 6; 
219 7; 220 1; 225 2; 226 2; 227 8; 
228 9; 229 11; 230 2; 231 48; 232 8; 
233 3; 238 1; 240 3; 241 1; 242 4; 
243 10; 244 6; 245 68; 246 15; 247 1; 
253 3; 254 1; 255 1; 256 30; 257 8; 
258 3; 259 37; 260 7; 271 7; 273 401; 
274 655; 275 121; 276 11; 331 1; 
