Name: NM2201
Synon: Naphthalen-1-yl-1-(5-fluoropentyl)-1H-indole-3-carboxylate
Synon: 5-Fluoro-SDB-005 indole
Synon: 5F-SDB-005 indole
InChIKey: PRGFSQYZCKCBQO-UHFFFAOYSA-N
Formula: C24H22FNO2
MW: 375
ExactMass: 375.163458
CASNO: 0
ID: 4292
Comment: Provided by www.caymanchem.com/app/template/landing%2CForensic.vm / Item #15334  Lot #0456686 / SWGDRUG Monograph available
Num Peaks: 87
41 23; 42 1; 43 9; 47 5; 50 2; 
51 3; 52 1; 53 2; 55 2; 59 3; 
61 2; 62 5; 63 11; 64 2; 65 7; 
66 1; 67 2; 69 8; 73 1; 74 3; 
75 9; 76 6; 77 6; 78 2; 86 1; 
87 5; 88 11; 89 41; 90 5; 91 1; 
101 11; 102 25; 103 9; 104 1; 113 7; 
115 217; 116 82; 117 8; 126 2; 127 6; 
128 26; 129 40; 130 16; 131 2; 135 1; 
140 1; 141 1; 143 66; 144 211; 145 22; 
146 1; 147 1; 154 3; 155 2; 156 5; 
157 11; 158 5; 167 1; 168 2; 169 1; 
170 10; 171 2; 176 1; 182 1; 183 1; 
184 4; 185 1; 198 2; 202 1; 203 1; 
204 1; 205 1; 207 3; 212 42; 213 7; 
214 3; 215 1; 227 1; 228 1; 230 9; 
232 999; 233 148; 234 13; 253 1; 300 2; 
374 1; 375 2; 
