Name: 4-Fluoro-.alpha.-pyrrolidinopentiophenone
Synon: 4-Fluoro-.alpha.-PVP
Synon: 4-Fluoro-.alpha.-2-(1-pyrrolidinyl)-valerophenone
Synon: 4-Fluoro-PVP
InChIKey: BQLSUBYYRRZHRK-UHFFFAOYSA-N
Formula: C15H20FNO
MW: 249
ExactMass: 249.152892
CASNO: 850352317
ID: 4294
Comment: Provided by www.caymanchem.com/app/template/landing%2CForensic.vm / Item #15166  Lot #0453912 / SWGDRUG Monograph available
Num Peaks: 93
41 86; 42 95; 43 24; 44 5; 45 1; 
50 10; 51 9; 52 3; 53 15; 54 44; 
55 95; 56 35; 57 10; 62 1; 63 3; 
65 2; 66 2; 67 11; 68 42; 69 91; 
70 55; 71 4; 72 7; 75 107; 76 10; 
77 6; 78 1; 79 2; 80 10; 81 8; 
82 18; 84 119; 85 7; 89 1; 91 1; 
92 1; 95 319; 96 148; 97 101; 98 44; 
99 3; 101 4; 102 1; 103 2; 106 1; 
107 5; 108 7; 109 31; 110 39; 111 4; 
115 2; 120 5; 121 4; 123 192; 124 70; 
126 999; 127 222; 128 9; 133 8; 134 3; 
135 4; 136 2; 138 3; 145 1; 146 4; 
147 2; 148 3; 149 4; 150 2; 151 4; 
152 1; 159 1; 161 1; 162 1; 163 2; 
164 2; 176 1; 177 2; 178 4; 179 1; 
185 1; 186 2; 188 1; 190 1; 202 1; 
204 4; 206 25; 207 4; 218 1; 220 1; 
232 1; 247 2; 248 3; 
