Name: EG-2201
Synon: [9-(5-fluoropentyl)-9H-carbazol-3-yl](naphthalen-1-yl)methanone
InChIKey: LYDDINAZVHIBGP-UHFFFAOYSA-N
Formula: C28H24FNO
MW: 409
ExactMass: 409.184193
CASNO: 0
ID: 4296
Comment: DEA SFL1 / Lot # 0466401-1 / SWGDRUG Monograph available
Num Peaks: 117
29 34; 33 6; 41 37; 42 1; 43 11; 
47 32; 50 7; 51 10; 53 1; 61 10; 
63 10; 76 9; 77 37; 78 3; 87 5; 
88 6; 89 4; 99 8; 100 8; 101 31; 
102 9; 111 4; 112 6; 113 6; 114 9; 
115 2; 116 6; 125 12; 126 97; 127 770; 
128 92; 129 12; 131 1; 132 8; 137 8; 
138 57; 139 72; 140 37; 141 7; 145 23; 
150 38; 151 117; 152 133; 153 106; 154 2; 
155 256; 156 26; 157 5; 158 9; 159 7; 
160 20; 164 69; 165 69; 167 233; 176 13; 
177 11; 178 342; 179 582; 180 94; 181 6; 
189 4; 190 15; 192 11; 194 19; 198 17; 
203 4; 205 55; 206 12; 220 10; 222 5; 
224 7; 237 6; 250 9; 252 8; 261 7; 
263 8; 264 11; 266 7; 268 1; 274 7; 
275 11; 276 16; 277 14; 278 11; 282 225; 
283 37; 284 7; 288 21; 289 15; 290 41; 
291 85; 292 29; 293 8; 301 6; 302 17; 
303 22; 304 57; 305 20; 306 26; 314 7; 
316 12; 317 15; 318 14; 319 26; 320 77; 
321 22; 330 5; 332 36; 334 999; 335 274; 
336 37; 392 64; 393 22; 408 202; 409 770; 
410 222; 411 33; 
