Name: 3-Fluorophenmetrazine
Synon: 3-Fluoro PM
Synon: 3-FPM
Synon: 2-(3-Fluorophenyl)-3-methylmorpholine
InChIKey: VHYVKJAQSJCYCK-UHFFFAOYSA-N
Formula: C11H14FNO
MW: 195
ExactMass: 195.105943
CASNO: 0
ID: 4303
Comment: Provided by www.caymanchem.com/app/template/landing%2CForensic.vm / Item #17208
Num Peaks: 104
41 28; 42 212; 43 262; 44 29; 45 3; 
46 1; 49 1; 50 18; 51 17; 52 4; 
53 1; 54 16; 55 5; 56 308; 57 38; 
58 3; 59 2; 60 1; 61 3; 62 11; 
63 19; 64 3; 65 3; 66 1; 67 1; 
68 22; 69 50; 70 106; 71 999; 72 49; 
73 25; 74 23; 75 81; 76 12; 77 28; 
78 4; 80 3; 81 14; 82 6; 83 32; 
84 3; 85 1; 86 4; 87 5; 88 3; 
89 10; 90 2; 91 1; 92 2; 93 3; 
94 16; 95 161; 96 73; 97 27; 98 2; 
99 1; 100 2; 101 19; 102 5; 103 17; 
104 2; 105 3; 107 53; 108 21; 109 95; 
110 10; 113 1; 115 38; 116 9; 117 5; 
119 1; 120 9; 121 10; 122 5; 123 191; 
124 42; 125 4; 128 1; 130 1; 131 3; 
132 1; 133 54; 134 7; 135 95; 136 37; 
137 7; 146 1; 147 8; 148 7; 149 4; 
150 2; 151 2; 152 1; 161 1; 162 5; 
164 1; 177 1; 179 1; 180 1; 191 1; 
193 2; 194 2; 195 99; 196 11; 
