Name: Alprazolam-d8
InChIKey: VREFGVBLTWBCJP-JGUCLWPXSA-N
Formula: C17H5D8ClN4
MW: 316
ExactMass: 316.133087
CASNO: 0
ID: 4309
Comment: Provided by www.caymanchem.com/app/template/landing%2CForensic.vm / Item #18302
Num Peaks: 265
40 7; 41 13; 42 34; 43 11; 44 33; 
45 44; 46 26; 47 1; 49 4; 50 23; 
51 27; 52 31; 53 27; 54 172; 55 12; 
56 20; 57 2; 58 1; 59 1; 60 4; 
61 6; 62 27; 63 41; 64 39; 65 32; 
66 45; 67 5; 68 19; 69 31; 70 21; 
71 3; 72 7; 73 46; 74 64; 75 159; 
76 92; 77 92; 78 71; 79 24; 80 104; 
81 31; 82 414; 83 55; 84 19; 85 9; 
86 18; 87 29; 88 50; 89 45; 90 51; 
91 45; 92 16; 93 30; 94 31; 95 22; 
96 44; 97 17; 98 27; 99 32; 100 126; 
101 41; 102 129; 103 69; 104 98; 105 59; 
106 18; 107 30; 108 112; 109 81; 110 75; 
111 51; 112 78; 113 38; 114 35; 115 30; 
116 17; 117 18; 118 106; 119 17; 120 16; 
121 15; 122 34; 123 26; 124 84; 125 16; 
126 35; 127 34; 128 18; 129 73; 130 33; 
131 43; 132 20; 133 14; 134 10; 135 15; 
136 125; 137 245; 138 115; 139 104; 140 57; 
141 28; 142 10; 143 29; 144 29; 145 46; 
146 7; 147 8; 148 7; 149 7; 150 7; 
151 7; 152 36; 153 46; 154 60; 155 105; 
156 75; 157 29; 158 13; 159 2; 160 2; 
161 4; 162 26; 163 69; 164 53; 165 31; 
166 36; 167 82; 168 70; 169 22; 170 8; 
171 7; 172 3; 173 10; 174 4; 175 3; 
176 17; 177 17; 178 33; 179 66; 180 177; 
181 164; 182 129; 183 60; 184 13; 185 6; 
186 1; 187 2; 188 5; 189 7; 190 22; 
191 13; 192 23; 193 20; 194 19; 195 38; 
196 9; 197 10; 198 3; 199 2; 200 1; 
201 4; 202 5; 203 12; 204 38; 205 37; 
206 56; 207 173; 208 185; 209 999; 210 394; 
211 96; 212 16; 213 5; 214 4; 215 6; 
216 8; 217 22; 218 24; 219 11; 220 9; 
221 8; 222 7; 223 10; 224 6; 225 11; 
226 23; 227 111; 228 26; 229 4; 230 3; 
231 3; 232 7; 233 8; 234 8; 235 18; 
236 15; 237 68; 238 22; 239 5; 240 7; 
241 14; 242 123; 243 192; 244 209; 245 111; 
246 71; 247 26; 248 18; 249 13; 250 14; 
251 16; 252 21; 253 181; 254 58; 255 11; 
256 4; 257 5; 258 9; 259 17; 260 50; 
261 53; 262 42; 263 29; 264 4; 265 2; 
267 3; 268 10; 269 6; 270 55; 271 54; 
272 36; 273 14; 274 10; 275 2; 276 1; 
277 1; 278 1; 279 3; 280 37; 281 323; 
282 104; 283 21; 284 3; 285 14; 286 311; 
287 640; 288 354; 289 260; 290 49; 291 14; 
292 2; 298 5; 299 3; 300 3; 301 1; 
302 1; 313 2; 314 98; 315 163; 316 718; 
317 271; 318 255; 319 71; 320 12; 321 1; 
