Name: Heroin-d3
InChIKey: GVGLGOZIDCSQPN-HPRDVNIFSA-N
Formula: C21H20D3NO5
MW: 372
ExactMass: 372.176453
CASNO: 219533683
ID: 4311
Comment: Provided by www.caymanchem.com/app/template/landing%2CForensic.vm / Item #16192
Num Peaks: 274
41 14; 42 45; 43 999; 44 50; 45 178; 
46 13; 47 75; 48 2; 50 4; 51 16; 
52 7; 53 20; 54 4; 55 24; 56 3; 
57 4; 58 10; 59 8; 60 27; 61 42; 
62 54; 63 27; 64 7; 65 26; 66 8; 
67 13; 68 8; 69 8; 70 8; 71 7; 
72 5; 73 103; 74 12; 75 13; 76 12; 
77 64; 78 29; 79 23; 80 13; 81 160; 
82 23; 83 10; 84 19; 85 37; 86 11; 
87 9; 88 6; 89 25; 90 9; 91 63; 
92 17; 93 11; 94 9; 95 9; 96 19; 
97 120; 98 17; 99 34; 100 5; 101 11; 
102 23; 103 38; 104 29; 105 42; 106 7; 
107 11; 108 8; 109 13; 110 25; 111 27; 
112 19; 113 16; 114 12; 115 173; 116 41; 
117 37; 118 14; 119 14; 120 12; 121 23; 
122 6; 123 23; 124 8; 125 15; 126 35; 
127 193; 128 98; 129 46; 130 20; 131 43; 
132 25; 133 28; 134 30; 135 29; 136 14; 
137 55; 138 18; 139 60; 140 24; 141 79; 
142 23; 143 23; 144 33; 145 32; 146 17; 
147 84; 148 33; 149 202; 150 36; 151 54; 
152 152; 153 113; 154 43; 155 38; 156 17; 
157 34; 158 16; 159 18; 160 22; 161 50; 
162 26; 163 36; 164 29; 165 266; 166 73; 
167 88; 168 57; 169 64; 170 25; 171 59; 
172 29; 173 53; 174 109; 175 46; 176 63; 
177 34; 178 54; 179 80; 180 33; 181 112; 
182 45; 183 31; 184 53; 185 53; 186 26; 
187 29; 188 12; 189 20; 190 12; 191 20; 
192 15; 193 36; 194 23; 195 34; 196 20; 
197 81; 198 45; 199 51; 200 24; 201 28; 
202 14; 203 49; 204 16; 205 44; 206 52; 
207 374; 208 79; 209 76; 210 87; 211 126; 
212 35; 213 48; 214 22; 215 15; 216 22; 
217 78; 218 361; 219 91; 220 14; 221 13; 
222 11; 223 35; 224 42; 225 57; 226 78; 
227 50; 228 45; 229 33; 230 10; 231 14; 
232 5; 233 3; 234 4; 235 12; 236 11; 
237 24; 238 10; 239 16; 240 16; 241 55; 
242 43; 243 33; 244 6; 245 11; 246 1; 
247 2; 248 2; 249 3; 250 5; 251 11; 
252 15; 253 74; 254 26; 255 33; 256 12; 
257 15; 258 7; 259 19; 260 19; 261 10; 
262 2; 266 3; 267 9; 268 18; 269 183; 
270 239; 271 753; 272 144; 273 20; 274 3; 
281 7; 282 2; 283 3; 284 5; 285 16; 
286 12; 287 104; 288 34; 289 3; 294 1; 
295 2; 296 1; 297 2; 301 8; 302 6; 
303 1; 310 2; 311 29; 312 68; 313 559; 
314 119; 315 21; 316 1; 325 2; 327 7; 
328 11; 329 169; 330 914; 331 192; 332 25; 
333 1; 343 1; 344 1; 354 1; 355 1; 
356 1; 357 1; 369 1; 370 7; 371 88; 
372 514; 373 117; 374 18; 375 1; 
