Name: 5-Fluoro-PCN
Synon: 5-Fluoro-MN-21
Synon: 1-(5-Fluoropentyl)-N-(naphthalen-1-yl)-1H-pyrrolo[3,2-c]pyridine-3-carboxamide
Synon: 5F-PCN
Synon: 5F-MN-21
InChIKey: BRRZRRZUERBDQL-UHFFFAOYSA-N
Formula: C23H22FN3O
MW: 375
ExactMass: 375.17469
CASNO: 0
ID: 4312
Comment: Provided by www.caymanchem.com/app/template/landing%2CForensic.vm / Item #15963
Num Peaks: 178
41 59; 42 3; 43 18; 45 2; 46 1; 
47 13; 49 1; 50 4; 51 7; 52 3; 
53 2; 54 1; 55 5; 56 1; 57 1; 
58 1; 59 7; 60 1; 61 4; 62 4; 
63 14; 64 4; 65 6; 66 2; 67 3; 
69 12; 70 1; 71 1; 73 11; 74 5; 
75 7; 76 12; 77 8; 78 11; 79 6; 
81 2; 82 1; 86 1; 87 2; 88 3; 
89 15; 90 11; 91 5; 92 1; 93 1; 
96 5; 97 1; 101 2; 102 5; 103 16; 
104 11; 105 4; 111 1; 113 7; 114 10; 
115 181; 116 38; 117 61; 118 4; 119 2; 
120 1; 121 1; 126 2; 127 7; 128 5; 
129 13; 130 21; 131 15; 132 2; 133 7; 
134 3; 135 5; 136 1; 140 14; 141 6; 
142 47; 143 20; 144 25; 145 309; 146 23; 
147 6; 148 1; 149 3; 150 3; 151 1; 
152 1; 153 1; 154 3; 155 3; 156 3; 
157 5; 158 7; 159 2; 161 2; 163 2; 
164 1; 165 3; 166 1; 167 1; 169 4; 
170 1; 171 9; 172 1; 173 1; 175 1; 
176 1; 177 4; 178 2; 179 2; 181 1; 
182 1; 185 5; 187 2; 189 1; 191 2; 
192 3; 193 7; 194 3; 195 2; 197 2; 
202 1; 203 1; 204 1; 205 3; 206 1; 
207 25; 208 5; 209 5; 210 2; 211 1; 
213 2; 214 1; 215 1; 221 2; 223 1; 
229 1; 231 2; 232 1; 233 999; 234 148; 
235 8; 242 1; 243 1; 249 4; 251 2; 
253 8; 254 3; 255 3; 256 2; 257 2; 
258 2; 265 3; 266 1; 267 6; 268 3; 
269 3; 270 1; 271 1; 281 1; 282 15; 
283 5; 284 1; 286 3; 315 1; 325 2; 
327 3; 331 3; 332 1; 341 5; 342 2; 
343 1; 346 1; 355 4; 356 1; 357 1; 
375 123; 376 27; 377 4; 
