Name: Temazepam-d8
InChIKey: SEQDDYPDSLOBDC-JGUCLWPXSA-N
Formula: C16H5D8ClN2O2
MW: 308
ExactMass: 308.11677
CASNO: 0
ID: 4313
Comment: Provided by www.caymanchem.com/app/template/landing%2CForensic.vm / Item #18481
Num Peaks: 250
40 2; 41 6; 42 13; 43 4; 44 3; 
45 10; 46 5; 49 2; 50 5; 51 8; 
52 20; 53 10; 54 28; 55 6; 56 6; 
57 2; 58 5; 59 1; 60 5; 61 8; 
62 8; 63 21; 64 15; 65 11; 66 12; 
67 3; 68 3; 69 4; 70 5; 71 4; 
72 4; 73 23; 74 14; 75 35; 76 26; 
77 19; 78 22; 79 21; 80 31; 81 42; 
82 116; 83 21; 84 15; 85 11; 86 6; 
87 11; 88 13; 89 12; 90 16; 91 17; 
92 9; 93 10; 94 6; 95 4; 96 5; 
97 9; 98 21; 99 23; 100 25; 101 13; 
102 11; 103 12; 104 12; 105 8; 106 13; 
107 8; 108 22; 109 67; 110 24; 111 19; 
112 24; 113 19; 114 19; 115 11; 116 15; 
117 16; 118 14; 119 10; 120 8; 121 3; 
122 26; 124 31; 125 25; 126 19; 127 8; 
128 15; 129 11; 130 10; 131 20; 132 14; 
133 9; 134 2; 135 19; 136 12; 137 6; 
138 12; 139 11; 140 24; 141 16; 142 29; 
143 29; 144 26; 145 13; 146 5; 147 3; 
149 2; 150 5; 151 16; 152 39; 153 23; 
154 37; 155 24; 156 37; 157 22; 158 4; 
159 3; 160 1; 161 2; 162 1; 163 3; 
164 10; 165 7; 166 5; 167 26; 168 41; 
169 27; 170 43; 171 58; 172 32; 173 11; 
174 3; 175 1; 176 1; 177 7; 178 11; 
179 11; 180 20; 181 29; 182 27; 183 20; 
184 11; 185 12; 186 11; 187 7; 188 1; 
189 2; 190 4; 191 1; 192 5; 193 4; 
194 1; 195 11; 196 36; 197 27; 198 45; 
199 24; 200 37; 201 37; 202 7; 203 3; 
204 10; 205 8; 206 9; 207 15; 208 4; 
209 8; 210 14; 211 11; 212 3; 213 6; 
214 7; 215 7; 216 7; 217 5; 218 17; 
219 9; 220 13; 221 5; 222 3; 223 1; 
224 3; 225 6; 226 16; 227 3; 228 7; 
229 47; 230 15; 231 6; 232 35; 233 39; 
234 31; 235 32; 236 44; 237 14; 238 18; 
239 2; 240 2; 241 3; 242 7; 243 15; 
244 23; 245 18; 246 14; 247 12; 248 12; 
249 11; 250 61; 251 24; 252 21; 253 13; 
254 3; 255 1; 257 1; 258 8; 259 18; 
260 18; 261 15; 262 43; 263 175; 264 172; 
265 106; 266 57; 267 20; 268 1; 272 1; 
273 2; 275 5; 276 87; 277 24; 278 89; 
279 999; 280 195; 281 330; 282 59; 283 8; 
289 2; 290 7; 291 1; 292 6; 293 2; 
294 1; 303 1; 304 1; 305 6; 306 20; 
307 11; 308 105; 309 21; 310 29; 311 7; 
