Name: ALEPH-2
Synon: 2,5-Dimethoxy-4-ethylthioamphetamine
Synon: 4-(Ethylthio)-2,5-dimethoxy-.alpha.-methyl-benzeneethanamine
InChIKey: MCYCODJKXUJSAT-UHFFFAOYSA-N
Formula: C13H21NO2S
MW: 255
ExactMass: 255.1293
CASNO: 185562009
ID: 4322
Comment: Provided by www.caymanchem.com/app/template/landing%2CForensic.vm / Item #17284
Num Peaks: 159
40 2; 41 8; 42 36; 43 15; 44 764; 
45 34; 46 2; 47 2; 50 3; 51 9; 
52 3; 53 14; 54 2; 55 4; 56 2; 
57 5; 58 6; 59 21; 60 2; 61 4; 
62 3; 63 11; 64 6; 65 24; 66 11; 
67 14; 68 3; 69 16; 70 6; 71 7; 
72 1; 73 2; 74 2; 75 8; 76 4; 
77 38; 78 20; 79 26; 80 7; 81 5; 
82 6; 83 4; 84 5; 85 22; 86 2; 
87 3; 89 9; 90 7; 91 44; 92 13; 
93 14; 94 7; 95 11; 96 12; 97 23; 
98 6; 99 4; 101 1; 102 2; 103 6; 
104 6; 105 20; 106 11; 107 13; 108 20; 
109 28; 110 23; 111 13; 112 3; 113 2; 
115 4; 116 2; 117 5; 118 7; 119 8; 
120 9; 121 41; 122 28; 123 26; 124 10; 
125 20; 126 5; 127 2; 130 2; 131 4; 
132 10; 133 10; 134 10; 135 14; 136 12; 
137 31; 138 40; 139 16; 140 15; 141 8; 
142 1; 145 1; 146 4; 147 9; 148 9; 
149 11; 150 8; 151 27; 152 26; 153 71; 
154 12; 155 7; 156 1; 160 1; 161 7; 
162 9; 163 18; 164 16; 165 11; 166 7; 
167 28; 168 24; 169 25; 170 3; 171 1; 
176 2; 177 2; 178 4; 179 9; 180 3; 
181 44; 182 19; 183 101; 184 14; 185 5; 
192 1; 193 2; 194 1; 195 3; 196 2; 
197 142; 198 18; 199 7; 200 1; 208 1; 
209 2; 210 6; 211 82; 212 999; 213 127; 
214 52; 215 5; 222 2; 223 2; 224 3; 
225 1; 238 3; 239 3; 240 3; 253 1; 
254 2; 255 26; 256 5; 257 1; 
