Name: CI-994
Synon: PD 123654
Synon: Goe 5549
Synon: Tacedinaline
Synon: N-Acetyldinaline
Synon: 4-(Acetylamino)-N-(2-aminophenyl)-benzamide
InChIKey: VAZAPHZUAVEOMC-UHFFFAOYSA-N
Formula: C15H15N3O2
MW: 269
ExactMass: 269.116426
CASNO: 112522642
ID: 4323
Comment: Provided by www.caymanchem.com/app/template/landing%2CForensic.vm / Item #12084
Num Peaks: 79
40 3; 41 16; 42 52; 43 25; 44 4; 
50 7; 51 8; 52 7; 53 4; 54 7; 
55 9; 56 94; 57 26; 58 999; 59 54; 
60 2; 61 1; 62 4; 63 11; 64 10; 
65 14; 66 20; 67 63; 68 18; 69 2; 
73 3; 74 3; 75 4; 76 4; 77 5; 
78 2; 79 3; 80 2; 81 1; 86 1; 
87 1; 88 1; 89 1; 90 5; 91 11; 
92 18; 93 15; 94 145; 95 17; 103 1; 
104 2; 105 2; 106 2; 107 1; 108 7; 
109 1; 115 1; 117 3; 118 3; 119 2; 
120 1; 121 1; 122 42; 123 7; 131 2; 
133 2; 134 1; 135 2; 137 3; 146 1; 
147 4; 148 1; 149 1; 150 2; 151 2; 
161 1; 163 1; 164 1; 165 5; 177 1; 
179 1; 180 1; 207 1; 253 1; 
