Name: 5-Fluoro-AEB
Synon: 5-Fluoro-EMB-PINACA
Synon: 5F-EMB-PINACA
Synon: Ethyl-(1-(5-fluoropentyl)-1H-indazole-3-carbonyl)-L-valinate
Synon: 5F-AEB
InChIKey: YWSYUMWEKPNAHT-QGZVFWFLSA-N
Formula: C20H28FN3O3
MW: 377
ExactMass: 377.21147
CASNO: 0
ID: 4324
Comment: Provided by www.caymanchem.com/app/template/landing%2CForensic.vm / Item #17735
Num Peaks: 163
41 56; 42 8; 43 47; 44 9; 45 5; 
46 1; 47 8; 50 1; 51 4; 52 1; 
53 4; 54 3; 55 28; 56 10; 57 3; 
59 6; 60 1; 61 2; 62 3; 63 5; 
64 2; 65 2; 67 5; 68 2; 69 37; 
70 10; 71 16; 72 12; 73 5; 74 2; 
75 5; 76 10; 77 17; 78 2; 82 2; 
83 4; 84 1; 85 2; 86 1; 87 4; 
88 25; 89 22; 90 48; 91 8; 92 2; 
98 6; 99 1; 100 2; 101 2; 102 25; 
103 73; 104 24; 105 3; 108 1; 114 1; 
115 4; 116 8; 117 28; 118 8; 119 2; 
121 2; 127 1; 128 4; 129 29; 130 25; 
131 96; 132 12; 133 2; 135 1; 142 3; 
143 8; 144 25; 145 297; 146 28; 147 3; 
149 1; 152 1; 154 1; 155 2; 156 5; 
157 9; 158 12; 159 4; 160 1; 161 3; 
165 1; 168 1; 169 2; 170 2; 171 14; 
172 4; 173 1; 174 28; 175 26; 176 4; 
177 44; 178 4; 179 1; 183 1; 184 1; 
185 13; 186 5; 187 2; 191 1; 193 3; 
195 1; 199 3; 200 2; 201 1; 203 3; 
204 1; 205 2; 207 24; 208 2; 209 3; 
210 1; 211 1; 213 76; 214 13; 215 5; 
216 2; 228 6; 229 2; 231 13; 233 999; 
234 143; 235 12; 236 1; 246 2; 247 3; 
249 83; 250 15; 251 2; 253 6; 254 2; 
260 1; 261 4; 262 1; 269 1; 281 2; 
282 1; 284 8; 285 2; 286 3; 287 1; 
288 1; 289 6; 290 1; 302 8; 304 648; 
305 126; 306 13; 307 1; 316 3; 331 5; 
332 8; 333 2; 334 5; 335 4; 336 1; 
377 30; 378 7; 379 1; 
