Name: MMDA
Synon: 3-MeO-MDA
Synon: 3-Methoxy-MDA
Synon: 7-Methoxy-.alpha.-methyl-1,3-benzodioxole-5-ethanamine
InChIKey: OSJXZWMDUMAITM-UHFFFAOYSA-N
Formula: C11H15NO3
MW: 209
ExactMass: 209.105193
CASNO: 60676848
ID: 4325
Comment: Provided by www.caymanchem.com/app/template/landing%2CForensic.vm / Item #17658
Num Peaks: 98
40 6; 41 16; 42 53; 43 21; 44 999; 
45 35; 47 5; 48 1; 49 1; 50 18; 
51 28; 52 13; 53 34; 54 6; 55 4; 
56 4; 57 5; 59 1; 60 1; 61 2; 
62 10; 63 38; 64 52; 65 45; 66 22; 
67 13; 68 3; 69 4; 70 1; 73 1; 
74 8; 75 9; 76 15; 77 59; 78 19; 
79 27; 80 12; 81 5; 82 2; 88 1; 
89 6; 90 3; 91 8; 92 54; 93 14; 
94 7; 95 4; 97 23; 102 1; 103 1; 
104 9; 105 12; 106 10; 107 18; 108 15; 
109 5; 110 1; 116 1; 117 1; 118 3; 
119 3; 120 40; 121 21; 122 23; 123 9; 
124 1; 132 2; 133 6; 134 4; 135 17; 
136 12; 137 5; 146 1; 147 3; 148 3; 
149 3; 150 7; 151 27; 152 4; 153 1; 
161 2; 162 2; 163 3; 164 3; 165 192; 
166 669; 167 67; 168 7; 176 1; 177 1; 
178 2; 190 1; 192 3; 193 3; 194 7; 
207 3; 208 3; 209 6; 
