Name: NNEI 2'-indazole isomer
Synon: MN-018 2'-indazole isomer
Synon: N-(naphthalen-1-yl)-2-pentyl-2H-indazole-3-carboxamide
InChIKey: UJKHLVOEXULDRU-UHFFFAOYSA-N
Formula: C23H23N3O
MW: 357
ExactMass: 357.184113
CASNO: 0
ID: 4326
Comment: Provided by www.caymanchem.com/app/template/landing%2CForensic.vm / Item #17520
Num Peaks: 158
41 74; 42 17; 43 63; 44 2; 50 2; 
51 5; 52 3; 53 4; 55 21; 56 1; 
62 5; 63 15; 64 3; 65 9; 66 2; 
67 4; 69 22; 70 4; 71 2; 73 5; 
74 3; 75 7; 76 11; 77 24; 78 3; 
86 2; 87 5; 88 35; 89 56; 90 118; 
91 18; 92 4; 101 3; 102 18; 103 28; 
104 10; 105 1; 113 12; 114 14; 115 227; 
116 40; 117 53; 118 9; 119 13; 125 1; 
126 8; 127 24; 128 15; 129 24; 130 16; 
131 56; 132 14; 133 1; 135 3; 140 25; 
141 23; 142 47; 143 132; 144 28; 145 650; 
146 62; 147 26; 148 1; 150 2; 152 2; 
153 2; 154 5; 155 7; 156 11; 157 16; 
158 7; 159 15; 160 2; 161 1; 164 1; 
167 1; 168 1; 169 28; 170 8; 171 19; 
172 2; 173 3; 174 3; 176 1; 177 1; 
179 2; 182 2; 184 1; 185 6; 186 11; 
187 999; 188 136; 189 9; 191 1; 194 1; 
195 1; 197 3; 200 1; 201 2; 202 8; 
203 2; 204 1; 207 14; 208 4; 209 1; 
213 3; 214 1; 215 516; 216 76; 217 7; 
226 1; 227 5; 228 8; 229 3; 230 6; 
231 2; 240 2; 241 1; 242 1; 243 3; 
244 2; 245 1; 249 1; 251 1; 253 7; 
254 1; 255 4; 256 3; 257 43; 258 15; 
259 5; 260 1; 265 1; 267 3; 270 2; 
271 2; 272 5; 273 3; 281 5; 282 3; 
283 1; 284 2; 285 1; 286 3; 287 13; 
288 4; 300 12; 301 8; 314 2; 315 1; 
327 1; 328 1; 331 1; 341 3; 342 1; 
357 77; 358 20; 359 2; 
