Name: MDA 2-amido analog
Synon: MMDPPA
Synon: .alpha.-Methyl-3,4-methylendioxyphenylpropanamide
Synon: 3-(1,3-Benzodioxol-5-yl)-2-methylpropanamide
InChIKey: WJHISTBMGKCBDJ-UHFFFAOYSA-N
Formula: C11H13NO3
MW: 207
ExactMass: 207.089543
CASNO: 858215051
ID: 4327
Comment: Provided by www.caymanchem.com/app/template/landing%2CForensic.vm / Item # 9002291
Num Peaks: 89
40 2; 41 8; 42 4; 43 4; 44 99; 
45 3; 50 17; 51 65; 52 12; 53 16; 
54 4; 55 10; 56 2; 61 2; 62 13; 
63 37; 64 9; 65 30; 66 6; 67 4; 
68 1; 69 2; 72 3; 73 5; 74 9; 
75 9; 76 13; 77 183; 78 41; 79 60; 
80 6; 86 2; 87 3; 89 21; 90 6; 
91 23; 92 5; 93 3; 94 1; 96 1; 
101 1; 102 10; 103 42; 104 25; 105 93; 
106 13; 107 4; 115 3; 116 1; 117 5; 
118 3; 119 4; 120 3; 121 19; 122 16; 
123 2; 130 1; 131 20; 132 8; 133 31; 
134 10; 135 999; 136 94; 137 8; 145 12; 
146 1; 147 24; 148 22; 149 4; 150 1; 
151 2; 159 1; 160 1; 161 15; 162 82; 
163 41; 164 5; 175 27; 176 4; 178 1; 
189 8; 190 2; 191 1; 192 11; 193 1; 
206 1; 207 303; 208 37; 209 3; 
