Name: MAB-CHMINACA metabolite M1
Synon: ADB-CHMINACA metabolite M1
Synon: N-(1-amino-3,3-dimethyl-1-oxobutan-2-yl)-(1-((4-hydroxycyclohexyl)methyl)-1H-indazole-3-carboxamide
InChIKey: WTNUEUMGTOEHAA-UHFFFAOYSA-N
Formula: C21H30N4O3
MW: 386
ExactMass: 386.23179
CASNO: 0
ID: 4332
Comment: Provided by www.caymanchem.com/app/template/landing%2CForensic.vm / Item #18182
Num Peaks: 256
40 6; 41 176; 42 29; 43 49; 44 81; 
45 15; 47 1; 48 1; 49 2; 50 11; 
51 17; 52 4; 53 18; 54 13; 55 82; 
56 34; 57 162; 58 7; 59 4; 60 1; 
61 2; 62 5; 63 7; 64 4; 65 5; 
66 2; 67 46; 68 13; 69 23; 70 21; 
71 14; 72 2; 73 50; 74 7; 75 8; 
76 15; 77 47; 78 29; 79 32; 80 6; 
81 29; 82 8; 83 11; 84 13; 85 4; 
86 55; 87 9; 88 37; 89 25; 90 54; 
91 22; 92 4; 93 22; 94 17; 95 82; 
96 16; 97 3; 98 4; 99 1; 100 2; 
101 5; 102 28; 103 107; 104 23; 105 6; 
106 1; 107 1; 108 1; 109 1; 110 4; 
111 4; 112 5; 113 1; 114 1; 115 12; 
116 7; 117 32; 118 28; 119 22; 120 1; 
121 2; 122 1; 125 1; 127 4; 128 4; 
129 39; 130 34; 131 154; 132 25; 133 7; 
134 3; 135 14; 136 2; 137 2; 139 1; 
140 1; 141 2; 142 2; 143 8; 144 33; 
145 599; 146 65; 147 21; 148 2; 149 5; 
152 1; 153 2; 154 5; 155 7; 156 12; 
157 11; 158 10; 159 15; 160 3; 161 6; 
162 2; 163 2; 164 1; 165 3; 166 1; 
167 2; 168 2; 169 15; 170 5; 171 13; 
172 7; 173 13; 174 8; 175 2; 176 1; 
177 16; 178 2; 179 5; 180 1; 181 2; 
182 2; 183 16; 184 2; 185 13; 186 6; 
187 2; 188 2; 189 1; 190 1; 191 1; 
192 4; 193 20; 194 4; 195 3; 196 1; 
197 3; 198 1; 199 6; 200 10; 201 73; 
202 10; 203 1; 204 1; 205 2; 206 1; 
207 75; 208 11; 209 6; 210 7; 211 5; 
212 5; 213 4; 214 5; 215 3; 216 1; 
218 1; 219 1; 221 1; 222 1; 223 2; 
225 2; 226 1; 227 5; 228 2; 229 5; 
230 5; 235 2; 237 1; 239 34; 240 3; 
241 6; 242 6; 243 2; 244 1; 249 4; 
250 1; 251 3; 252 1; 253 19; 254 9; 
255 47; 256 1; 257 999; 258 169; 259 18; 
260 1; 265 2; 266 1; 267 3; 268 2; 
269 3; 270 4; 271 2; 272 3; 273 1; 
274 3; 278 3; 281 10; 282 6; 283 3; 
284 3; 285 1; 286 1; 287 2; 294 1; 
295 5; 296 1; 297 1; 298 1; 310 1; 
311 4; 312 3; 313 68; 314 11; 315 2; 
323 1; 324 3; 325 5; 326 3; 327 4; 
328 2; 329 3; 330 9; 331 4; 332 1; 
340 12; 341 8; 342 519; 343 119; 344 12; 
345 1; 346 3; 354 2; 355 2; 356 1; 
357 1; 368 1; 369 1; 371 1; 377 1; 
386 1; 
