Name: MAB-CHMINACA metabolite M7
Synon: ADB-CHMINACA metabolite M7
Synon: 3-(1-(cyclohexylmethyl)-1H-indazole-3-carboxamido)-2,2-dimethylsuccinic acid
InChIKey: XOHVSBZMRVJHQW-UHFFFAOYSA-N
Formula: C21H27N3O5
MW: 401
ExactMass: 401.19507
CASNO: 0
ID: 4333
Comment: Provided by www.caymanchem.com/app/template/landing%2CForensic.vm / Item #18186
Num Peaks: 235
40 9; 41 201; 42 31; 43 43; 44 43; 
45 2; 46 1; 49 1; 50 7; 51 17; 
52 6; 53 37; 54 29; 55 380; 56 44; 
57 4; 58 1; 59 3; 60 1; 61 2; 
62 7; 63 10; 64 2; 65 15; 66 6; 
67 43; 68 25; 69 29; 70 218; 71 48; 
72 8; 73 10; 74 1; 75 9; 76 32; 
77 72; 78 14; 79 30; 80 3; 81 20; 
82 11; 83 43; 84 4; 85 3; 86 2; 
87 6; 88 51; 89 33; 90 79; 91 19; 
92 3; 93 9; 94 8; 95 35; 96 8; 
97 35; 98 32; 99 4; 100 2; 101 2; 
102 44; 103 242; 104 87; 105 7; 106 1; 
107 1; 110 1; 111 1; 113 1; 114 6; 
115 10; 116 11; 117 38; 118 19; 119 5; 
121 1; 124 1; 125 1; 126 1; 127 2; 
128 8; 129 71; 130 116; 131 465; 132 39; 
133 13; 134 3; 135 4; 140 2; 141 2; 
142 3; 143 13; 144 45; 145 777; 146 81; 
147 9; 148 2; 149 2; 150 1; 151 1; 
152 1; 154 2; 155 11; 156 14; 157 11; 
158 109; 159 40; 160 7; 161 5; 162 2; 
163 2; 165 5; 166 1; 168 5; 169 11; 
170 3; 171 8; 172 13; 173 9; 174 26; 
175 12; 176 1; 177 7; 179 3; 180 1; 
181 1; 182 5; 183 5; 184 4; 185 13; 
186 27; 187 2; 188 1; 189 1; 190 1; 
192 2; 193 2; 194 3; 195 3; 196 1; 
197 6; 198 2; 199 4; 200 6; 201 5; 
202 2; 203 2; 207 23; 208 1; 209 7; 
210 8; 211 13; 212 24; 213 52; 214 28; 
215 7; 216 1; 221 1; 223 1; 225 1; 
226 22; 227 3; 228 19; 229 7; 230 5; 
231 1; 237 1; 238 1; 239 201; 240 14; 
241 696; 242 122; 243 13; 249 3; 251 2; 
253 10; 254 30; 255 4; 256 999; 257 144; 
258 18; 259 8; 260 1; 265 1; 266 2; 
267 6; 268 9; 269 3; 270 2; 271 1; 
272 27; 273 13; 274 1; 281 22; 282 7; 
283 65; 284 12; 285 4; 287 20; 288 2; 
293 13; 294 4; 295 2; 296 15; 297 2; 
300 166; 301 60; 302 9; 309 1; 310 63; 
311 94; 312 13; 313 3; 322 1; 324 9; 
325 2; 327 2; 328 2; 329 2; 331 1; 
332 1; 333 1; 337 27; 338 7; 340 3; 
342 1; 343 1; 344 1; 346 1; 355 6; 
356 1; 368 4; 383 133; 384 28; 385 4; 
