Name: MAB-CHMINACA metabolite M10
Synon: ADB-CHMINACA metabolite M10
Synon: 1-(Cyclohexylmethyl)-N-(5,5-dimethyl-2-oxotetrahydrofuran-3-yl)-1H-indazole-3-carboxamide
InChIKey: ONIYHQAMOXEFEY-UHFFFAOYSA-N
Formula: C21H27N3O3
MW: 369
ExactMass: 369.205242
CASNO: 0
ID: 4334
Comment: Provided by www.caymanchem.com/app/template/landing%2CForensic.vm / Item #17817
Num Peaks: 233
41 257; 42 29; 43 64; 44 20; 45 7; 
50 4; 51 17; 52 4; 53 37; 54 31; 
55 415; 56 66; 57 40; 58 2; 59 2; 
62 7; 63 6; 64 2; 65 17; 66 7; 
67 92; 68 25; 69 46; 70 76; 71 22; 
72 10; 73 24; 74 3; 75 12; 76 34; 
77 78; 78 17; 79 30; 80 3; 81 26; 
82 14; 83 64; 84 305; 85 35; 86 4; 
87 6; 88 48; 89 42; 90 87; 91 26; 
92 4; 93 7; 94 7; 95 48; 96 19; 
97 28; 98 4; 99 16; 100 2; 101 2; 
102 61; 103 257; 104 99; 105 14; 106 1; 
109 1; 110 5; 111 1; 112 6; 113 21; 
114 7; 115 7; 116 9; 117 45; 118 28; 
119 16; 120 1; 121 1; 126 1; 127 3; 
128 18; 129 78; 130 129; 131 619; 132 114; 
133 16; 134 1; 135 5; 136 1; 140 1; 
141 1; 142 5; 143 10; 144 69; 145 907; 
146 92; 147 12; 148 2; 149 2; 154 2; 
155 9; 156 13; 157 25; 158 101; 159 20; 
160 10; 161 6; 162 1; 163 3; 164 1; 
165 2; 167 1; 168 3; 169 25; 170 6; 
171 8; 172 7; 173 8; 174 20; 175 5; 
176 2; 177 7; 178 1; 179 1; 180 1; 
181 2; 182 2; 183 11; 184 5; 185 21; 
186 24; 187 8; 188 2; 189 1; 191 4; 
192 3; 194 1; 195 2; 196 2; 197 5; 
198 6; 199 4; 200 8; 201 18; 202 1; 
205 1; 207 37; 208 14; 209 5; 210 8; 
211 18; 212 36; 213 105; 214 23; 215 2; 
216 1; 223 1; 224 1; 225 1; 226 5; 
227 1; 228 43; 229 10; 238 1; 239 159; 
240 2; 241 999; 242 195; 243 22; 244 2; 
249 4; 251 1; 252 1; 253 11; 254 7; 
256 888; 257 155; 258 52; 259 13; 260 1; 
265 1; 266 1; 267 19; 268 14; 269 10; 
270 10; 271 2; 272 1; 273 32; 274 4; 
281 7; 282 34; 283 19; 284 2; 286 399; 
287 234; 288 40; 289 4; 293 1; 294 1; 
295 2; 296 7; 297 7; 298 3; 304 1; 
305 1; 306 2; 307 1; 308 1; 310 5; 
311 22; 312 9; 313 1; 314 2; 325 3; 
326 4; 327 1; 329 1; 331 5; 332 1; 
336 6; 337 1; 338 1; 341 4; 342 1; 
343 2; 346 3; 350 1; 351 3; 352 2; 
354 67; 355 14; 356 2; 367 1; 369 327; 
370 78; 371 10; 372 1; 
