Name: Isobutyl 1-pentyl-1H-indazole-3-carboxylate
InChIKey: VVICSADAODYLRT-UHFFFAOYSA-N
Formula: C17H24N2O2
MW: 288
ExactMass: 288.183779
CASNO: 0
ID: 4336
Comment: Provided by www.caymanchem.com/app/template/landing%2CForensic.vm / Item #18164
Num Peaks: 123
40 8; 41 146; 42 14; 43 109; 44 6; 
50 2; 51 7; 52 2; 53 5; 54 1; 
55 20; 56 11; 57 52; 58 3; 59 1; 
62 7; 63 11; 64 3; 65 4; 67 2; 
69 6; 70 1; 71 1; 72 1; 73 2; 
74 1; 75 10; 76 19; 77 47; 78 6; 
79 1; 86 1; 87 4; 88 35; 89 25; 
90 61; 91 21; 92 5; 96 1; 101 1; 
102 67; 103 157; 104 71; 105 10; 106 1; 
115 3; 116 10; 117 38; 118 23; 119 11; 
120 1; 127 1; 128 8; 129 83; 130 83; 
131 269; 132 43; 133 5; 142 4; 143 16; 
144 60; 145 337; 146 36; 147 6; 154 2; 
155 3; 156 15; 157 47; 158 68; 159 29; 
160 6; 161 2; 162 103; 163 13; 168 1; 
169 2; 170 26; 171 60; 172 21; 173 12; 
174 8; 175 585; 176 135; 177 12; 178 1; 
183 1; 185 36; 186 20; 187 427; 188 48; 
189 4; 193 1; 199 45; 200 8; 201 3; 
202 4; 203 15; 204 1; 207 5; 213 108; 
214 29; 215 185; 216 54; 217 10; 218 77; 
219 12; 220 1; 229 2; 230 1; 231 999; 
232 199; 233 21; 234 1; 245 1; 259 12; 
260 2; 271 1; 273 4; 281 2; 287 1; 
288 158; 289 30; 290 3; 
