Name: 5-Methoxy-EiPT
Synon: 5-MeO-EiPT
Synon: 5-Methoxy-N-ethyl-N-isopropyltryptamine
Synon: N-Ethyl-5-methoxy-N-(1-methylethyl)-1H-indole-3-ethanamine
InChIKey: VVEQXDHSGNBFLZ-UHFFFAOYSA-N
Formula: C16H24N2O
MW: 260
ExactMass: 260.188864
CASNO: 850032665
ID: 4337
Comment: Provided by www.caymanchem.com/app/template/landing%2CForensic.vm / Item #17299
Num Peaks: 111
40 1; 41 39; 42 31; 43 49; 44 5; 
50 2; 51 5; 52 2; 53 2; 54 4; 
55 4; 56 44; 57 22; 58 365; 59 13; 
62 3; 63 12; 64 4; 65 4; 66 1; 
68 2; 69 1; 70 21; 71 5; 72 7; 
73 1; 74 2; 75 6; 76 8; 77 13; 
78 5; 79 2; 80 2; 84 10; 85 7; 
86 7; 87 2; 88 3; 89 35; 90 34; 
91 9; 92 1; 98 6; 99 6; 100 999; 
101 102; 102 19; 103 21; 104 7; 105 1; 
113 1; 114 3; 115 11; 116 25; 117 114; 
118 12; 119 2; 123 4; 127 1; 128 12; 
129 13; 130 58; 131 27; 132 8; 133 2; 
140 1; 141 2; 142 6; 143 17; 144 22; 
145 126; 146 24; 147 6; 148 1; 155 2; 
156 3; 157 3; 158 19; 159 34; 160 206; 
161 31; 162 4; 169 1; 170 1; 171 2; 
172 6; 173 17; 174 58; 175 8; 184 1; 
185 1; 186 2; 187 2; 188 4; 199 1; 
200 1; 201 2; 202 1; 207 1; 215 1; 
216 2; 217 1; 229 3; 243 8; 244 1; 
245 1; 257 1; 258 2; 259 1; 260 29; 
261 5; 
