Name: Codeine-d3
InChIKey: OROGSEYTTFOCAN-FIBGUPNXSA-N
Formula: C18H18D3NO3
MW: 302
ExactMass: 302.170973
CASNO: 70420712
ID: 4338
Comment: Provided by www.caymanchem.com/app/template/landing%2CForensic.vm / Item #18052
Num Peaks: 248
40 2; 41 20; 42 15; 43 15; 44 22; 
45 177; 46 15; 47 61; 48 1; 50 6; 
51 26; 52 10; 53 26; 54 8; 55 30; 
56 5; 57 8; 58 12; 59 11; 60 23; 
61 17; 62 56; 63 33; 64 12; 65 31; 
66 13; 67 14; 68 14; 69 16; 70 14; 
71 4; 72 4; 73 62; 74 15; 75 18; 
76 19; 77 76; 78 29; 79 17; 80 15; 
81 37; 82 20; 83 12; 84 22; 85 38; 
86 10; 87 7; 88 6; 89 36; 90 12; 
91 58; 92 18; 93 11; 94 11; 95 9; 
96 15; 97 70; 98 15; 99 47; 100 8; 
101 14; 102 17; 103 54; 104 16; 105 17; 
106 8; 107 13; 108 9; 109 11; 110 13; 
111 17; 112 24; 113 23; 114 18; 115 175; 
116 38; 117 64; 118 18; 119 11; 120 10; 
121 13; 122 8; 123 30; 124 3; 125 11; 
126 39; 127 164; 128 95; 129 43; 130 17; 
131 44; 132 17; 133 12; 134 15; 135 19; 
136 4; 137 22; 138 8; 139 53; 140 18; 
141 61; 142 25; 143 25; 144 35; 145 33; 
146 11; 147 27; 148 10; 149 54; 150 19; 
151 42; 152 75; 153 61; 154 22; 155 40; 
156 17; 157 25; 158 24; 159 31; 160 17; 
161 27; 162 14; 163 30; 164 30; 165 334; 
166 53; 167 25; 168 34; 169 39; 170 24; 
171 37; 172 15; 173 41; 174 25; 175 45; 
176 38; 177 21; 178 24; 179 22; 180 15; 
181 82; 182 33; 183 34; 184 26; 185 61; 
186 27; 187 42; 188 135; 189 36; 190 11; 
191 13; 192 8; 193 28; 194 15; 195 25; 
196 17; 197 56; 198 36; 199 41; 200 25; 
201 24; 202 17; 203 12; 204 7; 205 23; 
206 8; 207 28; 208 10; 209 37; 210 18; 
211 34; 212 29; 213 45; 214 26; 215 20; 
216 15; 217 160; 218 29; 219 20; 220 15; 
221 13; 222 15; 223 19; 224 15; 225 71; 
226 21; 227 28; 228 14; 229 16; 230 14; 
231 45; 232 238; 233 75; 234 10; 235 5; 
236 2; 237 7; 238 11; 239 11; 240 27; 
241 30; 242 83; 243 34; 244 11; 245 23; 
246 8; 247 4; 248 3; 249 1; 250 3; 
251 5; 252 6; 253 15; 254 10; 255 19; 
256 23; 257 27; 258 13; 259 30; 260 5; 
261 1; 265 4; 266 4; 267 9; 268 8; 
269 31; 270 14; 271 16; 272 6; 273 23; 
274 9; 275 2; 281 8; 282 3; 283 94; 
284 35; 285 110; 286 28; 287 61; 288 8; 
289 1; 299 5; 300 35; 301 184; 302 999; 
303 186; 304 23; 305 2; 
