Name: Nitrazepam-d5
InChIKey: KJONHKAYOJNZEC-RALIUCGRSA-N
Formula: C15H6D5N3O3
MW: 286
ExactMass: 286.111425
CASNO: 136765452
ID: 4341
Comment: Provided by www.caymanchem.com/app/template/landing%2CForensic.vm / Item 18100
Num Peaks: 222
40 7; 41 16; 42 35; 43 8; 44 4; 
45 2; 46 11; 50 24; 51 55; 52 60; 
53 27; 54 77; 55 11; 56 11; 57 1; 
58 1; 59 1; 60 1; 61 6; 62 29; 
63 67; 64 45; 65 59; 66 41; 67 10; 
68 16; 69 16; 70 8; 71 6; 72 5; 
73 19; 74 25; 75 61; 76 82; 77 144; 
78 134; 79 67; 80 68; 81 46; 82 143; 
83 33; 84 18; 85 4; 86 16; 87 23; 
88 31; 89 33; 90 39; 91 61; 92 60; 
93 45; 94 44; 95 23; 96 89; 97 14; 
98 14; 99 23; 100 20; 101 21; 102 37; 
103 48; 104 62; 105 30; 106 87; 107 37; 
108 45; 109 47; 110 29; 111 6; 112 10; 
113 10; 114 11; 115 13; 116 14; 117 26; 
118 21; 119 46; 120 61; 121 55; 122 20; 
123 14; 124 5; 125 3; 126 3; 127 8; 
128 15; 129 49; 130 54; 131 74; 132 39; 
133 25; 134 3; 135 16; 136 1; 137 1; 
139 3; 140 4; 141 11; 142 21; 143 45; 
144 54; 145 21; 146 11; 147 7; 148 7; 
149 16; 150 4; 151 3; 152 10; 153 31; 
154 81; 155 135; 156 134; 157 106; 158 39; 
159 10; 160 2; 161 2; 162 1; 163 2; 
164 1; 165 4; 166 14; 167 36; 168 38; 
169 31; 170 43; 171 49; 172 34; 173 11; 
174 1; 175 11; 176 7; 177 8; 178 5; 
179 11; 180 33; 181 87; 182 128; 183 183; 
184 118; 185 54; 186 6; 187 1; 189 1; 
190 2; 191 5; 192 5; 193 10; 194 22; 
195 26; 196 35; 197 30; 198 43; 199 51; 
200 24; 201 2; 202 1; 203 6; 204 4; 
205 1; 206 3; 207 27; 208 45; 209 233; 
210 289; 211 506; 212 217; 213 43; 214 10; 
215 1; 217 1; 218 1; 219 1; 220 1; 
221 2; 222 2; 223 4; 224 6; 225 16; 
226 42; 227 41; 228 30; 229 31; 230 24; 
231 2; 236 4; 237 1; 238 426; 239 174; 
240 58; 241 34; 242 14; 244 4; 245 1; 
249 3; 251 2; 252 1; 253 14; 254 11; 
255 6; 256 63; 257 479; 258 999; 259 620; 
260 92; 261 9; 265 2; 266 3; 267 2; 
268 31; 269 119; 270 30; 271 4; 281 9; 
282 2; 284 899; 285 187; 286 452; 287 86; 
288 4; 289 1; 
