Name: Oxazepam-d5
InChIKey: ADIMAYPTOBDMTL-RALIUCGRSA-N
Formula: C15H6D5ClN2O2
MW: 291
ExactMass: 291.082289
CASNO: 65854786
ID: 4344
Comment: Provided by www.caymanchem.com/app/template/landing%2CForensic.vm / Item 18566
Num Peaks: 204
40 6; 41 8; 42 38; 43 2; 47 2; 
49 5; 50 40; 51 25; 52 76; 53 25; 
54 255; 55 19; 56 16; 57 2; 59 1; 
60 4; 61 12; 62 20; 63 25; 64 34; 
65 23; 66 38; 67 4; 68 4; 69 3; 
70 2; 71 1; 72 5; 73 28; 74 82; 
75 189; 76 88; 77 58; 78 59; 79 25; 
80 84; 81 64; 82 633; 83 85; 84 23; 
85 16; 86 21; 87 30; 88 29; 89 23; 
90 32; 91 20; 92 3; 93 5; 94 8; 
95 6; 96 4; 97 6; 98 11; 99 45; 
100 155; 101 48; 102 32; 103 19; 104 46; 
105 66; 106 12; 107 17; 108 48; 109 281; 
110 132; 111 29; 112 56; 113 17; 114 10; 
115 7; 116 6; 117 15; 118 10; 119 7; 
120 5; 121 2; 122 8; 123 18; 124 16; 
125 14; 126 11; 127 26; 128 20; 129 24; 
130 24; 131 46; 132 24; 133 8; 134 6; 
135 6; 136 90; 137 59; 138 37; 139 25; 
140 9; 141 12; 142 8; 143 10; 144 9; 
145 6; 146 1; 147 2; 148 4; 149 3; 
150 3; 151 10; 152 28; 153 67; 154 114; 
155 154; 156 92; 157 47; 158 12; 159 2; 
160 1; 161 1; 162 17; 163 81; 164 21; 
165 34; 166 11; 167 20; 168 17; 169 5; 
170 3; 171 1; 173 1; 176 4; 177 13; 
178 30; 179 79; 180 127; 181 222; 182 153; 
183 60; 184 17; 185 1; 186 2; 187 3; 
188 6; 189 6; 190 14; 191 11; 192 8; 
193 5; 194 2; 195 3; 201 1; 202 2; 
203 4; 204 24; 205 19; 206 38; 207 82; 
208 114; 209 90; 210 960; 211 151; 212 12; 
213 1; 214 6; 215 12; 216 10; 217 15; 
218 13; 219 35; 220 8; 221 10; 222 1; 
224 2; 228 3; 230 1; 236 1; 237 7; 
238 558; 239 100; 240 10; 241 6; 242 56; 
243 549; 244 476; 245 739; 246 224; 247 181; 
248 24; 249 2; 253 1; 257 2; 258 2; 
259 2; 260 1; 261 1; 268 1; 270 1; 
271 358; 272 307; 273 999; 274 238; 275 291; 
276 43; 277 4; 281 5; 282 2; 
