Name: Phentermine-d5
InChIKey: DHHVAGZRUROJKS-DKFMXDSJSA-N
Formula: C10H10D5N
MW: 154
ExactMass: 154.151834
CASNO: 1330236219
ID: 4345
Comment: Provided by www.caymanchem.com/app/template/landing%2CForensic.vm / Item #ISO60199
Num Peaks: 273
40 7; 41 75; 42 110; 43 32; 44 5; 
45 4; 46 2; 47 1; 48 1; 49 3; 
50 2; 51 8; 52 11; 53 8; 54 20; 
55 10; 56 10; 57 23; 58 999; 59 60; 
60 4; 61 3; 62 1; 63 2; 64 11; 
65 17; 66 16; 67 14; 68 56; 69 60; 
70 10; 71 2; 72 2; 73 3; 74 1; 
75 1; 76 3; 77 2; 78 4; 79 3; 
80 9; 81 11; 82 9; 83 8; 84 3; 
85 1; 86 2; 87 1; 88 1; 89 2; 
90 1; 91 5; 92 14; 93 20; 94 21; 
95 63; 96 222; 97 38; 98 4; 99 1; 
100 1; 101 1; 102 1; 103 2; 104 1; 
105 3; 106 4; 107 4; 108 5; 109 8; 
110 5; 111 1; 112 1; 113 1; 114 1; 
115 1; 116 2; 117 2; 118 17; 119 22; 
120 21; 121 28; 122 48; 123 10; 124 4; 
126 1; 127 1; 128 1; 129 1; 130 1; 
131 2; 132 2; 133 3; 134 4; 135 5; 
136 6; 137 21; 138 11; 139 78; 140 10; 
141 1; 142 2; 143 1; 145 1; 146 1; 
148 1; 149 1; 150 1; 151 1; 153 1; 
154 2; 155 1; 156 1; 157 1; 158 1; 
159 1; 160 1; 161 1; 162 1; 163 1; 
164 1; 165 1; 166 1; 167 1; 170 1; 
171 1; 173 1; 175 1; 176 1; 178 1; 
179 1; 181 1; 182 1; 183 1; 184 1; 
185 1; 186 1; 187 1; 189 1; 190 1; 
191 3; 192 1; 193 1; 194 2; 195 1; 
196 1; 197 1; 198 1; 199 1; 200 1; 
201 1; 203 1; 205 1; 206 1; 207 3; 
208 2; 209 1; 210 1; 213 1; 215 1; 
217 1; 221 1; 222 1; 223 1; 224 1; 
225 1; 227 1; 228 1; 229 1; 230 1; 
232 1; 233 1; 234 1; 235 1; 236 1; 
237 1; 238 1; 239 1; 241 1; 244 1; 
246 1; 247 1; 248 1; 249 1; 252 1; 
253 2; 254 1; 255 1; 256 1; 257 2; 
260 1; 261 1; 263 1; 265 1; 267 1; 
269 1; 275 1; 276 1; 277 1; 280 1; 
281 2; 282 1; 283 1; 285 1; 295 1; 
296 1; 298 1; 301 1; 305 1; 306 1; 
310 1; 313 1; 314 1; 317 1; 318 1; 
321 1; 323 1; 324 1; 326 1; 331 1; 
332 1; 334 1; 336 1; 339 1; 341 1; 
342 1; 343 1; 344 1; 346 1; 354 1; 
356 1; 359 1; 360 1; 361 2; 381 1; 
384 1; 385 1; 387 1; 394 1; 396 1; 
403 1; 404 1; 407 1; 409 1; 417 1; 
418 1; 421 1; 423 1; 433 1; 434 1; 
435 1; 444 1; 445 1; 451 1; 452 1; 
453 1; 455 1; 464 1; 470 1; 475 1; 
490 1; 496 1; 497 1; 507 1; 514 1; 
515 1; 526 1; 530 1; 535 1; 549 1; 
552 1; 554 1; 599 1; 
