Name: FUB-AKB48
Synon: 1-(4-fluorobenzyl)-N-tricyclo[3.3.1.1^3,7]dec-1-yl)-1H-indazole-3-carboxamide
Synon: AKB48 N-4-(fluorobenzyl) analogue
Synon: N-((3s,5s,7s)-adamantan-1-yl)-1-(4-fluorobenzyl)-1H-indazole-3-carboxamide
InChIKey: MWBHSNBPUSKVDD-UHFFFAOYSA-N
Formula: C25H26FN3O
MW: 403
ExactMass: 403.20599
CASNO: 0
ID: 4346
Comment: DEA SFL1 Lot # RM-131029-01 / SWGDRUG Monograph available
Num Peaks: 165
35 1; 36 6; 38 2; 39 12; 40 2; 
41 28; 42 5; 43 3; 44 2; 50 2; 
51 5; 52 2; 53 10; 54 5; 55 16; 
56 5; 57 8; 58 8; 59 4; 62 3; 
63 7; 64 1; 65 9; 66 6; 67 23; 
68 3; 69 3; 70 3; 75 5; 76 5; 
77 36; 78 9; 79 41; 80 10; 81 15; 
82 4; 83 49; 84 2; 87 2; 88 19; 
89 16; 90 19; 91 54; 92 38; 93 73; 
94 45; 95 12; 96 5; 101 1; 102 14; 
103 9; 104 8; 105 16; 106 10; 107 24; 
108 23; 109 999; 110 79; 111 2; 115 3; 
116 2; 117 9; 118 7; 119 9; 120 6; 
121 2; 122 4; 123 1; 124 1; 128 1; 
129 10; 130 3; 131 31; 132 5; 133 7; 
134 7; 135 31; 136 13; 137 1; 143 1; 
144 4; 145 71; 146 7; 147 1; 148 2; 
149 3; 150 191; 151 22; 152 2; 156 1; 
157 1; 159 1; 168 1; 169 2; 170 3; 
171 2; 172 1; 176 2; 177 2; 183 1; 
194 1; 195 2; 196 4; 197 2; 198 5; 
199 1; 200 17; 201 2; 205 1; 207 1; 
208 1; 209 1; 210 1; 211 1; 223 7; 
224 4; 225 9; 226 2; 227 5; 236 1; 
238 1; 239 1; 240 8; 241 1; 249 12; 
250 3; 251 36; 252 9; 253 240; 254 42; 
255 4; 266 13; 267 3; 268 1; 269 4; 
270 1; 277 2; 281 3; 282 1; 294 178; 
295 36; 296 4; 308 1; 309 1; 310 2; 
318 31; 319 7; 320 1; 334 2; 346 26; 
347 6; 348 1; 358 28; 359 9; 360 6; 
361 1; 362 1; 374 2; 375 106; 376 28; 
377 3; 402 1; 403 84; 404 24; 405 3; 
