Name: FUB-AMB
Synon: Methyl-(1-(4-fluorobenzyl)-1H-indazole-3-carbonyl)-L-valinate
Synon: AMB-FUBINACA
InChIKey: FRFFLYJQPCIIQB-GOSISDBHSA-N
Formula: C21H22FN3O3
MW: 383
ExactMass: 383.16452
CASNO: 0
ID: 4350
Comment: Provided by www.caymanchem.com/app/template/landing%2CForensic.vm / Item #9001960  Lot #0459329 / SWGDRUG Monograph available
Num Peaks: 172
41 42; 42 7; 43 66; 44 6; 45 2; 
50 3; 51 6; 52 2; 53 2; 54 3; 
55 13; 56 13; 57 10; 58 1; 59 43; 
60 2; 61 1; 62 12; 63 16; 64 3; 
65 2; 66 1; 68 2; 69 5; 70 17; 
71 23; 72 4; 73 7; 74 4; 75 16; 
76 15; 77 13; 78 3; 81 5; 82 3; 
83 130; 84 7; 85 1; 86 2; 87 9; 
88 79; 89 37; 90 35; 91 6; 92 1; 
94 2; 95 11; 96 11; 97 1; 98 6; 
99 1; 100 1; 101 2; 102 33; 103 18; 
104 12; 105 8; 106 1; 107 25; 108 13; 
109 999; 110 137; 111 4; 112 1; 114 2; 
115 3; 116 3; 117 12; 118 7; 119 2; 
121 2; 122 7; 123 1; 124 1; 125 1; 
126 1; 128 1; 129 26; 130 25; 131 14; 
132 2; 133 1; 134 1; 135 2; 139 1; 
143 2; 144 6; 145 152; 146 16; 147 2; 
149 1; 150 1; 151 2; 152 1; 156 1; 
157 2; 158 1; 159 2; 160 1; 168 1; 
169 5; 170 8; 171 3; 172 15; 173 6; 
174 2; 175 3; 176 4; 177 6; 178 2; 
180 1; 183 1; 185 1; 186 1; 194 3; 
195 6; 196 13; 197 11; 198 6; 199 2; 
200 5; 203 1; 205 4; 207 3; 208 1; 
214 6; 215 10; 216 3; 223 30; 224 16; 
225 39; 226 12; 227 2; 228 1; 235 1; 
237 1; 240 1; 242 4; 250 1; 251 9; 
253 997; 254 237; 255 22; 256 1; 266 4; 
267 5; 269 208; 270 35; 271 3; 274 106; 
275 17; 276 1; 281 9; 282 1; 308 1; 
309 3; 310 1; 322 1; 324 477; 325 95; 
326 10; 327 1; 336 1; 340 9; 341 10; 
342 1; 351 4; 352 3; 368 1; 383 38; 
384 8; 385 1; 
