Name: AKB57
Synon: APINAC
Synon: Adamantyl-1-pentyl-1H-indazole-3-carboxylate
InChIKey: KCCVWUAAHDXNNQ-UHFFFAOYSA-N
Formula: C23H30N2O2
MW: 366
ExactMass: 366.230728
CASNO: 0
ID: 4351
Comment: Forensic Chemistry QHFSS / Griffith University
Num Peaks: 156
38 1; 39 24; 40 5; 41 72; 42 7; 
43 35; 44 2; 50 2; 51 8; 52 4; 
53 20; 54 6; 55 51; 56 24; 57 5; 
62 3; 63 5; 64 3; 65 18; 66 11; 
67 74; 68 11; 69 19; 70 1; 71 1; 
75 7; 76 17; 77 93; 78 41; 79 201; 
80 26; 81 57; 82 4; 87 2; 88 28; 
89 20; 90 48; 91 125; 92 238; 93 237; 
94 21; 95 10; 96 1; 101 2; 102 39; 
103 95; 104 35; 105 46; 106 24; 107 86; 
108 8; 109 2; 115 4; 116 7; 117 36; 
118 13; 119 55; 120 6; 121 1; 127 1; 
128 5; 129 44; 130 36; 131 87; 132 22; 
133 14; 134 116; 135 999; 136 110; 137 5; 
142 2; 143 9; 144 27; 145 337; 146 37; 
147 4; 150 2; 151 1; 154 1; 155 2; 
156 17; 157 16; 158 12; 159 11; 160 5; 
162 46; 163 4; 168 1; 169 2; 170 9; 
171 30; 172 7; 173 14; 175 182; 176 66; 
177 7; 183 2; 184 1; 185 12; 186 9; 
187 160; 188 38; 189 6; 190 1; 195 3; 
199 6; 200 2; 201 3; 202 3; 203 10; 
204 1; 207 2; 209 1; 213 19; 215 375; 
216 58; 217 8; 218 1; 229 3; 231 520; 
232 95; 233 33; 234 4; 238 2; 239 1; 
245 1; 251 13; 252 11; 253 2; 265 59; 
266 47; 267 9; 268 1; 277 3; 278 1; 
279 6; 280 1; 281 3; 282 1; 295 102; 
296 25; 297 3; 307 2; 309 46; 310 25; 
311 5; 320 4; 321 23; 322 246; 323 62; 
324 7; 337 1; 338 3; 366 167; 367 44; 
368 6; 
