Name: Phenazepam-d4
InChIKey: CGMJQQJSWIRRRL-RHQRLBAQSA-N
Formula: C15H6D4BrClN2O
MW: 352
ExactMass: 351.99161
CASNO: 1184980424
ID: 4352
Comment: Provided by www.caymanchem.com/app/template/landing%2CForensic.vm / Item #16198  Lot #0467634
Num Peaks: 300
40 11; 41 32; 42 89; 43 14; 45 11; 
47 2; 48 2; 49 5; 50 77; 51 139; 
52 173; 53 68; 54 83; 55 14; 56 8; 
57 6; 58 1; 59 3; 60 2; 61 22; 
62 96; 63 215; 64 118; 65 95; 66 63; 
67 16; 68 7; 69 10; 70 8; 71 7; 
72 3; 73 25; 74 76; 75 218; 76 245; 
77 461; 78 386; 79 67; 80 75; 81 32; 
82 47; 83 41; 84 29; 85 21; 86 28; 
87 86; 88 81; 89 129; 90 197; 91 134; 
92 23; 93 96; 94 39; 95 69; 96 24; 
97 20; 98 21; 99 72; 100 69; 101 99; 
102 130; 103 189; 104 380; 105 342; 106 133; 
107 22; 108 23; 109 68; 110 26; 111 33; 
112 41; 113 35; 114 39; 115 94; 116 64; 
117 99; 118 41; 119 56; 120 79; 121 31; 
122 124; 123 76; 124 12; 125 37; 126 36; 
127 59; 128 62; 129 174; 130 111; 131 82; 
132 58; 133 12; 135 24; 137 64; 138 13; 
139 9; 140 54; 141 100; 142 126; 143 85; 
144 97; 145 70; 146 2; 147 6; 148 8; 
149 1; 150 13; 151 20; 152 80; 153 211; 
154 354; 155 300; 156 215; 157 96; 158 51; 
159 5; 161 3; 162 8; 163 24; 164 42; 
165 34; 166 80; 167 122; 168 84; 169 38; 
170 29; 171 9; 172 3; 173 2; 174 1; 
175 3; 176 6; 177 39; 178 53; 179 113; 
180 220; 181 439; 182 364; 183 226; 184 143; 
185 20; 186 3; 187 6; 188 7; 189 7; 
190 14; 191 15; 192 20; 193 14; 194 39; 
195 60; 196 61; 197 28; 198 3; 199 3; 
200 3; 201 7; 202 13; 203 19; 204 10; 
205 17; 206 17; 207 165; 208 131; 209 366; 
210 209; 211 54; 212 28; 213 11; 214 11; 
215 14; 216 54; 217 50; 218 63; 219 31; 
220 26; 221 7; 222 11; 223 15; 224 5; 
225 9; 226 2; 227 2; 228 3; 229 3; 
230 5; 231 51; 232 9; 233 18; 234 7; 
235 11; 236 21; 237 25; 238 111; 239 30; 
240 6; 241 5; 242 61; 243 82; 244 79; 
245 81; 246 32; 247 19; 248 8; 249 8; 
251 1; 252 1; 253 37; 254 11; 255 3; 
256 2; 257 16; 258 7; 259 9; 260 16; 
261 23; 262 62; 263 18; 264 46; 266 4; 
267 3; 268 6; 269 10; 270 5; 271 19; 
272 26; 273 42; 274 28; 275 18; 276 8; 
277 7; 279 1; 284 1; 285 9; 286 30; 
287 48; 288 68; 289 203; 290 82; 291 168; 
292 36; 293 7; 294 2; 295 29; 296 18; 
297 48; 298 27; 299 16; 300 10; 301 9; 
302 2; 303 9; 304 1; 305 1; 308 1; 
309 3; 310 16; 311 14; 312 17; 313 5; 
314 9; 315 66; 316 45; 317 816; 318 200; 
319 774; 320 132; 321 16; 323 696; 324 523; 
325 999; 326 603; 327 380; 328 173; 329 44; 
330 2; 331 14; 332 6; 333 1; 334 3; 
335 5; 336 13; 337 4; 338 14; 339 4; 
340 5; 343 2; 344 3; 346 1; 347 1; 
348 3; 350 333; 351 103; 352 932; 353 224; 
354 767; 355 144; 356 168; 357 34; 358 3; 
