Name: ALEPH-4
Synon: 2,5-Dimethoxy-4-iso-propylthioamphetamine
Synon: 2,5-Dimethoxy-.alpha.-methyl-4-[(1-methylethyl)thio]-benzeneethanamine
InChIKey: BCWCXWKCQMBFBQ-UHFFFAOYSA-N
Formula: C14H23NO2S
MW: 269
ExactMass: 269.14495
CASNO: 123643265
ID: 4353
Comment: Provided by www.caymanchem.com/app/template/landing%2CForensic.vm / Item #17283
Num Peaks: 165
40 3; 41 69; 42 44; 43 72; 44 846; 
45 35; 46 1; 47 2; 50 2; 51 7; 
52 3; 53 12; 54 2; 55 3; 56 2; 
57 6; 58 5; 59 9; 60 1; 61 1; 
62 1; 63 9; 64 5; 65 23; 66 13; 
67 12; 68 3; 69 15; 70 7; 71 6; 
72 1; 73 3; 74 1; 75 7; 76 4; 
77 36; 78 21; 79 26; 80 7; 81 5; 
82 5; 83 4; 84 6; 85 22; 86 2; 
87 3; 89 8; 90 7; 91 43; 92 12; 
93 14; 94 8; 95 10; 96 11; 97 28; 
98 5; 99 3; 101 1; 102 2; 103 4; 
104 5; 105 17; 106 9; 107 11; 108 20; 
109 26; 110 34; 111 14; 112 3; 113 1; 
115 4; 116 2; 117 5; 118 7; 119 7; 
120 6; 121 45; 122 31; 123 26; 124 9; 
125 25; 126 7; 127 3; 128 1; 130 2; 
131 4; 132 6; 133 6; 134 8; 135 11; 
136 10; 137 19; 138 42; 139 15; 140 18; 
141 9; 142 1; 145 1; 146 5; 147 9; 
148 9; 149 9; 150 8; 151 20; 152 20; 
153 117; 154 16; 155 13; 156 1; 160 1; 
161 7; 162 9; 163 9; 164 9; 165 6; 
166 3; 167 12; 168 7; 169 177; 170 19; 
171 9; 172 1; 176 2; 177 3; 178 7; 
179 10; 180 5; 181 22; 182 12; 183 285; 
184 277; 185 40; 186 14; 187 1; 191 1; 
192 2; 193 4; 194 5; 195 10; 196 6; 
197 2; 207 1; 209 2; 210 8; 211 35; 
212 8; 213 2; 222 1; 224 3; 226 999; 
227 135; 228 55; 229 6; 236 2; 237 1; 
238 1; 239 1; 252 3; 253 3; 254 3; 
267 1; 268 2; 269 29; 270 6; 271 2; 
