Name: TH-PVP
Synon: 3',4'-Tetramethylene-.alpha.-PVP
Synon: 2-(pyrrolidin-1-yl)-1-(5,6,7,8-tetrahydronaphthalen-2-yl)pentan-1-one
Synon: 3,4-Tetramethylene-.alpha.-Pyrrolidinovalerophenone
InChIKey: MMIKQWIZKBYLKZ-UHFFFAOYSA-N
Formula: C19H27NO
MW: 285
ExactMass: 285.209265
CASNO: 0
ID: 4356
Comment: Provided by www.caymanchem.com/app/template/landing%2CForensic.vm / Item 17955 / SWGDRUG Monograph available
Num Peaks: 97
41 28; 42 30; 43 8; 44 2; 50 1; 
51 4; 52 2; 53 9; 54 12; 55 34; 
56 11; 57 3; 63 5; 64 1; 65 5; 
66 1; 67 4; 68 13; 69 28; 70 21; 
71 2; 72 2; 73 1; 74 1; 75 2; 
76 3; 77 24; 78 5; 79 3; 80 5; 
81 3; 82 6; 83 2; 84 31; 85 2; 
89 5; 90 2; 91 60; 92 5; 93 1; 
94 4; 95 2; 96 39; 97 28; 98 10; 
99 1; 101 1; 102 9; 103 13; 104 5; 
105 3; 106 1; 108 2; 110 33; 111 3; 
114 1; 115 39; 116 29; 117 5; 118 1; 
122 2; 123 1; 124 24; 125 10; 126 999; 
127 106; 128 29; 129 28; 130 8; 131 15; 
132 3; 141 2; 143 2; 144 1; 145 3; 
152 1; 153 1; 154 1; 155 1; 156 1; 
157 2; 158 1; 159 37; 160 5; 165 1; 
171 1; 174 3; 185 1; 187 1; 207 1; 
214 2; 216 1; 240 1; 242 4; 281 1; 
283 2; 284 1; 
