Name: .alpha.-Pyrrolidinononanophenone
Synon: PV-10
Synon: .alpha.-PNP
Synon: 1-Phenyl-2-(1-pyrrolidinyl)-1-nonanone
InChIKey: RYJXAZXFWIWTOJ-UHFFFAOYSA-N
Formula: C19H29NO
MW: 287
ExactMass: 287.224915
CASNO: 0
ID: 4360
Comment: Provided by www.caymanchem.com/app/template/landing%2CForensic.vm / Item 17138
Num Peaks: 90
41 49; 42 21; 43 31; 44 3; 50 3; 
51 17; 52 2; 53 4; 54 13; 55 28; 
56 13; 57 4; 65 2; 66 1; 67 6; 
68 16; 69 39; 70 23; 71 2; 72 2; 
73 1; 74 1; 75 1; 76 4; 77 106; 
78 11; 79 3; 80 4; 81 4; 82 7; 
83 4; 84 42; 85 2; 89 1; 91 11; 
92 1; 93 1; 94 5; 95 2; 96 54; 
97 30; 98 15; 99 1; 102 1; 103 2; 
104 2; 105 73; 106 7; 107 1; 108 3; 
109 1; 110 84; 111 7; 115 4; 116 1; 
117 3; 118 1; 120 7; 121 1; 122 1; 
124 4; 127 1; 128 2; 129 1; 130 1; 
131 2; 132 1; 133 2; 136 1; 138 4; 
145 1; 146 1; 152 2; 154 2; 159 1; 
160 7; 170 1; 178 4; 180 19; 181 1; 
182 999; 183 156; 184 11; 185 1; 186 3; 
187 1; 188 12; 189 2; 214 6; 286 2; 
