Name: UWA-101
InChIKey: DNROCNZQNQSVOG-UHFFFAOYSA-N
Synon: .alpha.-Cyclopropyl-N-methyl-1,3-benzodioxole-5-ethanamine
Synon: .alpha.-cyclopropyl-MDMA
Formula: C13H17NO2
MW: 219
ExactMass: 219.125929
CASNO: 1431520523
ID: 4361
Comment: Provided by www.caymanchem.com/app/template/landing%2CForensic.vm / Item #15433
Num Peaks: 89
41 24; 42 156; 43 9; 44 12; 50 9; 
51 43; 52 8; 53 13; 54 10; 55 20; 
56 11; 57 4; 58 1; 62 5; 63 15; 
64 4; 65 12; 66 4; 67 8; 68 35; 
69 45; 70 10; 74 4; 75 5; 76 9; 
77 90; 78 21; 79 17; 80 5; 81 1; 
82 22; 83 3; 84 999; 85 58; 86 2; 
87 1; 89 27; 90 2; 91 10; 92 3; 
93 1; 94 1; 102 5; 103 7; 104 4; 
105 20; 106 6; 107 3; 115 10; 116 4; 
117 3; 118 3; 119 1; 120 5; 121 4; 
122 1; 127 2; 128 5; 129 4; 130 2; 
131 5; 132 2; 133 1; 134 3; 135 117; 
136 17; 137 1; 143 1; 144 1; 145 1; 
146 1; 147 7; 148 7; 149 1; 157 1; 
159 1; 160 2; 161 1; 162 1; 163 1; 
173 1; 176 3; 177 1; 178 7; 179 1; 
187 1; 188 2; 190 2; 217 2; 
