Name: 2-Furanyl fentanyl
Synon: Fu-F
Synon: N-phenyl-N-[1-(2-phenylethyl)-4-piperidinyl]-2-furancarboxamide
Synon: Furanyl fentanyl
Synon: N-(1-phenethylpiperidin-4-yl)-N-phenylfuran-2-carboxamide
InChIKey: FZJVHWISUGFFQV-UHFFFAOYSA-N
Formula: C24H26N2O2
MW: 374
ExactMass: 374.199429
CASNO: 101365564
ID: 4364
Comment: Provided by www.caymanchem.com/app/template/landing%2CForensic.vm / Item# 18705 / SWGDRUG Monograph available
Num Peaks: 175
40 1; 41 38; 42 134; 43 18; 44 42; 
45 1; 49 1; 50 10; 51 35; 52 12; 
53 13; 54 11; 55 25; 56 16; 57 10; 
58 2; 61 1; 62 4; 63 18; 64 12; 
65 73; 66 11; 67 46; 68 29; 69 24; 
70 29; 71 3; 73 19; 74 6; 75 5; 
76 8; 77 139; 78 35; 79 50; 80 12; 
81 16; 82 21; 83 5; 84 6; 85 1; 
87 1; 89 12; 90 8; 91 189; 92 30; 
93 19; 94 28; 95 999; 96 227; 97 23; 
98 22; 99 1; 101 1; 102 8; 103 50; 
104 69; 105 149; 106 19; 107 2; 108 1; 
109 3; 110 2; 114 1; 115 15; 116 6; 
117 22; 118 30; 119 17; 120 6; 121 4; 
124 1; 126 4; 127 2; 128 5; 129 4; 
130 70; 131 37; 132 56; 133 14; 134 5; 
135 11; 136 1; 137 14; 138 7; 139 4; 
142 4; 143 6; 144 18; 145 8; 146 14; 
147 7; 148 4; 149 1; 152 1; 153 1; 
154 2; 155 2; 156 6; 157 2; 158 142; 
159 26; 160 18; 161 3; 163 1; 164 1; 
165 1; 166 1; 167 2; 168 2; 169 1; 
170 50; 171 14; 172 5; 173 1; 176 1; 
177 1; 182 2; 183 1; 184 12; 185 11; 
186 25; 187 129; 188 37; 189 5; 190 1; 
191 2; 192 1; 193 6; 194 1; 195 3; 
196 1; 197 2; 198 2; 199 1; 207 17; 
208 3; 209 3; 210 8; 211 2; 212 32; 
213 5; 221 2; 240 406; 241 69; 242 7; 
251 1; 253 15; 254 4; 255 3; 265 1; 
267 2; 268 1; 269 1; 279 7; 281 11; 
283 816; 284 158; 285 18; 286 1; 313 1; 
315 1; 325 1; 326 1; 327 4; 328 1; 
329 1; 331 3; 332 1; 341 3; 342 1; 
343 2; 346 1; 355 1; 372 3; 373 1; 
