Name: Clonazolam
Synon: 6-(2-Chlorophenyl)-1-methyl-8-nitro-4H-[1,2,4]triazolo[4,3-a][1,4]benzodiazepine
InChIKey: XJRGLCAWBRZUFC-UHFFFAOYSA-N
Formula: C17H12ClN5O2
MW: 353
ExactMass: 353.067953
CASNO: 33887024
ID: 4365
Comment: Provided by www.caymanchem.com/app/template/landing%2CForensic.vm / Item #18173 / SWGDRUG Monograph available
Num Peaks: 320
40 61; 41 73; 42 76; 43 22; 44 37; 
45 13; 46 15; 47 5; 48 5; 49 8; 
50 101; 51 119; 52 31; 53 17; 54 22; 
55 9; 56 8; 57 8; 58 3; 59 10; 
60 4; 61 13; 62 86; 63 132; 64 64; 
65 60; 66 30; 67 14; 68 12; 69 11; 
70 6; 71 4; 72 8; 73 79; 74 161; 
75 705; 76 227; 77 165; 78 103; 79 39; 
80 23; 81 12; 82 8; 83 8; 84 3; 
85 38; 86 39; 87 83; 88 129; 89 207; 
90 33; 91 31; 92 20; 93 9; 94 13; 
95 8; 96 60; 97 24; 98 41; 99 74; 
100 81; 101 246; 102 489; 103 120; 104 22; 
105 22; 106 12; 107 4; 108 7; 109 10; 
110 46; 111 179; 112 24; 113 94; 114 79; 
115 125; 116 51; 117 73; 118 16; 119 5; 
120 7; 121 9; 122 14; 123 47; 124 23; 
125 106; 126 32; 127 58; 128 35; 129 70; 
130 31; 131 9; 132 5; 133 35; 134 12; 
135 18; 136 44; 137 141; 138 89; 139 96; 
140 48; 141 28; 142 177; 143 16; 144 16; 
145 9; 146 4; 147 37; 148 15; 149 139; 
150 114; 151 100; 152 39; 153 33; 154 11; 
155 10; 156 15; 157 3; 158 7; 159 39; 
160 15; 161 31; 162 43; 163 101; 164 86; 
165 40; 166 17; 167 10; 168 18; 169 6; 
170 14; 171 3; 172 3; 173 14; 174 31; 
175 122; 176 243; 177 277; 178 78; 179 22; 
180 3; 181 5; 182 2; 183 4; 184 4; 
185 8; 186 10; 187 11; 188 117; 189 31; 
190 75; 191 133; 192 80; 193 28; 194 14; 
195 8; 196 5; 197 15; 198 18; 199 18; 
200 14; 201 71; 202 153; 203 776; 204 269; 
205 71; 206 13; 207 21; 208 4; 209 15; 
210 4; 211 18; 212 16; 213 22; 214 16; 
215 18; 216 24; 217 12; 218 27; 219 93; 
220 30; 221 6; 222 3; 223 3; 224 14; 
225 5; 226 15; 227 9; 228 10; 229 12; 
230 92; 231 75; 232 32; 233 11; 234 2; 
235 2; 236 6; 237 68; 238 97; 239 85; 
240 52; 241 23; 242 29; 243 27; 244 139; 
245 17; 246 8; 247 4; 248 3; 249 717; 
250 143; 251 20; 252 29; 253 102; 254 44; 
255 23; 256 5; 257 4; 258 5; 259 15; 
260 8; 261 2; 262 2; 263 2; 264 25; 
265 30; 266 33; 267 23; 268 10; 269 24; 
270 4; 271 14; 272 43; 273 3; 274 3; 
275 2; 276 5; 277 10; 278 238; 279 108; 
280 49; 281 64; 282 20; 283 18; 284 9; 
285 9; 286 7; 287 4; 288 4; 289 2; 
290 116; 291 22; 292 7; 293 4; 294 24; 
295 10; 296 18; 297 3; 298 4; 299 28; 
300 7; 301 8; 302 3; 303 1; 304 1; 
305 1; 306 87; 307 18; 308 25; 309 10; 
310 4; 311 4; 312 2; 313 6; 314 1; 
315 2; 316 2; 317 2; 318 12; 319 2; 
320 2; 321 2; 322 1; 323 28; 324 999; 
325 327; 326 364; 327 117; 328 10; 329 5; 
330 2; 331 3; 332 3; 333 3; 334 1; 
335 3; 336 50; 337 17; 338 20; 339 3; 
340 2; 341 9; 342 3; 343 7; 344 3; 
345 1; 346 7; 347 3; 348 1; 349 1; 
350 1; 351 1; 352 1; 353 562; 354 90; 
355 203; 356 45; 357 3; 358 2; 359 1; 
