Name: 7-Methoxy-DiPT
Synon: 7-Methoxy-N,N-diisopropyltryptamine
InChIKey: CYDOUMFFIKOFBJ-UHFFFAOYSA-N
Formula: C17H26N2O
MW: 274
ExactMass: 274.204514
CASNO: 0
ID: 4366
Comment: Provided by www.caymanchem.com/app/template/landing%2CForensic.vm / Item 18313
Num Peaks: 106
40 1; 41 54; 42 22; 43 80; 44 7; 
50 1; 51 4; 52 2; 53 1; 54 2; 
55 3; 56 35; 57 8; 58 5; 62 2; 
63 7; 64 1; 65 2; 68 2; 69 1; 
70 23; 71 7; 72 203; 73 14; 74 3; 
75 5; 76 6; 77 13; 78 4; 79 1; 
80 1; 84 4; 85 1; 86 5; 87 3; 
88 2; 89 22; 90 20; 91 5; 92 1; 
98 4; 99 1; 100 6; 101 7; 102 14; 
103 13; 104 5; 105 1; 109 1; 112 3; 
113 4; 114 999; 115 90; 116 13; 117 52; 
118 12; 119 1; 127 2; 128 12; 129 15; 
130 48; 131 15; 132 3; 133 2; 135 2; 
140 1; 141 2; 142 5; 143 9; 144 3; 
145 100; 146 16; 147 4; 148 1; 156 3; 
157 1; 158 21; 159 24; 160 150; 161 24; 
162 3; 170 1; 172 3; 173 12; 174 42; 
175 5; 184 1; 185 1; 186 1; 187 1; 
188 2; 189 1; 191 1; 198 1; 199 1; 
207 1; 209 1; 215 1; 216 2; 229 1; 
243 1; 253 2; 257 3; 259 1; 272 1; 
274 3; 
