Name: 25B-NBOH
Synon: 2-[[[2-(4-bromo-2,5-dimethoxyphenyl)ethyl]amino]methyl]-phenol
InChIKey: RSUNJYKZRKIBNB-UHFFFAOYSA-N
Formula: C17H20BrNO3
MW: 365
ExactMass: 365.062656
CASNO: 1539266164
ID: 4368
Comment: Provided by www.caymanchem.com/app/template/landing%2CForensic.vm / Item #18328
Num Peaks: 225
41 11; 42 20; 43 19; 44 5; 45 8; 
47 1; 48 1; 49 1; 50 46; 51 70; 
52 18; 53 90; 54 5; 55 4; 56 1; 
57 4; 58 1; 59 2; 60 2; 61 8; 
62 31; 63 92; 64 40; 65 73; 66 27; 
67 29; 68 4; 69 7; 70 1; 72 1; 
73 4; 74 38; 75 63; 76 55; 77 288; 
78 86; 79 86; 80 52; 81 20; 82 39; 
85 2; 86 9; 87 8; 88 9; 89 64; 
90 64; 91 139; 92 80; 93 54; 94 23; 
95 4; 96 3; 98 1; 99 1; 101 4; 
102 3; 103 14; 104 30; 105 153; 106 32; 
107 41; 108 62; 109 12; 110 1; 113 2; 
115 3; 116 7; 117 19; 118 10; 119 25; 
120 58; 121 78; 122 40; 123 12; 124 2; 
125 2; 128 2; 129 4; 130 3; 131 10; 
132 10; 133 26; 134 16; 135 19; 136 39; 
137 16; 138 2; 139 1; 140 2; 141 1; 
142 1; 143 52; 144 8; 145 32; 146 7; 
147 19; 148 31; 149 35; 150 40; 151 24; 
152 11; 153 4; 154 2; 155 14; 156 9; 
157 18; 158 10; 159 4; 160 1; 161 3; 
162 2; 163 5; 164 7; 165 8; 166 1; 
167 1; 168 3; 169 26; 170 11; 171 40; 
172 14; 173 17; 174 3; 175 4; 177 3; 
178 1; 179 4; 180 5; 181 3; 182 2; 
183 7; 184 16; 185 14; 186 42; 187 23; 
188 25; 189 10; 190 1; 191 1; 192 1; 
195 2; 196 2; 197 1; 198 1; 199 90; 
200 14; 201 96; 202 10; 203 6; 204 2; 
206 2; 207 6; 208 1; 209 4; 210 3; 
212 3; 213 5; 214 6; 215 215; 216 24; 
217 192; 218 24; 219 1; 223 2; 224 2; 
226 4; 227 10; 228 16; 229 77; 230 999; 
231 164; 232 921; 233 90; 234 8; 240 2; 
242 7; 243 4; 244 4; 245 2; 246 1; 
252 1; 253 1; 254 2; 255 4; 257 4; 
258 2; 259 77; 260 6; 261 112; 262 12; 
263 1; 264 1; 267 2; 268 1; 269 1; 
280 1; 281 2; 282 1; 284 1; 285 1; 
286 1; 288 1; 290 1; 307 1; 309 1; 
312 2; 316 1; 317 1; 319 1; 325 2; 
328 1; 330 1; 331 1; 341 3; 342 1; 
343 3; 345 1; 351 1; 355 1; 358 1; 
366 1; 378 1; 383 1; 390 1; 403 1; 
