Name: 6-Methoxy-Methylone
InChIKey: SONSUHOOEIVPFR-UHFFFAOYSA-N
Synon: 1-(6-Methoxybenzo[d][1,3]dioxol-5-yl)-2-(methylamino)propan-1-one
Synon: N-Methyl-bk-MMDA-2
Formula: C12H15NO4
MW: 237
ExactMass: 237.100108
CASNO: 0
ID: 4372
Comment: Provided by www.caymanchem.com/app/template/landing%2CForensic.vm / Item# 18029 / SWGDRUG Monograph available
Num Peaks: 113
41 9; 42 35; 43 17; 44 3; 49 2; 
50 20; 51 10; 52 8; 53 32; 54 6; 
55 12; 56 103; 57 21; 58 999; 59 41; 
60 1; 61 5; 62 17; 63 30; 64 7; 
65 64; 66 16; 67 3; 68 1; 69 16; 
70 1; 71 1; 73 1; 74 2; 75 3; 
76 3; 77 13; 78 16; 79 14; 80 6; 
81 2; 82 2; 87 1; 89 4; 90 3; 
91 16; 92 4; 93 17; 94 4; 95 3; 
96 1; 102 1; 103 1; 104 1; 105 1; 
106 4; 107 11; 108 5; 109 2; 117 1; 
118 2; 119 9; 120 9; 121 41; 122 5; 
123 3; 130 1; 131 1; 132 2; 133 3; 
134 7; 135 6; 136 11; 137 30; 138 4; 
146 3; 147 3; 148 2; 149 13; 150 6; 
151 8; 152 14; 153 2; 160 1; 161 1; 
162 2; 163 5; 164 39; 165 17; 166 3; 
174 5; 175 3; 176 3; 177 2; 178 3; 
179 127; 180 19; 181 3; 188 4; 189 7; 
190 9; 191 4; 192 3; 193 1; 194 2; 
204 20; 205 6; 206 3; 207 1; 208 11; 
209 1; 219 7; 220 1; 221 1; 222 1; 
235 1; 237 8; 238 1; 
