Name: EMB-FUBINACA
Synon: AEB-FUBINACA
Synon: FU-AEB
Synon: FUB-AEB
Synon: Ethyl (1-(4-fluorobenzyl)-1H-indazole-3-carbonyl)-L-valinate
InChIKey: YOECWCNJGHHTMN-UHFFFAOYSA-N
Formula: C22H24FN3O3
MW: 397
ExactMass: 397.18017
CASNO: 0
ID: 4373
Comment: Provided by www.caymanchem.com/app/template/landing%2CForensic.vm / 17449 / SWGDRUG Monograph available
Num Peaks: 131
40 1; 41 19; 42 4; 43 28; 44 6; 
45 3; 50 2; 51 4; 52 1; 53 1; 
54 1; 55 7; 56 8; 57 6; 59 5; 
62 5; 63 8; 64 1; 68 1; 69 3; 
70 9; 71 14; 72 5; 73 3; 74 2; 
75 7; 76 6; 77 6; 78 2; 81 2; 
82 2; 83 61; 84 3; 85 1; 86 1; 
87 4; 88 34; 89 17; 90 16; 91 3; 
94 1; 95 5; 96 6; 97 1; 98 3; 
100 1; 101 1; 102 18; 103 10; 104 6; 
105 4; 107 12; 108 7; 109 999; 110 75; 
111 2; 116 2; 117 6; 118 3; 119 1; 
121 1; 122 2; 123 1; 124 1; 128 1; 
129 14; 130 2; 131 7; 132 1; 133 1; 
135 1; 144 10; 145 77; 146 8; 147 1; 
151 1; 157 1; 159 1; 169 3; 170 4; 
171 2; 172 9; 173 4; 174 1; 175 1; 
176 2; 177 3; 194 1; 195 3; 196 8; 
197 6; 198 4; 200 3; 205 2; 207 3; 
208 1; 214 3; 215 7; 216 1; 223 18; 
224 10; 225 21; 226 7; 227 1; 242 2; 
251 5; 253 910; 254 154; 255 13; 256 1; 
266 1; 267 1; 269 101; 270 18; 271 1; 
281 3; 282 1; 288 29; 289 5; 309 2; 
324 406; 325 86; 326 9; 327 1; 336 1; 
351 2; 352 4; 354 4; 355 3; 397 17; 
398 4; 
