Name: Methoxmetamine
Synon: 3-MeO-2'-OxO-PCM
Synon: 3-Methoxy-2-oxo-PCM
Synon: MMXE
Synon: MXM
Synon: 2-(3-Methoxyphenyl)-2-(methylamino)-cyclohexanone
InChIKey: ZGQWDAOLJNAADS-UHFFFAOYSA-N
Formula: C14H19NO2
MW: 233
ExactMass: 233.141579
CASNO: 1781829568
ID: 4374
Comment: Provided by www.caymanchem.com/app/template/landing%2CForensic.vm / Item #17168
Num Peaks: 125
40 2; 41 31; 42 29; 43 3; 44 6; 
45 1; 50 6; 51 12; 52 7; 53 7; 
54 8; 55 16; 56 12; 57 3; 58 2; 
62 4; 63 22; 64 17; 65 24; 66 6; 
67 11; 68 17; 69 3; 70 10; 71 1; 
73 3; 74 4; 75 7; 76 14; 77 62; 
78 24; 79 17; 80 7; 81 2; 82 3; 
83 1; 84 1; 86 1; 88 12; 89 20; 
90 21; 91 74; 92 31; 93 8; 94 5; 
95 2; 96 3; 98 32; 99 3; 101 2; 
102 16; 103 34; 104 19; 105 33; 106 12; 
107 16; 108 6; 109 1; 114 1; 115 34; 
116 12; 117 23; 118 31; 119 32; 120 15; 
121 48; 122 6; 126 4; 127 4; 128 10; 
129 6; 130 15; 131 20; 132 46; 133 55; 
134 129; 135 19; 136 2; 141 3; 142 1; 
143 4; 144 19; 145 34; 146 121; 147 77; 
148 119; 149 13; 150 9; 156 1; 157 1; 
158 5; 159 7; 160 25; 161 36; 162 116; 
163 46; 164 5; 172 2; 173 3; 174 36; 
175 15; 176 999; 177 146; 178 10; 184 1; 
186 2; 187 1; 188 5; 189 3; 190 50; 
191 7; 192 1; 202 5; 203 1; 204 94; 
205 335; 206 47; 207 5; 214 2; 215 1; 
216 2; 217 1; 231 1; 233 8; 234 1; 
