Name: MMB-CHMICA
Synon: Methyl(1-(cyclohexylmethyl)-1H-indole-3-carbonyl-L-valinate
Synon: Methyl 2-{[1-(cyclohexylmethyl)-1H-indol-3-yl]formamido}-3-methylbutanoate
Synon: AMB-CHMICA
InChIKey: ROWZIXRLVUOMCJ-HXUWFJFHSA-N
Formula: C22H30N2O3
MW: 370
ExactMass: 370.225643
CASNO: 0
ID: 4375
Comment: Provided by www.caymanchem.com/app/template/landing%2CForensic.vm / Item #17984 / SWGDRUG Monograph available
Num Peaks: 171
40 1; 41 76; 42 9; 43 70; 44 6; 
45 1; 50 1; 51 3; 52 1; 53 9; 
54 5; 55 147; 56 13; 57 2; 59 26; 
60 2; 62 1; 63 2; 64 1; 65 4; 
66 1; 67 19; 68 4; 69 14; 70 5; 
72 4; 73 4; 74 3; 75 5; 76 5; 
77 14; 78 6; 79 6; 80 1; 81 7; 
82 2; 83 24; 84 2; 85 1; 87 1; 
88 8; 89 18; 90 3; 91 4; 93 2; 
95 6; 96 2; 97 15; 98 2; 101 13; 
102 42; 103 18; 104 2; 114 13; 115 40; 
116 53; 117 7; 118 9; 119 1; 126 1; 
127 3; 128 41; 129 127; 130 88; 131 15; 
132 3; 133 1; 135 1; 140 1; 141 2; 
142 5; 143 67; 144 378; 145 41; 146 2; 
153 1; 154 13; 155 15; 156 22; 157 58; 
158 25; 159 2; 160 5; 161 1; 166 1; 
167 8; 168 11; 169 4; 170 7; 171 5; 
172 1; 173 80; 174 52; 175 3; 179 1; 
180 3; 181 2; 182 6; 183 2; 184 8; 
185 3; 191 1; 192 1; 193 1; 194 2; 
195 1; 196 4; 197 2; 198 1; 199 1; 
207 11; 208 1; 209 5; 210 2; 211 7; 
212 21; 213 13; 214 6; 215 1; 227 11; 
228 12; 236 1; 237 1; 238 33; 240 999; 
241 179; 242 17; 243 1; 245 16; 246 1; 
252 1; 253 4; 254 6; 256 585; 257 107; 
258 10; 259 1; 265 1; 267 3; 268 10; 
269 3; 279 1; 281 3; 282 1; 287 30; 
288 6; 289 1; 293 1; 295 47; 296 14; 
297 2; 309 1; 311 23; 312 5; 323 14; 
324 1; 327 1; 328 13; 329 3; 336 1; 
337 3; 338 19; 339 11; 340 2; 341 1; 
352 4; 353 6; 354 1; 370 92; 371 24; 
372 3; 
