Name: 4-MAPB
Synon: 4-(2-Methylaminopropyl)benzofuran
InChIKey: FTXAAPPHMKXGSC-UHFFFAOYSA-N
Formula: C12H15NO
MW: 189
ExactMass: 189.115364
CASNO: 0
ID: 4376
Comment: Provided by www.caymanchem.com/app/template/landing%2CForensic.vm / Item #9002103  Lot #0461818 / SWGDRUG Monograph available
Num Peaks: 86
40 2; 41 9; 42 36; 43 16; 44 3; 
46 1; 47 1; 50 11; 51 26; 52 8; 
53 4; 54 4; 55 3; 56 79; 57 19; 
58 999; 59 40; 60 1; 61 2; 62 11; 
63 27; 64 3; 65 7; 66 2; 68 1; 
70 3; 72 3; 73 3; 74 9; 75 15; 
76 19; 77 104; 78 14; 79 2; 80 1; 
86 3; 87 4; 88 1; 89 13; 90 6; 
91 9; 92 1; 93 1; 94 1; 98 1; 
99 1; 101 6; 102 47; 103 21; 104 6; 
105 4; 106 1; 109 1; 113 1; 114 2; 
115 22; 116 5; 117 2; 118 7; 119 1; 
126 2; 127 9; 128 21; 129 17; 130 6; 
131 171; 132 21; 133 2; 139 1; 142 2; 
143 3; 144 5; 145 3; 147 1; 155 2; 
157 4; 158 10; 159 4; 160 1; 165 1; 
172 4; 173 2; 174 7; 187 3; 188 2; 
189 1; 
