Name: Prolintane
Synon: 1-(1-Benzylbutyl)pyrrolidine
Synon: Catovit
Synon: Promotil
Synon: Villescon
InChIKey: OJCPSBCUMRIPFL-UHFFFAOYSA-N
Formula: C15H23N
MW: 217
ExactMass: 217.18305
CASNO: 493925
ID: 4386
Comment: Provided by www.caymanchem.com/app/template/landing%2CForensic.vm / Item #11147
Num Peaks: 85
41 50; 42 43; 43 13; 44 2; 50 3; 
51 11; 52 4; 53 7; 54 22; 55 40; 
56 14; 57 3; 62 2; 63 9; 64 3; 
65 59; 66 5; 67 5; 68 18; 69 30; 
70 27; 71 1; 72 3; 75 1; 76 2; 
77 23; 78 24; 79 10; 80 8; 81 3; 
82 7; 83 2; 84 48; 85 2; 87 3; 
89 14; 90 7; 91 207; 92 21; 93 3; 
94 7; 95 4; 96 63; 97 41; 98 19; 
99 1; 102 5; 103 16; 104 13; 105 21; 
106 2; 108 1; 110 20; 111 2; 115 24; 
116 7; 117 25; 118 6; 119 1; 120 2; 
122 8; 123 1; 124 32; 125 6; 126 999; 
127 127; 128 10; 129 4; 130 10; 131 3; 
132 5; 143 1; 144 3; 145 1; 146 2; 
170 3; 172 7; 173 3; 174 98; 175 14; 
176 1; 186 2; 213 1; 215 1; 216 3; 
