Name: 3,4-Dichlormethylphenidate
Synon: 3,4-CTMP
Synon: 3,4-Dichloromethylphenidate
InChIKey: JUKMAYKVHWKRKY-UHFFFAOYSA-N
Formula: C14H17Cl2NO2
MW: 301
ExactMass: 301.063635
CASNO: 1400742688
ID: 4387
Comment: ENFSI / Tablets seized by Danish Customs. Dissolved in MeOH. Identified by GC-MS and LC-QTOF-MS
Num Peaks: 109
40 1; 42 2; 43 7; 44 17; 45 1; 
48 1; 49 7; 50 22; 51 16; 52 1; 
53 1; 55 1; 59 183; 60 8; 61 27; 
62 58; 63 95; 64 7; 65 2; 72 9; 
73 53; 74 19; 75 31; 76 2; 77 10; 
78 2; 80 15; 81 10; 83 4; 84 9; 
85 19; 86 27; 87 35; 88 14; 89 169; 
90 15; 91 5; 94 1; 95 1; 96 5; 
97 31; 98 5; 99 31; 100 2; 101 7; 
102 2; 103 8; 104 2; 105 3; 107 8; 
108 2; 109 11; 110 2; 111 10; 112 5; 
113 3; 114 1; 119 1; 120 1; 121 1; 
123 165; 124 126; 125 72; 126 41; 127 6; 
131 1; 133 37; 134 2; 135 21; 137 3; 
139 98; 140 11; 141 33; 142 3; 145 1; 
146 2; 147 2; 148 3; 149 1; 151 1; 
153 1; 155 3; 157 3; 159 999; 160 81; 
161 634; 162 49; 163 100; 164 7; 168 1; 
173 3; 174 1; 175 3; 176 2; 177 1; 
178 1; 183 1; 186 9; 187 7; 188 6; 
189 6; 190 1; 191 1; 218 305; 219 30; 
220 195; 221 19; 222 33; 223 3; 
