Name: 5-Fluoro-AMB metabolite 7
Synon: (1-(5-Fluoropentyl)-1H-indazole-3-carbonyl)-L-valine
Synon: 5F-AMB metabolite 7
InChIKey: FGTPKIQXNMGJLF-OAHLLOKOSA-N
Formula: C18H24FN3O3
MW: 349
ExactMass: 349.18017
CASNO: 0
ID: 4389
Comment: Provided by www.caymanchem.com/app/template/landing%2CForensic.vm / Item# 18545    inlet temperature 240deg C
Num Peaks: 294
41 215; 42 48; 43 113; 44 34; 45 27; 
46 34; 47 8; 48 1; 49 5; 50 10; 
51 22; 52 27; 53 11; 54 23; 55 53; 
56 40; 57 20; 58 19; 60 9; 61 1; 
62 15; 63 34; 64 17; 65 30; 66 12; 
67 24; 68 17; 69 57; 70 37; 71 78; 
72 655; 74 10; 75 54; 76 66; 77 80; 
78 51; 79 23; 80 7; 81 21; 82 12; 
83 7; 84 11; 85 11; 86 10; 87 9; 
88 125; 89 96; 90 117; 91 79; 92 29; 
93 15; 94 7; 95 6; 96 35; 97 24; 
98 11; 99 8; 100 3; 101 8; 102 66; 
103 186; 104 39; 106 9; 107 4; 108 4; 
109 16; 110 4; 111 11; 112 6; 113 8; 
114 8; 115 30; 116 23; 117 60; 118 39; 
120 15; 121 40; 122 7; 123 6; 124 5; 
125 25; 126 22; 127 18; 128 21; 129 81; 
130 41; 131 394; 132 88; 133 36; 134 34; 
135 86; 136 4; 137 32; 138 8; 139 10; 
140 4; 141 11; 142 8; 143 52; 144 21; 
145 600; 146 49; 148 31; 149 116; 150 18; 
151 20; 152 35; 153 22; 154 63; 155 23; 
156 178; 157 49; 158 64; 159 25; 160 12; 
161 28; 162 10; 163 148; 164 6; 165 78; 
166 23; 167 20; 168 8; 169 10; 170 8; 
171 61; 172 10; 173 14; 174 119; 175 59; 
176 27; 177 95; 178 25; 179 24; 180 11; 
181 6; 182 13; 183 6; 184 14; 185 29; 
186 10; 187 11; 188 8; 189 15; 190 7; 
192 37; 193 37; 194 21; 195 45; 196 26; 
197 177; 198 7; 199 18; 200 10; 201 20; 
202 14; 203 21; 204 8; 205 30; 206 2; 
208 12; 209 71; 210 41; 211 19; 212 7; 
213 96; 214 17; 215 11; 216 11; 217 7; 
218 8; 219 10; 220 7; 221 13; 222 18; 
223 9; 224 21; 225 12; 226 2; 227 4; 
228 16; 229 6; 230 6; 231 20; 232 12; 
233 999; 234 140; 235 25; 236 7; 237 14; 
238 13; 239 10; 240 9; 241 9; 242 5; 
243 7; 244 4; 245 3; 246 5; 247 28; 
248 9; 249 52; 250 39; 251 50; 252 28; 
253 152; 256 20; 257 24; 258 7; 259 5; 
260 6; 261 8; 262 29; 263 15; 264 3; 
266 17; 267 15; 268 11; 269 49; 270 60; 
271 28; 272 6; 273 6; 274 11; 275 7; 
276 6; 277 2; 278 2; 279 6; 280 3; 
283 79; 284 21; 285 19; 286 10; 287 6; 
288 8; 289 20; 290 15; 291 3; 292 2; 
293 5; 294 4; 295 12; 296 9; 297 20; 
298 4; 299 10; 300 5; 301 6; 302 5; 
303 42; 304 94; 305 197; 306 41; 307 10; 
308 1; 309 8; 310 2; 311 11; 312 19; 
313 25; 314 16; 315 25; 316 17; 317 18; 
318 3; 319 4; 320 2; 321 2; 322 1; 
323 17; 324 3; 326 82; 327 10; 328 22; 
330 19; 331 129; 332 28; 333 13; 334 12; 
335 5; 336 1; 337 2; 338 1; 339 11; 
340 1; 341 5; 344 46; 345 9; 346 8; 
347 34; 348 14; 349 11; 350 1; 
