Name: 5-Fluoro-CYPPICA
Synon: 5-Fluoro-AMP indole
Synon: N-(cyclopropylmethyl)-1-(5-fluoropentyl)-1H-indole-3-carboxamide
Synon: 5F-CYPPICA
InChIKey: ZBWTXQPFLUBXFN-UHFFFAOYSA-N
Formula: C18H23FN2O
MW: 302
ExactMass: 302.179441
CASNO: 0
ID: 4390
Comment: Provided by www.caymanchem.com/app/template/landing%2CForensic.vm / Item #17615
Num Peaks: 170
40 2; 41 70; 42 10; 43 25; 44 5; 
45 1; 46 1; 47 13; 50 1; 51 4; 
52 1; 53 10; 54 17; 55 24; 56 3; 
57 2; 59 6; 61 4; 62 3; 63 7; 
64 2; 65 3; 66 1; 67 4; 68 6; 
69 23; 70 13; 71 3; 72 1; 73 4; 
74 2; 75 11; 76 9; 77 18; 78 4; 
79 1; 82 1; 85 2; 86 1; 87 4; 
88 12; 89 41; 90 7; 91 4; 92 1; 
96 2; 99 1; 100 1; 101 19; 102 40; 
103 21; 104 4; 105 1; 106 1; 113 2; 
114 17; 115 59; 116 98; 117 20; 118 15; 
119 2; 126 1; 127 5; 128 45; 129 62; 
130 93; 131 20; 132 6; 133 3; 135 3; 
139 1; 140 2; 141 6; 142 17; 143 71; 
144 275; 145 32; 146 4; 147 2; 149 1; 
152 1; 153 1; 154 12; 155 50; 156 35; 
157 20; 158 15; 159 2; 160 1; 167 6; 
168 5; 169 4; 170 14; 171 18; 172 8; 
173 26; 174 5; 176 2; 177 1; 179 2; 
180 1; 181 3; 182 6; 183 6; 184 11; 
185 10; 186 3; 191 4; 192 1; 193 3; 
194 1; 195 3; 196 2; 197 5; 198 5; 
199 3; 200 2; 204 7; 205 23; 206 13; 
207 16; 208 1; 209 2; 210 2; 211 8; 
212 23; 213 3; 214 2; 216 1; 218 6; 
219 1; 225 2; 227 42; 228 8; 229 1; 
230 21; 231 111; 232 999; 233 177; 234 16; 
235 1; 244 5; 245 10; 246 8; 247 41; 
248 10; 249 2; 251 1; 253 7; 254 1; 
256 1; 257 3; 259 11; 260 6; 261 1; 
267 1; 271 16; 272 24; 273 97; 274 36; 
275 5; 281 7; 282 7; 283 2; 285 5; 
286 1; 287 1; 302 147; 303 31; 304 3; 
