Name: 3',4'-Methylenedioxy-N-tert-butylcathinone
Synon: MDPT
Synon: tBuONE
Synon: D-Tertylone
Synon: 1-(2H-1,3-benzodioxol-5-yl)-2-(tert-butylamino)propan-1-one
Synon: N-tert-butyl-3,4-methylenedioxycathinone
InChIKey: BFOZYEAQPUMNIY-UHFFFAOYSA-N
Formula: C14H19NO3
MW: 249
ExactMass: 249.136494
CASNO: 0
ID: 4392
Comment: Provided by www.caymanchem.com/app/template/landing%2CForensic.vm / Item# 18587 / SWGDRUG Monograph available
Num Peaks: 105
40 8; 41 125; 42 111; 43 21; 44 999; 
45 26; 49 1; 50 8; 51 14; 52 3; 
53 18; 54 4; 55 20; 56 18; 57 150; 
58 20; 60 1; 61 6; 62 36; 63 120; 
64 18; 65 184; 66 15; 67 3; 68 7; 
69 5; 70 38; 71 3; 72 1; 73 1; 
74 8; 75 3; 76 4; 77 11; 78 4; 
79 8; 80 1; 81 1; 82 4; 83 1; 
84 79; 85 30; 86 2; 89 6; 90 4; 
91 82; 92 14; 93 8; 94 1; 95 2; 
98 11; 99 4; 100 820; 101 57; 102 3; 
103 3; 104 1; 105 2; 106 1; 115 1; 
116 1; 117 5; 118 7; 119 24; 120 17; 
121 139; 122 17; 123 3; 131 1; 132 1; 
133 1; 134 2; 135 7; 136 1; 145 2; 
146 29; 147 16; 148 14; 149 254; 150 56; 
151 6; 160 1; 161 1; 162 3; 163 14; 
164 1; 174 7; 175 10; 176 5; 177 7; 
178 6; 186 1; 190 1; 192 1; 201 1; 
204 1; 206 10; 207 2; 216 4; 218 1; 
231 4; 234 50; 235 6; 236 1; 250 1; 
