Name: Deschloroketamine
Synon: 2-(methylamino)-2-phenylcyclohexan-1-one
InChIKey: ZAGBSZSITDFFAF-UHFFFAOYSA-N
Formula: C13H17NO
MW: 203
ExactMass: 203.131014
CASNO: 4631270
ID: 4394
Comment: DEA SWL / SWGDRUG Monograph available
Num Peaks: 88
39 12; 40 2; 41 13; 42 19; 43 1; 
44 6; 50 6; 51 22; 52 5; 53 3; 
54 6; 55 8; 56 7; 57 2; 58 2; 
62 2; 63 8; 64 2; 65 13; 66 3; 
67 4; 68 9; 69 1; 70 6; 71 3; 
72 6; 74 2; 75 4; 76 11; 77 99; 
78 17; 79 5; 82 1; 87 1; 88 1; 
89 14; 90 5; 91 72; 92 7; 96 1; 
98 21; 99 1; 101 1; 102 13; 103 45; 
104 130; 105 17; 106 2; 113 1; 114 1; 
115 67; 116 19; 117 120; 118 128; 119 13; 
120 9; 126 3; 127 5; 128 16; 129 13; 
130 24; 131 19; 132 122; 133 53; 134 4; 
141 2; 142 1; 143 5; 144 23; 145 17; 
146 999; 147 113; 148 6; 156 1; 157 1; 
158 3; 159 1; 160 32; 161 4; 172 3; 
173 1; 174 69; 175 187; 176 23; 177 1; 
200 1; 203 5; 204 1; 
