Name: Valeryl Fentanyl
Synon: N-phenyl-N-[1-(2-phenylethyl)piperidin-4-yl]pentanamide
Synon: Pentanoyl Fentanyl
InChIKey: VCCPXHWAJYWQMR-UHFFFAOYSA-N
Formula: C24H32N2O
MW: 364
ExactMass: 364.251463
CASNO: 117332919
ID: 4395
Comment: DEA SWL / SWGDRUG Monograph available
Num Peaks: 140
36 4; 37 2; 38 5; 39 47; 40 9; 
41 195; 42 263; 43 48; 44 185; 45 5; 
49 1; 50 12; 51 43; 52 17; 53 20; 
54 20; 55 85; 56 49; 57 340; 58 21; 
59 1; 62 2; 63 14; 64 9; 65 62; 
66 22; 67 35; 68 43; 69 44; 70 85; 
71 9; 72 1; 73 3; 74 3; 75 4; 
76 7; 77 198; 78 48; 79 86; 80 20; 
81 9; 82 43; 83 12; 84 22; 85 101; 
86 6; 87 1; 89 11; 90 7; 91 191; 
92 48; 93 360; 94 88; 95 37; 96 253; 
97 35; 98 13; 101 4; 102 6; 103 75; 
104 131; 105 399; 106 71; 107 7; 108 3; 
109 1; 110 2; 111 2; 112 2; 113 1; 
114 3; 115 13; 116 7; 117 46; 118 116; 
119 47; 120 27; 121 2; 122 2; 127 1; 
128 5; 129 4; 130 123; 131 93; 132 162; 
133 28; 134 28; 135 31; 136 3; 139 26; 
140 3; 141 2; 143 4; 144 24; 145 19; 
146 999; 147 111; 148 16; 149 2; 154 1; 
155 2; 156 3; 157 4; 158 41; 159 20; 
160 40; 161 6; 168 1; 170 1; 172 6; 
173 6; 174 2; 175 1; 177 23; 178 7; 
182 2; 184 12; 185 11; 186 38; 187 24; 
188 66; 189 589; 190 80; 191 5; 193 1; 
207 13; 208 1; 209 1; 229 1; 230 34; 
231 7; 244 4; 271 2; 272 3; 273 804; 
274 157; 275 17; 279 2; 281 3; 363 1; 
