Name: Myo-Inositol
InChIKey: CDAISMWEOUEBRE-UHFFFAOYSA-N
Formula: C6H12O6
MW: 180
ExactMass: 180.063388
CASNO: 87898
ID: 4396
Comment: Broward Sheriff Office Drug Library /  Sigma lot # 119H0192
Num Peaks: 48
30 8; 31 63; 32 58; 39 26; 40 7; 
41 24; 42 75; 43 97; 44 35; 45 53; 
47 14; 51 3; 53 6; 54 10; 55 48; 
56 9; 57 39; 58 7; 59 8; 60 233; 
61 38; 69 18; 70 3; 71 97; 72 50; 
73 999; 74 46; 75 14; 77 4; 81 4; 
83 6; 84 8; 85 6; 86 3; 87 3; 
89 20; 90 6; 91 16; 97 12; 98 4; 
101 4; 102 107; 103 13; 115 6; 131 4; 
144 7; 145 4; 147 3; 
