Name: p-Tosylamide
Synon: Benzenesulfonamide, 4-methyl-
Synon: p-Toluenesulfonamide
InChIKey: LMYRWZFENFIFIT-UHFFFAOYSA-N
Formula: C7H9NO2S
MW: 171
ExactMass: 171.035399
CASNO: 70553
ID: 4401
Comment: DEA SWL / breakdown from tolbutamide
Num Peaks: 69
40 11; 41 32; 42 2; 43 3; 44 1; 
45 7; 46 8; 47 2; 48 12; 49 3; 
50 47; 51 74; 52 25; 53 20; 55 1; 
57 1; 58 1; 60 1; 61 12; 62 42; 
63 128; 64 67; 65 337; 66 21; 67 5; 
69 6; 70 1; 71 2; 73 2; 74 13; 
75 10; 76 6; 77 79; 78 20; 79 33; 
80 36; 81 2; 82 3; 84 1; 85 4; 
86 10; 87 8; 88 2; 89 118; 90 44; 
91 999; 92 79; 93 4; 95 2; 97 1; 
104 2; 105 1; 106 91; 107 275; 108 157; 
109 12; 110 1; 111 1; 121 4; 122 1; 
123 1; 139 10; 155 277; 156 23; 157 14; 
171 333; 172 28; 173 17; 174 1; 
