Name: 3,4-Methylenedioxy-3-methylaminobutane
InChIKey: IDARAQGFZJPPNW-UHFFFAOYSA-N
Formula: C12H17NO2
MW: 207
ExactMass: 207.125929
CASNO: 0
ID: 4402
Comment: DEA SWL
Num Peaks: 79
40 2; 41 12; 42 22; 43 10; 44 18; 
50 8; 51 50; 52 8; 53 8; 54 3; 
55 5; 56 45; 57 22; 58 999; 59 38; 
61 1; 62 6; 63 19; 64 6; 65 33; 
66 3; 67 2; 68 1; 70 8; 71 15; 
72 11; 74 2; 75 2; 76 4; 77 74; 
78 15; 79 12; 80 1; 84 3; 85 25; 
86 2; 89 15; 90 4; 91 39; 92 5; 
93 1; 102 2; 103 15; 104 2; 105 17; 
106 9; 107 2; 115 6; 116 2; 117 9; 
118 8; 119 11; 120 2; 121 5; 122 5; 
131 44; 132 5; 133 1; 134 2; 135 183; 
136 31; 137 2; 145 5; 146 6; 147 16; 
148 19; 149 6; 150 2; 161 20; 162 2; 
175 2; 176 30; 177 3; 178 1; 190 2; 
192 5; 206 1; 207 45; 208 6; 
