Name: 1-(4-Chlorophenyl)piperazine, acetyl
Synon: pCPP, AC
InChIKey: UVYFWYMZWQBGAQ-UHFFFAOYSA-N
Formula: C12H15ClN2O
MW: 238
ExactMass: 238.087291
CASNO: 0
ID: 4404
Comment: ENFSI / NFI/Acros A011471101, derivatised
Num Peaks: 141
36 1; 37 1; 38 4; 39 9; 40 4; 
41 21; 42 56; 43 219; 44 15; 45 2; 
49 1; 50 19; 51 26; 52 7; 53 2; 
54 21; 55 22; 56 379; 57 111; 58 12; 
59 1; 61 3; 62 4; 63 15; 64 5; 
65 6; 66 1; 67 1; 68 6; 69 9; 
70 8; 71 18; 72 4; 73 8; 74 9; 
75 68; 76 23; 77 43; 78 11; 79 2; 
81 2; 82 1; 83 2; 84 4; 85 20; 
86 6; 87 4; 88 1; 89 20; 90 15; 
91 11; 92 2; 93 1; 97 1; 98 6; 
99 28; 100 3; 101 5; 102 9; 103 13; 
104 15; 105 13; 106 5; 110 2; 111 170; 
112 25; 113 60; 114 8; 115 2; 116 5; 
117 28; 118 20; 119 8; 120 1; 123 1; 
124 2; 125 110; 126 11; 127 43; 128 5; 
129 3; 130 28; 131 33; 132 17; 133 22; 
134 2; 137 3; 138 334; 139 299; 140 254; 
141 116; 142 49; 143 8; 144 3; 145 2; 
146 1; 151 6; 152 19; 153 340; 154 198; 
155 125; 156 60; 157 6; 158 1; 159 4; 
160 11; 161 5; 162 1; 164 5; 165 8; 
166 999; 167 103; 168 326; 169 38; 170 5; 
171 1; 178 4; 179 7; 180 3; 181 7; 
182 1; 183 1; 191 1; 193 7; 194 14; 
195 123; 196 22; 197 39; 198 5; 210 2; 
223 31; 224 3; 225 12; 226 1; 236 5; 
237 6; 238 374; 239 52; 240 118; 241 16; 
242 1; 
