Name: Chlorpheniramine
Synon: Chlor-trimeton
InChIKey: SOYKEARSMXGVTM-UHFFFAOYSA-N
Formula: C16H19ClN2
MW: 274
ExactMass: 274.123676
CASNO: 113928
ID: 4407
Comment: DEA SWL
Num Peaks: 136
40 1; 41 5; 42 80; 43 25; 44 19; 
45 2; 50 9; 51 29; 52 15; 53 5; 
54 3; 55 3; 56 36; 57 20; 58 638; 
59 24; 62 3; 63 14; 64 3; 65 7; 
66 1; 67 1; 68 1; 70 9; 71 19; 
72 164; 73 10; 74 4; 75 13; 76 6; 
77 16; 78 33; 79 12; 80 4; 81 1; 
83 1; 84 6; 86 2; 87 4; 88 3; 
89 17; 90 7; 91 7; 92 4; 93 13; 
94 1; 96 2; 97 2; 98 1; 99 4; 
100 1; 101 10; 102 10; 103 18; 104 8; 
105 1; 106 5; 111 2; 112 3; 113 7; 
114 9; 115 24; 116 9; 117 20; 118 16; 
119 3; 121 3; 123 2; 125 19; 126 5; 
127 10; 128 5; 129 1; 130 2; 131 1; 
135 1; 136 2; 137 5; 138 16; 139 32; 
140 24; 141 8; 142 2; 143 2; 147 1; 
149 4; 150 3; 151 7; 152 13; 153 5; 
154 5; 155 1; 162 1; 163 2; 164 7; 
165 11; 166 55; 167 258; 168 129; 169 15; 
170 1; 173 1; 174 1; 175 1; 177 1; 
178 8; 179 5; 180 35; 181 20; 182 4; 
190 2; 191 7; 192 7; 193 7; 194 5; 
195 1; 200 1; 201 28; 202 204; 203 999; 
204 192; 205 319; 206 42; 207 2; 214 16; 
215 3; 216 23; 217 4; 218 6; 227 5; 
228 6; 229 4; 230 14; 231 2; 232 4; 
274 1; 
