Name: Cannabipiperidiethanone
Synon: 2-(2-methoxyphenyl)-1-[1-[(1-methyl-2-piperidinyl)methyl]-1H-indol-3-yl]ethanone
InChIKey: AJSBNWAHEDVQJT-UHFFFAOYSA-N
Formula: C24H28N2O2
MW: 376
ExactMass: 376.215078
CASNO: 1345970435
ID: 4411
Comment: Provided by www.caymanchem.com/app/template/landing%2CForensic.vm / Item #11655  Lot #0437914
Num Peaks: 101
41 8; 42 31; 43 2; 44 6; 51 3; 
52 1; 53 2; 54 2; 55 12; 56 6; 
57 4; 58 4; 63 1; 65 8; 66 1; 
67 2; 68 7; 70 73; 71 4; 75 1; 
76 2; 77 5; 78 6; 79 1; 80 1; 
81 2; 82 9; 83 4; 84 2; 88 1; 
89 4; 90 1; 91 30; 92 4; 93 1; 
94 3; 95 1; 96 22; 98 999; 99 69; 
100 2; 101 5; 102 18; 103 6; 105 2; 
110 5; 111 3; 112 21; 113 3; 114 1; 
115 7; 116 2; 117 1; 119 1; 121 9; 
122 1; 127 1; 128 15; 129 63; 130 10; 
131 1; 135 2; 139 1; 142 1; 143 7; 
144 5; 154 3; 155 1; 156 2; 157 26; 
158 8; 159 1; 163 1; 165 1; 166 1; 
167 1; 168 1; 170 2; 178 1; 180 1; 
182 1; 183 1; 184 1; 189 1; 190 1; 
191 1; 204 1; 205 1; 207 1; 216 1; 
217 2; 218 2; 227 1; 234 1; 253 3; 
255 3; 278 6; 279 1; 374 1; 375 1; 
376 1; 
