Name: 25B-NBF Acetyl derivative
InChIKey: RNLZDKXDRUTTSW-UHFFFAOYSA-N
Synon: 2C-B-NBF Acetyl derivative
Formula: C19H21BrFNO3
MW: 409
ExactMass: 409.068884
CASNO: 0
ID: 4413
Comment: ENFSI/DWG
Num Peaks: 163
39 7; 41 3; 42 8; 43 86; 45 1; 
50 5; 51 11; 52 3; 53 9; 54 1; 
55 2; 56 2; 57 6; 59 5; 62 3; 
63 15; 64 7; 65 10; 66 2; 67 4; 
73 6; 74 2; 75 8; 76 8; 77 59; 
78 15; 79 14; 80 9; 81 7; 82 7; 
83 43; 84 3; 87 2; 89 23; 90 19; 
91 38; 92 19; 93 5; 94 2; 95 2; 
96 2; 97 4; 102 3; 103 7; 104 6; 
105 48; 106 12; 107 23; 108 16; 109 818; 
110 70; 111 2; 115 1; 117 5; 118 11; 
119 8; 120 16; 121 13; 122 10; 123 3; 
124 21; 125 2; 131 3; 132 3; 133 13; 
134 10; 135 14; 136 17; 137 11; 138 999; 
139 89; 140 3; 143 9; 145 9; 147 7; 
148 57; 149 13; 150 10; 151 4; 155 2; 
156 3; 157 5; 158 4; 159 2; 161 2; 
162 3; 163 7; 164 57; 165 18; 166 2; 
169 9; 170 3; 171 12; 172 2; 173 4; 
178 4; 179 4; 180 39; 181 5; 183 3; 
184 7; 185 3; 186 12; 187 4; 188 7; 
189 2; 193 1; 194 3; 197 1; 198 2; 
199 32; 200 4; 201 29; 202 4; 203 2; 
207 5; 208 2; 209 2; 210 2; 213 8; 
214 3; 215 10; 216 2; 217 3; 227 28; 
228 12; 229 53; 230 14; 231 24; 232 3; 
241 2; 242 616; 243 76; 244 606; 245 69; 
246 5; 251 2; 253 3; 254 1; 255 3; 
256 2; 257 2; 258 4; 260 2; 268 2; 
281 3; 315 3; 327 3; 328 2; 329 2; 
331 6; 332 3; 337 1; 341 2; 342 2; 
343 1; 356 2; 405 2; 406 2; 409 33; 
410 7; 411 36; 412 8; 
