Name: 2-Methyl-.alpha.-pyrrolidinobutiophenone
Synon: 2-Methyl-PBP
Synon: 2-(pyrrolidin-1-yl)-1-(o-tolyl)butan-1-one
InChIKey: RZXMFZFHBTYBOE-UHFFFAOYSA-N
Formula: C15H21NO
MW: 231
ExactMass: 231.162314
CASNO: 0
ID: 4418
Comment: Provided by www.caymanchem.com/app/template/landing%2CForensic.vm / Item #9001188  Lot #0435101
Num Peaks: 77
40 4; 41 58; 42 41; 43 16; 44 2; 
50 2; 51 7; 52 2; 53 6; 54 21; 
55 49; 56 13; 57 1; 58 11; 62 2; 
63 11; 64 5; 65 49; 66 3; 67 3; 
68 15; 69 14; 70 62; 71 3; 74 1; 
75 1; 76 1; 77 6; 78 2; 79 2; 
80 2; 81 1; 82 7; 83 2; 84 5; 
89 14; 90 7; 91 78; 92 6; 93 1; 
94 3; 96 27; 97 14; 98 1; 101 1; 
102 1; 103 4; 104 1; 105 4; 108 3; 
110 41; 112 999; 113 82; 114 2; 115 6; 
116 2; 117 2; 118 2; 119 24; 120 2; 
127 1; 128 2; 129 2; 130 1; 131 3; 
132 1; 144 1; 145 3; 146 1; 172 1; 
174 1; 186 1; 200 2; 202 4; 214 1; 
229 1; 230 1; 
