Name: A-796,260 degradant
Synon: LTI-258 degradant
InChIKey: LORODOQLOVWDSW-UHFFFAOYSA-N
Formula: C22H30N2O2
MW: 354
ExactMass: 354.230728
CASNO: 1616469103
ID: 4419
Comment: DEA SFL1 / Unconfirmed from A796,260 lot # SF0005
Num Peaks: 121
29 10; 30 5; 38 1; 39 11; 40 1; 
41 30; 42 27; 43 14; 44 8; 45 3; 
50 1; 51 3; 52 1; 53 5; 54 7; 
55 38; 56 63; 57 7; 58 2; 63 1; 
65 2; 67 6; 68 2; 69 4; 70 21; 
71 3; 72 6; 75 2; 76 2; 77 4; 
78 2; 79 3; 81 4; 82 3; 83 11; 
84 5; 85 2; 86 1; 88 1; 89 4; 
90 1; 91 2; 95 1; 96 1; 97 2; 
98 18; 99 3; 100 999; 101 63; 102 14; 
103 5; 104 1; 109 1; 112 5; 113 3; 
114 43; 115 19; 116 6; 117 4; 118 1; 
125 1; 127 3; 128 12; 129 31; 130 14; 
131 2; 135 1; 140 2; 141 3; 142 4; 
143 18; 144 9; 145 1; 152 2; 153 1; 
154 5; 155 2; 156 5; 157 7; 158 4; 
165 1; 166 2; 167 6; 168 4; 169 2; 
170 8; 171 3; 172 5; 177 1; 180 6; 
181 3; 182 3; 183 2; 184 1; 185 1; 
192 1; 193 1; 194 3; 195 2; 196 3; 
197 2; 198 1; 199 2; 207 1; 208 1; 
209 1; 210 3; 224 5; 225 1; 238 2; 
239 3; 254 2; 255 1; 257 8; 258 1; 
267 1; 339 15; 340 4; 354 19; 355 5; 
356 1; 
