Name: N,N-di-(.beta.-phenylisopropyl)formamide
InChIKey: CWIOUNNXKYYBSJ-UHFFFAOYSA-N
Formula: C19H23NO
MW: 281
ExactMass: 281.177965
CASNO: 0
ID: 4422
Comment: ENFSI / impurity amphetamine synthesis (Leuckart reaction); For.Sci.Rev. 1:1; 1989 pp 1-11
Num Peaks: 74
38 1; 39 36; 40 3; 41 61; 42 27; 
43 6; 44 68; 45 2; 50 5; 51 23; 
52 6; 53 4; 54 3; 55 2; 56 5; 
57 1; 62 2; 63 14; 64 5; 65 80; 
66 5; 68 3; 69 1; 70 68; 71 5; 
72 119; 73 4; 74 1; 75 2; 76 3; 
77 44; 78 19; 79 17; 80 1; 84 2; 
87 1; 89 17; 91 999; 92 76; 93 3; 
98 3; 99 3; 102 6; 103 20; 104 9; 
105 4; 115 38; 116 10; 117 66; 118 79; 
119 382; 120 36; 121 2; 128 1; 129 1; 
130 2; 131 1; 132 1; 134 4; 135 1; 
144 2; 145 12; 146 2; 160 2; 162 75; 
163 9; 164 21; 165 3; 174 1; 188 1; 
190 976; 191 127; 192 9; 281 2; 
