Name: Tapentadol-d3
InChIKey: KWTWDQCKEHXFFR-YQKCTDPKSA-N
Formula: C14H20D3NO
MW: 224
ExactMass: 224.1967945
CASNO: 1435973195
ID: 4425
Comment: Provided by www.caymanchem.com/app/template/landing%2CForensic.vm / Item 15858
Num Peaks: 89
41 17; 42 21; 43 10; 44 10; 45 21; 
46 10; 47 8; 48 2; 49 1; 50 1; 
51 5; 52 2; 53 5; 54 1; 55 6; 
56 3; 57 1; 58 3; 59 7; 60 38; 
61 999; 62 39; 63 6; 64 3; 65 14; 
66 5; 67 2; 68 2; 69 2; 70 2; 
71 3; 72 5; 73 9; 74 12; 75 2; 
76 1; 77 39; 78 11; 79 15; 80 1; 
81 1; 85 1; 86 2; 87 16; 88 22; 
89 19; 90 4; 91 33; 92 5; 93 2; 
94 8; 95 2; 101 3; 102 2; 103 13; 
104 3; 105 16; 106 2; 107 64; 108 7; 
109 1; 115 16; 116 7; 117 8; 118 3; 
119 9; 120 9; 121 11; 122 1; 127 2; 
128 2; 129 2; 131 8; 132 4; 133 34; 
134 20; 135 5; 136 2; 144 1; 145 2; 
146 1; 147 6; 148 2; 151 1; 161 2; 
162 1; 223 1; 224 51; 225 8; 
