Name: 3,4-Methylenedioxy-.alpha.-ethylamino-isovalerophenone
InChIKey: HJTNZFICUBPNAQ-UHFFFAOYSA-N
Synon: 1-(1,3-benzodioxol-5-yl)-2-(ethylamino)-3-methyl-1-butanone
Formula: C14H19NO3
MW: 249
ExactMass: 249.136494
CASNO: 1485505723
ID: 4426
Comment: Provided by www.caymanchem.com/app/template/landing%2CForensic.vm / Item #9002600 Batch 0476278
Num Peaks: 99
40 2; 41 29; 42 16; 43 22; 44 44; 
45 1; 46 1; 50 3; 51 7; 52 2; 
53 10; 54 5; 55 94; 56 43; 57 13; 
58 6; 61 3; 62 17; 63 57; 64 9; 
65 90; 66 7; 67 2; 68 5; 69 4; 
70 58; 71 5; 72 35; 73 2; 74 4; 
75 2; 76 3; 77 8; 78 3; 79 4; 
80 1; 81 1; 82 2; 83 1; 84 23; 
85 22; 86 1; 89 2; 90 2; 91 29; 
92 6; 93 6; 94 1; 95 1; 98 17; 
99 5; 100 999; 101 82; 102 3; 103 3; 
104 2; 105 2; 115 2; 116 1; 117 1; 
118 1; 119 7; 120 7; 121 75; 122 9; 
123 1; 130 1; 131 2; 132 2; 133 2; 
135 8; 136 1; 145 2; 146 1; 148 8; 
149 103; 150 12; 151 1; 158 1; 160 1; 
161 2; 162 1; 164 1; 174 1; 176 16; 
177 5; 178 12; 179 1; 188 1; 189 1; 
190 3; 191 2; 204 1; 206 36; 207 4; 
216 1; 218 1; 231 1; 234 1; 
