Name: .alpha.-Phthalimidopropiophenone
Synon: .alpha.-PAPP
Synon: 2-Phthalimidopropiophenone
Synon: 2-(1-methyl-2-oxo-2-phenylethyl)-1H-isoindole-1,3(2H)-dione
Formula: C17H13NO3
MW: 279
ExactMass: 279.089542
CASNO: 19437208
ID: 4428
Comment: Provided by www.caymanchem.com/app/template/landing%2CForensic.vm / Item #17141 Batch #0465414
Num Peaks: 69
40 1; 41 2; 42 10; 43 1; 49 2; 
50 67; 51 102; 52 8; 53 3; 55 1; 
62 3; 63 7; 64 4; 65 10; 66 4; 
70 9; 73 4; 74 30; 75 39; 76 160; 
77 333; 78 28; 79 1; 87 1; 88 1; 
89 7; 90 10; 91 12; 92 3; 101 3; 
102 65; 103 21; 104 92; 105 354; 106 27; 
107 1; 115 1; 116 2; 117 7; 118 2; 
120 1; 128 2; 129 49; 130 287; 131 26; 
132 11; 133 20; 134 2; 145 3; 146 8; 
147 150; 148 19; 149 2; 150 1; 151 2; 
152 4; 160 2; 172 1; 173 24; 174 999; 
175 136; 176 12; 177 1; 207 2; 236 1; 
261 1; 279 36; 280 7; 281 2; 
