Name: 3-Fluoro-NNEI
Synon: 3-Fluoro-MN-24
Synon: 1-(3-Fluoropentyl)-N-(naphthalen-1-yl)-1H-indole-3-carboxamide
InChIKey: SVAFPMQCQHIESM-UHFFFAOYSA-N
Formula: C24H23FN2O
MW: 374
ExactMass: 374.179441
CASNO: 0
ID: 4429
Comment: Provided by www.caymanchem.com/app/template/landing%2CForensic.vm / Item #9002740 Batch #0481558
Num Peaks: 152
41 48; 42 1; 43 9; 47 10; 50 2; 
51 4; 52 1; 53 2; 55 1; 59 12; 
61 7; 62 3; 63 9; 64 1; 65 4; 
67 2; 69 38; 70 1; 73 10; 74 1; 
75 6; 76 7; 77 9; 78 5; 86 1; 
87 4; 88 10; 89 35; 90 4; 91 3; 
96 2; 97 1; 101 12; 102 30; 103 11; 
104 1; 105 1; 113 7; 114 22; 115 190; 
116 85; 117 8; 118 1; 119 2; 126 1; 
127 9; 128 30; 129 58; 130 32; 131 4; 
133 4; 134 1; 135 8; 139 1; 140 15; 
141 6; 142 38; 143 52; 144 157; 145 17; 
147 3; 148 2; 149 26; 153 1; 154 8; 
155 9; 156 9; 157 10; 158 7; 159 1; 
161 1; 163 1; 165 3; 166 1; 167 2; 
168 5; 169 7; 170 12; 171 2; 172 1; 
176 6; 177 4; 178 1; 179 3; 180 1; 
181 1; 182 1; 184 1; 187 1; 189 1; 
191 2; 192 1; 193 1; 195 2; 202 2; 
203 1; 204 2; 205 2; 207 22; 208 4; 
209 3; 210 4; 212 60; 213 11; 214 1; 
215 1; 216 1; 223 1; 227 1; 228 1; 
230 7; 232 999; 233 154; 234 13; 235 1; 
249 2; 250 1; 253 11; 254 8; 255 4; 
256 3; 257 1; 265 3; 266 1; 267 3; 
268 2; 269 3; 281 8; 282 2; 283 4; 
284 2; 285 1; 297 1; 299 1; 315 2; 
325 1; 327 3; 328 1; 331 1; 332 2; 
341 2; 342 2; 343 1; 346 1; 347 1; 
354 4; 355 2; 357 1; 358 2; 374 81; 
375 22; 376 2; 
