Name: 3,4-Methylenedioxy-N-propylcathinone
InChIKey: YFVKHKCZBSGZPE-UHFFFAOYSA-N
Synon: PRONE
Synon: Propyl-3,4-methylenedioxycathinone
Synon: Propylone
Synon: N-Propyl-3,4-methylenedioxycathinone
Formula: C13H17NO3
MW: 235
ExactMass: 235.120843
CASNO: 0
ID: 4432
Comment: Provided by www.caymanchem.com/app/template/landing%2CForensic.vm / Item #19371 Batch #0481107
Num Peaks: 75
41 46; 42 49; 43 47; 44 246; 45 6; 
50 5; 51 9; 52 2; 53 9; 54 5; 
55 7; 56 36; 57 18; 58 6; 61 4; 
62 24; 63 73; 64 11; 65 102; 66 8; 
67 1; 68 4; 69 1; 70 17; 71 1; 
74 4; 75 2; 76 2; 77 7; 78 2; 
79 5; 80 1; 82 1; 84 38; 85 4; 
86 999; 87 58; 88 2; 89 3; 90 2; 
91 43; 92 8; 93 3; 102 1; 103 3; 
104 1; 105 2; 117 1; 118 2; 119 12; 
120 8; 121 77; 122 10; 123 1; 131 1; 
133 1; 134 1; 135 35; 136 3; 146 3; 
147 3; 148 3; 149 100; 150 11; 151 1; 
161 1; 162 1; 163 3; 176 1; 177 2; 
178 7; 188 1; 190 1; 220 1; 233 1; 
