Name: 3,4-Methylenedioxy-N-isopropylaminocathinone
InChIKey: ZGELXFOIEWJEFM-UHFFFAOYSA-N
Synon: iPRONE
Synon: 1-(1,3-Benzodioxol-5-yl)-2-[(1-methylethyl)amino]-1-propanone
Formula: C13H17NO3
MW: 235
ExactMass: 235.120843
CASNO: 186028819
ID: 4433
Comment: Provided by www.caymanchem.com/app/template/landing%2CForensic.vm / Item #19370 Batch #0481106
Num Peaks: 86
40 5; 41 51; 42 83; 43 55; 44 459; 
45 12; 50 6; 51 10; 52 2; 53 11; 
54 3; 55 7; 56 19; 57 3; 58 3; 
61 5; 62 29; 63 92; 64 13; 65 126; 
66 10; 67 1; 68 6; 69 2; 70 51; 
71 11; 73 1; 74 7; 75 3; 76 3; 
77 8; 78 2; 79 5; 80 1; 82 1; 
84 49; 85 7; 86 999; 87 58; 88 2; 
89 4; 90 2; 91 56; 92 9; 93 5; 
94 1; 95 1; 102 1; 103 2; 104 1; 
105 1; 110 1; 117 1; 118 3; 119 16; 
120 11; 121 94; 122 12; 123 1; 131 1; 
134 1; 135 4; 145 1; 146 8; 147 5; 
148 6; 149 162; 150 19; 151 2; 161 1; 
162 2; 163 2; 164 1; 174 1; 175 1; 
176 2; 177 3; 178 4; 190 1; 192 1; 
202 1; 207 1; 218 1; 220 3; 233 1; 
234 1; 
