Name: FUB-JWH-018-d5
InChIKey: VREQTLWJHFQLEX-NLKCTOQRSA-N
Formula: C26H13D5FNO
MW: 384
ExactMass: 384.168627
CASNO: 0
ID: 4434
Comment: Provided by www.caymanchem.com/app/template/landing%2CForensic.vm / Item #9002630 Batch #0479713
Num Peaks: 194
42 1; 50 2; 51 6; 52 1; 54 1; 
57 8; 59 6; 62 2; 63 11; 64 5; 
65 2; 66 2; 68 1; 70 1; 73 4; 
74 5; 75 11; 76 6; 77 24; 78 7; 
79 1; 80 1; 81 4; 82 2; 83 103; 
84 9; 86 1; 87 3; 88 1; 89 13; 
90 4; 91 4; 92 7; 93 2; 94 2; 
95 1; 96 3; 98 1; 99 1; 100 2; 
101 15; 102 3; 105 1; 106 4; 107 15; 
108 8; 109 999; 110 124; 111 7; 115 2; 
116 1; 117 2; 118 5; 119 6; 120 17; 
121 3; 122 1; 123 3; 124 1; 125 4; 
126 38; 127 111; 128 20; 129 3; 133 1; 
135 2; 136 1; 137 1; 139 1; 140 2; 
141 1; 144 2; 147 2; 148 5; 149 1; 
150 1; 151 1; 152 1; 153 1; 154 3; 
155 22; 156 4; 163 1; 164 2; 165 2; 
166 1; 167 2; 168 3; 169 2; 175 1; 
176 1; 177 2; 178 2; 179 2; 180 1; 
181 1; 182 1; 188 2; 189 4; 190 5; 
191 5; 192 5; 193 2; 194 1; 196 1; 
197 2; 198 1; 199 1; 200 1; 201 1; 
202 4; 203 2; 204 3; 205 3; 207 9; 
208 2; 209 1; 213 1; 214 2; 215 12; 
216 23; 217 27; 218 18; 219 19; 220 10; 
221 2; 223 1; 224 1; 225 3; 226 6; 
227 6; 228 5; 229 7; 230 5; 231 3; 
232 1; 233 2; 234 1; 235 1; 236 1; 
240 1; 241 1; 242 4; 243 10; 244 26; 
245 46; 246 52; 247 25; 248 5; 253 4; 
254 2; 255 3; 256 24; 257 69; 258 24; 
259 15; 260 7; 261 4; 262 1; 265 1; 
267 1; 269 2; 270 1; 271 1; 272 3; 
273 30; 274 69; 275 109; 276 22; 277 2; 
281 2; 282 1; 286 2; 287 5; 288 8; 
289 8; 290 2; 327 1; 343 1; 354 1; 
355 2; 356 1; 364 1; 365 2; 366 37; 
367 66; 368 21; 369 3; 381 1; 382 29; 
383 87; 384 170; 385 51; 386 8; 
