Name: AB-FUBINACA-d4
InChIKey: AKOOIMKXADOPDA-LNFUJOGGSA-N
Formula: C20H17D4FN4O2
MW: 372
ExactMass: 372.18996
CASNO: 0
ID: 4438
Comment: Provided by www.caymanchem.com/app/template/landing%2CForensic.vm / Item #15292 Batch#0454111
Num Peaks: 164
41 23; 42 8; 43 21; 44 51; 45 5; 
50 2; 51 3; 52 2; 53 1; 54 5; 
55 8; 56 10; 57 5; 58 1; 59 5; 
62 2; 63 7; 64 7; 65 2; 66 2; 
67 1; 68 1; 69 4; 70 12; 71 8; 
72 19; 73 23; 74 3; 75 8; 76 2; 
77 2; 78 11; 79 2; 80 7; 81 9; 
82 2; 83 73; 84 2; 86 1; 87 1; 
89 11; 90 5; 91 6; 92 35; 93 12; 
94 18; 95 10; 96 16; 97 1; 100 1; 
102 1; 103 1; 104 2; 105 3; 106 19; 
107 25; 108 16; 109 999; 110 78; 111 1; 
115 1; 117 1; 118 1; 119 2; 120 1; 
121 6; 122 7; 123 2; 125 1; 131 1; 
132 2; 133 20; 134 5; 135 11; 136 1; 
147 7; 148 9; 149 69; 150 7; 151 1; 
154 2; 156 1; 158 1; 160 1; 161 1; 
163 3; 165 2; 171 1; 172 2; 173 1; 
174 1; 175 1; 176 6; 177 6; 178 1; 
179 3; 180 3; 181 1; 191 10; 192 2; 
193 7; 195 1; 197 3; 198 2; 199 2; 
200 5; 201 5; 202 3; 203 1; 204 2; 
207 80; 208 17; 209 12; 210 2; 218 2; 
219 4; 220 3; 223 1; 225 1; 226 4; 
227 12; 228 9; 229 10; 230 6; 239 1; 
245 1; 249 2; 251 1; 253 12; 254 5; 
255 3; 256 74; 257 703; 258 117; 259 10; 
265 1; 267 3; 268 1; 269 2; 272 1; 
273 9; 274 2; 281 25; 282 7; 283 3; 
284 1; 310 1; 311 2; 312 3; 313 1; 
315 1; 325 1; 327 21; 328 412; 329 89; 
330 11; 331 2; 332 1; 341 3; 343 1; 
354 1; 355 4; 357 1; 372 2; 
