Name: Naltrexone-d3
InChIKey: DQCKKXVULJGBQN-CZGXTYETSA-N
Formula: C20H20D3NO4
MW: 344
ExactMass: 344.181538
CASNO: 1261080265
ID: 4440
Comment: Provided by www.caymanchem.com/app/template/landing%2CForensic.vm / Item #18325 Batch #0480704
Num Peaks: 282
40 17; 41 64; 42 72; 43 50; 44 64; 
45 15; 46 6; 47 5; 48 1; 49 1; 
50 11; 51 14; 52 4; 53 24; 54 15; 
55 99; 56 45; 57 72; 58 759; 59 51; 
60 4; 61 2; 62 2; 63 28; 64 14; 
65 31; 66 8; 67 13; 68 17; 69 12; 
70 30; 71 14; 72 11; 73 10; 74 30; 
75 21; 76 17; 77 116; 78 43; 79 24; 
80 18; 81 8; 82 11; 83 22; 84 54; 
85 35; 86 20; 87 90; 88 14; 89 41; 
90 16; 91 91; 92 20; 93 5; 94 9; 
95 7; 96 23; 97 11; 98 35; 99 35; 
100 38; 101 81; 102 47; 103 96; 104 16; 
105 28; 106 11; 107 12; 108 7; 109 8; 
110 12; 111 7; 112 17; 113 189; 114 38; 
115 173; 116 55; 117 54; 118 27; 119 24; 
120 5; 121 13; 122 5; 123 6; 124 3; 
125 9; 126 37; 127 80; 128 91; 129 34; 
130 25; 131 107; 132 28; 133 19; 134 15; 
135 37; 136 9; 137 13; 138 8; 139 22; 
140 11; 141 46; 142 13; 143 29; 144 61; 
145 66; 146 41; 147 59; 148 17; 149 11; 
150 3; 151 16; 152 17; 153 29; 154 25; 
155 84; 156 17; 157 34; 158 18; 159 38; 
160 49; 161 112; 162 65; 163 24; 164 9; 
165 23; 166 7; 167 6; 168 17; 169 30; 
170 30; 171 131; 172 44; 173 113; 174 97; 
175 57; 176 19; 177 10; 178 10; 179 19; 
180 7; 181 9; 182 14; 183 63; 184 52; 
185 66; 186 48; 187 88; 188 54; 189 32; 
190 18; 192 8; 193 12; 194 7; 195 22; 
196 9; 197 60; 198 43; 199 40; 200 60; 
201 111; 202 133; 203 47; 204 29; 205 9; 
207 7; 208 21; 209 1; 210 19; 211 19; 
212 36; 213 31; 214 49; 215 38; 216 55; 
217 18; 218 12; 219 7; 220 5; 221 28; 
222 7; 223 7; 224 11; 225 7; 226 16; 
227 9; 228 13; 229 22; 230 20; 231 18; 
232 6; 233 5; 234 1; 235 3; 236 2; 
237 4; 238 3; 239 15; 240 23; 241 10; 
242 23; 243 31; 244 85; 245 94; 246 171; 
247 40; 248 5; 250 2; 251 9; 252 6; 
253 33; 254 8; 255 5; 256 5; 257 12; 
258 79; 259 266; 260 65; 261 9; 263 1; 
264 1; 265 15; 266 2; 268 13; 269 10; 
270 5; 271 8; 272 8; 273 14; 274 10; 
275 2; 277 1; 278 1; 279 1; 283 1; 
284 5; 285 8; 286 144; 287 46; 288 33; 
289 6; 290 1; 293 1; 295 4; 297 4; 
298 7; 299 9; 300 2; 301 3; 302 259; 
303 36; 304 6; 311 4; 312 2; 313 4; 
314 1; 315 13; 316 16; 317 3; 318 1; 
319 1; 321 1; 323 2; 325 25; 326 9; 
327 18; 328 7; 329 39; 330 8; 331 26; 
332 5; 333 6; 338 1; 339 1; 340 1; 
342 21; 343 25; 344 999; 345 229; 346 44; 
347 4; 348 1; 
