Name: Flunitrazepam-d7
InChIKey: PPTYJKAXVCCBDU-AAYPNNLASA-N
Formula: C16H5D7FN3O3
MW: 320
ExactMass: 320.130207
CASNO: 1286448085
ID: 4442
Comment: Provided by www.caymanchem.com/app/template/landing%2CForensic.vm / Item #18472 Batch #0478939
Num Peaks: 269
40 9; 41 17; 42 34; 43 9; 44 18; 
45 45; 46 21; 47 3; 48 1; 49 1; 
50 30; 51 58; 52 42; 53 24; 54 21; 
55 6; 56 9; 57 6; 58 18; 59 24; 
60 12; 61 12; 62 35; 63 99; 64 46; 
65 38; 66 34; 67 30; 68 23; 69 69; 
70 21; 71 21; 72 8; 73 33; 74 31; 
75 66; 76 94; 77 88; 78 101; 79 48; 
80 35; 81 37; 82 25; 83 33; 84 14; 
85 27; 86 30; 87 59; 88 44; 89 38; 
90 44; 91 53; 92 50; 93 70; 94 48; 
95 55; 96 29; 97 49; 98 35; 99 100; 
100 50; 101 37; 102 30; 103 49; 104 30; 
105 26; 106 40; 107 40; 108 26; 109 45; 
110 46; 111 70; 112 52; 113 146; 114 37; 
115 26; 116 14; 117 24; 118 24; 119 50; 
120 61; 121 46; 122 42; 123 46; 124 51; 
125 76; 126 23; 127 23; 128 47; 129 26; 
130 19; 131 16; 132 10; 133 19; 134 28; 
135 32; 136 46; 137 76; 138 59; 139 49; 
140 12; 141 11; 142 9; 143 17; 144 12; 
145 15; 146 23; 147 65; 148 99; 149 52; 
150 23; 151 1; 152 44; 153 35; 154 30; 
155 23; 156 13; 157 12; 158 17; 159 16; 
160 36; 161 61; 162 32; 163 13; 164 10; 
165 17; 166 21; 167 24; 168 27; 169 26; 
170 33; 171 56; 172 75; 173 76; 174 139; 
175 39; 176 19; 177 22; 178 8; 179 38; 
180 37; 181 27; 182 20; 183 18; 184 45; 
185 61; 186 63; 187 91; 188 213; 189 96; 
190 30; 191 22; 192 16; 193 24; 194 18; 
195 41; 196 33; 197 45; 198 61; 199 75; 
200 59; 201 34; 202 25; 203 13; 204 29; 
205 22; 206 33; 207 21; 208 17; 209 31; 
210 13; 211 18; 212 21; 213 32; 214 46; 
215 44; 216 84; 217 64; 218 68; 219 17; 
220 4; 221 4; 222 7; 223 15; 224 34; 
225 55; 226 110; 227 116; 228 132; 229 28; 
230 14; 231 10; 232 12; 233 42; 234 43; 
235 9; 236 2; 237 3; 238 1; 239 2; 
240 4; 241 10; 242 43; 243 129; 244 148; 
245 425; 246 286; 247 78; 248 12; 249 2; 
250 2; 251 2; 253 31; 254 44; 255 245; 
256 57; 257 9; 258 5; 259 11; 260 60; 
261 26; 262 24; 263 11; 264 10; 265 2; 
266 1; 267 2; 268 1; 269 4; 270 14; 
271 26; 272 438; 273 121; 274 71; 275 25; 
276 20; 277 4; 278 2; 281 6; 282 1; 
283 1; 284 3; 285 1; 287 2; 288 10; 
289 3; 290 40; 291 285; 292 999; 293 932; 
294 146; 295 17; 296 2; 297 1; 299 9; 
300 10; 301 420; 302 89; 303 16; 304 12; 
305 2; 315 1; 316 1; 318 790; 319 188; 
320 469; 321 89; 322 11; 323 1; 
