Name: 3-Hydroxy Phenazepam
Synon: 3-Hydroxy-BD 98
Synon: 3-Hydroxy fenazepam
Synon: 7-Bromo-5-(2-chlorophenyl)-3-hydroxy-1,3-dihydro-2H-1,4-benzodiazepin-2-one
InChIKey: KRJKJUWAZOWXNV-UHFFFAOYSA-N
Formula: C15H10BrClN2O2
MW: 364
ExactMass: 363.961418
CASNO: 70030114
ID: 4446
Comment: Provided by www.caymanchem.com/app/template/landing%2CForensic.vm / Item #11472 Batch #0482989
Num Peaks: 264
40 2; 41 1; 42 1; 43 2; 47 1; 
48 1; 49 14; 50 185; 51 129; 52 30; 
53 9; 54 1; 55 2; 58 1; 59 2; 
60 4; 61 41; 62 74; 63 74; 64 26; 
65 7; 66 2; 67 4; 68 3; 71 1; 
72 9; 73 80; 74 323; 75 999; 76 203; 
77 93; 78 13; 79 26; 80 42; 81 30; 
82 28; 83 1; 84 18; 85 70; 86 79; 
87 90; 88 79; 89 8; 90 4; 91 7; 
92 5; 93 12; 94 5; 95 1; 96 17; 
97 10; 98 73; 99 153; 100 240; 101 202; 
102 323; 103 36; 104 8; 105 3; 106 22; 
107 8; 108 8; 109 13; 110 51; 111 494; 
112 107; 113 179; 114 42; 115 4; 116 4; 
117 5; 118 6; 119 7; 120 79; 121 10; 
122 32; 123 66; 124 52; 125 71; 126 55; 
127 60; 128 44; 129 14; 130 5; 131 2; 
132 5; 133 25; 134 13; 135 19; 136 23; 
137 74; 138 406; 139 53; 140 123; 141 25; 
142 29; 143 2; 144 1; 145 3; 146 5; 
147 36; 148 21; 149 139; 150 217; 151 134; 
152 46; 153 22; 154 100; 155 14; 156 104; 
157 6; 158 8; 159 7; 160 44; 161 42; 
162 14; 163 52; 164 12; 165 4; 166 1; 
167 1; 168 1; 171 2; 173 9; 174 34; 
175 187; 176 373; 177 472; 178 87; 179 7; 
180 65; 181 61; 182 77; 183 73; 184 17; 
185 13; 186 17; 187 12; 188 12; 189 7; 
190 1; 191 7; 192 11; 193 10; 195 3; 
196 1; 197 5; 198 4; 199 4; 200 8; 
201 16; 202 160; 203 264; 204 329; 205 60; 
206 13; 207 145; 208 22; 209 106; 210 17; 
211 41; 212 21; 213 28; 214 7; 215 3; 
216 2; 217 1; 218 1; 219 1; 221 7; 
222 1; 223 2; 224 2; 225 1; 229 1; 
230 3; 231 2; 232 1; 233 2; 235 1; 
236 2; 237 10; 238 74; 239 488; 240 113; 
241 175; 242 28; 243 3; 249 7; 250 3; 
251 1; 252 1; 253 27; 254 9; 255 19; 
256 12; 257 13; 258 6; 259 1; 264 1; 
265 11; 266 1; 267 95; 268 8; 269 23; 
270 4; 276 1; 277 2; 278 1; 279 5; 
281 15; 283 600; 284 105; 285 572; 286 90; 
287 6; 291 3; 292 13; 293 9; 294 17; 
295 5; 296 4; 297 4; 299 1; 304 1; 
309 1; 311 94; 312 15; 313 94; 314 17; 
315 6; 317 203; 318 672; 319 365; 320 871; 
321 195; 322 222; 323 19; 324 2; 325 4; 
326 1; 327 6; 328 1; 329 3; 331 7; 
332 5; 333 3; 334 1; 335 1; 341 2; 
342 3; 343 2; 344 1; 345 2; 346 354; 
347 119; 348 485; 349 95; 350 122; 351 18; 
352 1; 355 8; 356 1; 357 2; 
