Name: 3-MeO-PCMo
Synon: 4-[1-(3-methoxyphenyl)cyclohexyl]morpholine
InChIKey: BOGOEDFWPOXWQE-UHFFFAOYSA-N
Formula: C17H25NO2
MW: 275
ExactMass: 275.18853
CASNO: 0
ID: 4448
Comment: ENFSI / Dutch FP, confirmed by NMR
Num Peaks: 153
29 70; 30 30; 31 5; 32 9; 38 3; 
39 43; 40 7; 41 100; 42 52; 43 27; 
44 31; 45 26; 50 9; 51 26; 52 10; 
53 59; 54 32; 55 122; 56 118; 57 56; 
58 16; 59 3; 62 4; 63 31; 64 20; 
65 54; 66 12; 67 50; 68 13; 69 8; 
70 8; 71 4; 72 3; 74 3; 75 6; 
76 13; 77 127; 78 68; 79 101; 80 31; 
81 290; 82 26; 83 4; 84 4; 85 31; 
86 144; 87 49; 88 21; 89 38; 90 45; 
91 226; 92 43; 93 15; 94 17; 95 7; 
96 4; 100 9; 101 10; 102 32; 103 65; 
104 32; 105 35; 106 13; 107 26; 108 32; 
109 26; 110 5; 112 2; 113 2; 114 3; 
115 135; 116 44; 117 62; 118 42; 119 22; 
120 11; 121 999; 122 113; 123 13; 124 5; 
126 9; 127 28; 128 57; 129 71; 130 33; 
131 43; 132 31; 133 52; 134 99; 135 40; 
136 6; 139 2; 141 14; 142 8; 143 13; 
144 33; 145 49; 146 34; 147 150; 148 37; 
149 6; 150 4; 152 6; 153 5; 154 4; 
155 4; 156 6; 157 21; 158 22; 159 73; 
160 58; 161 18; 162 6; 166 2; 168 254; 
169 32; 170 4; 171 4; 172 10; 173 42; 
174 26; 175 7; 176 7; 184 2; 186 6; 
187 19; 188 144; 189 119; 190 66; 191 9; 
200 3; 201 2; 202 8; 203 3; 204 10; 
206 5; 207 2; 216 4; 218 84; 219 17; 
220 2; 230 3; 232 857; 233 146; 234 14; 
244 9; 246 11; 260 7; 273 3; 274 143; 
275 262; 276 50; 277 6; 
