Name: 5-MBPB
Synon: 1-(benzofuran-5-yl)-N-methylbutan-2-amine
InChIKey: CTEZPBCLIKEASW-UHFFFAOYSA-N
Formula: C13H17NO
MW: 203
ExactMass: 203.131014
CASNO: 0
ID: 4449
Comment: ENFSI / NFL SI, EU project RESPONSE, confirmed by NMR
Num Peaks: 74
32 2; 38 2; 39 13; 40 1; 41 24; 
42 53; 43 6; 44 34; 50 7; 51 20; 
52 5; 53 4; 54 4; 55 8; 56 30; 
57 66; 58 4; 62 6; 63 17; 64 3; 
65 5; 67 1; 68 3; 70 29; 72 999; 
73 60; 74 5; 75 6; 76 10; 77 74; 
78 9; 79 2; 80 1; 87 22; 89 9; 
90 3; 91 5; 92 1; 101 4; 102 22; 
103 18; 104 3; 105 9; 106 1; 107 1; 
113 1; 115 17; 116 3; 117 2; 118 3; 
126 1; 127 5; 128 9; 129 3; 131 122; 
132 19; 133 9; 141 1; 143 1; 144 5; 
145 3; 146 1; 147 1; 152 1; 156 1; 
157 4; 158 1; 159 2; 171 1; 172 4; 
173 4; 174 19; 175 2; 202 1; 
