Name: 5-APB NBOMe
InChIKey: NSWWDACHSBMHLV-UHFFFAOYSA-N
Synon: 1-(benzofuran-5-yl)-N-(2-methoxybenzyl)propan-2-amine
Formula: C19H21NO2
MW: 295
ExactMass: 295.157228
CASNO: 2055348177
ID: 4450
Comment: ENFSI / NFL SI, EU project RESPONSE, confirmed by NMR
Num Peaks: 73
51 27; 52 11; 53 6; 54 2; 55 2; 
56 12; 57 1; 62 3; 63 15; 64 5; 
65 59; 66 5; 74 2; 75 4; 76 9; 
77 91; 78 40; 79 8; 80 1; 82 1; 
87 1; 88 1; 89 17; 90 8; 91 425; 
92 36; 93 44; 94 4; 101 2; 102 18; 
103 14; 104 6; 105 7; 106 2; 107 12; 
108 1; 115 13; 116 5; 117 4; 118 8; 
119 6; 120 8; 121 999; 122 92; 123 5; 
127 4; 128 10; 129 9; 130 5; 131 133; 
132 26; 133 4; 134 2; 135 10; 136 3; 
143 1; 144 4; 145 1; 146 3; 147 4; 
148 3; 149 1; 157 3; 158 4; 159 4; 
160 1; 162 74; 163 10; 164 480; 165 55; 
166 4; 207 3; 281 1; 
