Name: Trimetazidine
InChIKey: UHWVSEOVJBQKBE-UHFFFAOYSA-N
Synon: 1-(2,3,4-trimethoxybenzyl)piperazine
Synon: Vastarel MR
Formula: C14H22N2O3
MW: 266
ExactMass: 266.163042
CASNO: 5011347
ID: 4455
Comment: ENFSI / NFL SI, EU project RESPONSE, confirmed by NMR
Num Peaks: 113
51 15; 52 30; 53 17; 54 12; 55 22; 
56 232; 57 25; 58 49; 59 3; 63 11; 
64 14; 65 23; 66 10; 67 12; 68 6; 
69 7; 70 11; 71 15; 75 3; 76 4; 
77 43; 78 28; 79 28; 80 62; 81 12; 
83 10; 84 5; 85 393; 86 24; 87 7; 
89 14; 90 11; 91 101; 92 23; 93 12; 
94 8; 95 48; 96 7; 97 5; 98 4; 
99 16; 104 8; 105 26; 106 59; 107 31; 
108 16; 109 11; 110 3; 112 25; 118 4; 
119 9; 120 21; 121 53; 122 14; 123 72; 
124 17; 132 3; 133 15; 134 8; 135 21; 
136 97; 137 28; 138 5; 139 13; 147 7; 
148 9; 149 17; 150 12; 151 69; 152 12; 
153 4; 162 5; 163 4; 164 6; 166 340; 
167 64; 168 8; 176 4; 177 8; 178 27; 
179 126; 181 999; 182 139; 183 15; 190 5; 
191 4; 192 12; 193 5; 194 35; 195 11; 
196 31; 197 4; 204 4; 206 25; 207 23; 
208 37; 209 39; 210 102; 211 17; 218 5; 
221 56; 222 48; 223 16; 224 61; 225 10; 
235 93; 236 24; 237 48; 251 13; 264 6; 
265 12; 266 54; 267 7; 
