Name: Deschloroetizolam
Synon: ETZ-2
Synon: Etizolam-2
Synon: 2-Ethyl-9-methyl-4-phenyl-6H-tieno[3,2-f][1,2,4]triazolo[4,3-a ][1,4]diazepin
InChIKey: JIOBORXCOGMHSV-UHFFFAOYSA-N
Formula: C17H16N4S
MW: 308
ExactMass: 308.109568
CASNO: 40054737
ID: 4457
Comment: ENFSI / EDND webpage, Swedish NFP
Num Peaks: 242
29 22; 30 1; 32 3; 37 2; 38 9; 
39 65; 40 43; 41 38; 42 34; 43 3; 
44 2; 45 89; 46 4; 47 11; 49 1; 
50 28; 51 109; 52 28; 53 30; 54 20; 
55 5; 56 1; 57 6; 58 20; 59 22; 
60 5; 61 4; 62 14; 63 58; 64 27; 
65 64; 66 25; 67 14; 68 2; 69 51; 
70 26; 71 36; 72 11; 73 50; 74 18; 
75 32; 76 76; 77 236; 78 41; 79 21; 
80 9; 81 8; 82 19; 83 18; 84 20; 
85 37; 86 12; 87 16; 88 21; 89 60; 
90 42; 91 171; 92 30; 93 21; 94 22; 
95 27; 96 25; 97 27; 99 31; 100 11; 
101 17; 102 45; 103 118; 104 50; 105 26; 
106 17; 107 9; 108 16; 109 25; 110 17; 
111 13; 112 41; 113 36; 114 35; 115 86; 
116 54; 117 36; 118 11; 120 18; 121 49; 
122 63; 123 11; 124 13; 126 147; 127 73; 
128 49; 129 20; 130 7; 131 6; 132 7; 
133 11; 134 13; 135 23; 136 20; 137 51; 
138 19; 139 78; 140 110; 141 34; 142 15; 
143 12; 144 3; 145 21; 146 12; 147 17; 
148 14; 149 12; 150 12; 151 28; 152 70; 
153 54; 154 45; 155 12; 156 4; 157 4; 
158 12; 159 11; 160 6; 161 6; 162 19; 
163 20; 164 36; 165 45; 166 58; 167 51; 
168 17; 169 9; 170 11; 171 31; 172 16; 
173 7; 174 3; 175 4; 176 9; 177 29; 
178 31; 179 39; 180 46; 181 25; 182 9; 
183 20; 184 30; 185 21; 186 13; 187 4; 
188 2; 189 2; 190 18; 191 31; 192 87; 
193 31; 194 18; 195 10; 196 29; 197 31; 
198 154; 199 35; 200 14; 201 3; 202 1; 
203 8; 204 9; 205 29; 206 25; 207 57; 
208 17; 209 27; 210 60; 211 174; 212 58; 
213 41; 214 37; 215 7; 216 3; 217 5; 
218 20; 219 19; 220 7; 221 4; 222 15; 
223 53; 224 178; 225 203; 226 43; 227 16; 
228 2; 229 1; 230 1; 231 5; 232 5; 
233 4; 234 7; 235 10; 236 8; 237 20; 
238 145; 239 371; 240 137; 241 39; 242 7; 
243 1; 245 1; 247 3; 248 2; 249 4; 
250 10; 251 45; 252 276; 253 54; 254 28; 
255 5; 261 2; 262 1; 263 2; 264 11; 
265 19; 266 110; 267 29; 268 9; 269 2; 
274 1; 275 5; 276 1; 277 2; 279 999; 
280 188; 281 60; 282 9; 283 1; 292 2; 
293 27; 294 6; 295 1; 307 172; 308 644; 
309 143; 310 42; 
