Name: 3-Bromomethamphetamine
InChIKey: NJECBXFYELEKOF-UHFFFAOYSA-N
Synon: 1-(3-bromophenyl)-n-methylpropan-2-amine
Formula: C10H14BrN
MW: 227
ExactMass: 227.030962
CASNO: 28100416
ID: 4458
Comment: ENFSI / NFL SI, EU project RESPONSE, confirmed by NMR
Num Peaks: 80
30 45; 32 1; 38 3; 39 17; 40 3; 
41 12; 42 38; 43 15; 44 3; 50 12; 
51 14; 52 3; 53 1; 54 3; 55 2; 
56 52; 58 999; 59 36; 61 1; 62 9; 
63 28; 64 10; 65 12; 66 4; 70 1; 
71 1; 72 1; 74 6; 75 9; 76 7; 
77 12; 78 4; 79 1; 80 1; 81 1; 
82 1; 86 2; 87 3; 89 56; 90 58; 
91 23; 92 2; 101 1; 102 6; 103 6; 
104 4; 105 1; 106 2; 107 1; 113 1; 
114 1; 115 24; 116 10; 117 17; 118 7; 
119 2; 130 5; 131 3; 132 7; 133 9; 
143 2; 144 1; 145 2; 146 1; 147 1; 
169 26; 171 25; 172 2; 182 1; 184 1; 
197 1; 199 1; 210 1; 211 1; 212 11; 
213 2; 214 10; 215 1; 226 3; 228 3; 
