Name: NiPP
InChIKey: YKMMLFOYDTYAGR-UHFFFAOYSA-N
Synon: N-isopropylpentedrone
Synon: 1-phenyl-2-(1-methylethylamino)pentan-1-one
Synon: NIPP
Synon: NPP
Synon: 2-IPP
Synon: 2-(isopropylamino)-1-phenylpentan-1-one
Synon: .alpha.-Isopropylaminopentiophenone
Formula: C14H21NO
MW: 219
ExactMass: 219.162314
CASNO: 18268149
ID: 4462
Comment: ENFSI / EDND webpage, Swedish NFP; confirmed by NMR
Num Peaks: 74
29 14; 30 236; 31 4; 32 1; 38 1; 
39 17; 40 2; 41 58; 42 27; 43 83; 
44 28; 50 10; 51 48; 52 5; 53 4; 
54 4; 55 34; 56 22; 57 4; 58 8; 
63 2; 65 2; 67 1; 68 5; 69 1; 
70 39; 71 3; 72 350; 73 18; 74 2; 
75 2; 76 5; 77 122; 78 13; 79 7; 
80 1; 82 2; 84 8; 85 5; 89 1; 
90 1; 91 12; 92 1; 98 10; 99 1; 
103 2; 104 1; 105 67; 106 12; 107 1; 
112 13; 113 3; 114 999; 115 89; 116 5; 
117 2; 118 6; 119 1; 120 1; 128 1; 
130 1; 131 1; 132 1; 133 2; 134 11; 
135 1; 146 1; 148 1; 160 6; 161 1; 
162 1; 176 7; 177 1; 204 3; 
