Name: Cloniprazepam
InChIKey: CCSYKGYLSFXNTA-UHFFFAOYSA-N
Synon: 7-nitro-1-(cyclo-propyl(methyl))-1,3-dihydro-5-(2-chlorophenyl)-2H-1,4-benzodiazepin-one
Synon: Kloniprazepam
Formula: C19H16ClN3O3
MW: 369
ExactMass: 369.088018
CASNO: 1998158841
ID: 4463
Comment: ENFSI / EDND webpage, Swedish NFP; confirmed by NMR
Num Peaks: 310
29 244; 30 25; 32 18; 35 1; 36 7; 
37 2; 38 10; 39 181; 40 16; 41 59; 
42 20; 43 14; 44 9; 45 1; 46 2; 
49 5; 50 35; 51 64; 52 33; 53 118; 
54 33; 55 999; 56 59; 57 8; 58 1; 
61 3; 62 21; 63 74; 64 23; 65 19; 
66 6; 67 5; 68 11; 69 20; 70 5; 
71 1; 73 9; 74 22; 75 86; 76 85; 
77 48; 78 21; 79 5; 80 12; 81 20; 
82 27; 83 3; 84 6; 85 4; 86 11; 
87 23; 88 29; 89 118; 90 40; 91 26; 
92 6; 93 3; 95 8; 96 32; 97 5; 
98 9; 99 31; 100 15; 101 33; 102 60; 
103 73; 104 23; 105 8; 106 3; 107 1; 
108 4; 109 19; 110 17; 111 33; 112 8; 
113 30; 114 27; 115 41; 116 43; 117 20; 
118 6; 119 22; 120 5; 122 11; 123 18; 
124 15; 125 479; 126 62; 127 160; 128 39; 
129 27; 130 16; 131 12; 132 6; 133 7; 
134 3; 135 5; 136 9; 137 28; 138 31; 
139 32; 140 23; 141 12; 142 9; 143 9; 
144 5; 145 5; 146 6; 147 13; 148 6; 
149 32; 150 66; 151 111; 152 49; 153 25; 
154 14; 155 9; 156 5; 157 7; 158 2; 
159 2; 160 9; 161 16; 162 23; 163 79; 
164 64; 165 46; 166 22; 167 8; 168 5; 
169 3; 170 10; 171 4; 172 2; 173 8; 
174 9; 175 34; 176 54; 177 133; 178 70; 
179 26; 180 10; 181 2; 182 2; 183 2; 
184 4; 185 6; 186 10; 187 6; 188 16; 
189 21; 190 72; 191 58; 192 28; 193 17; 
194 4; 195 1; 197 3; 198 9; 199 23; 
200 37; 201 19; 202 21; 203 55; 204 59; 
205 100; 206 35; 207 14; 208 3; 209 1; 
210 1; 211 4; 212 10; 213 14; 214 14; 
215 11; 216 43; 217 37; 218 27; 219 17; 
220 10; 221 8; 222 7; 223 3; 224 6; 
225 7; 226 12; 227 22; 228 15; 229 16; 
230 18; 231 13; 232 17; 233 34; 234 72; 
235 12; 236 2; 237 9; 238 21; 239 50; 
240 60; 241 31; 242 25; 243 8; 244 10; 
245 4; 246 3; 247 3; 248 2; 249 2; 
250 9; 251 11; 252 29; 253 16; 254 27; 
255 12; 256 16; 257 7; 258 9; 259 6; 
260 14; 261 5; 262 3; 263 9; 264 17; 
265 13; 266 23; 267 13; 268 61; 269 15; 
270 27; 271 10; 272 20; 273 10; 274 9; 
275 5; 276 3; 277 5; 278 14; 279 18; 
280 110; 281 21; 282 6; 283 3; 284 5; 
285 28; 286 131; 287 78; 288 58; 289 24; 
290 5; 291 1; 292 4; 293 4; 294 16; 
295 9; 296 8; 297 3; 298 20; 299 12; 
300 33; 301 10; 302 11; 303 3; 304 11; 
305 4; 306 29; 307 6; 308 1; 309 2; 
310 5; 312 107; 313 43; 314 96; 315 26; 
316 24; 317 6; 318 2; 322 4; 323 4; 
324 13; 325 5; 326 63; 327 13; 328 19; 
329 4; 330 1; 333 1; 334 40; 335 10; 
336 2; 338 9; 339 29; 340 275; 341 126; 
342 107; 343 38; 344 7; 352 5; 353 2; 
354 17; 355 3; 356 4; 357 1; 368 25; 
369 81; 370 23; 371 30; 372 5; 373 1; 
