Name: TH-PHP
Synon: 2-pyrrolidin-1-yl-1-tetralin-6-yl-hexan-1-one
InChIKey: OTVRHYOKZXMYCX-UHFFFAOYSA-N
Formula: C20H29NO
MW: 299
ExactMass: 299.224915
CASNO: 0
ID: 4465
Comment: ENFSI / EDND webpage, Finnish NFP, confirmed by NMR
Num Peaks: 85
30 3; 32 2; 39 7; 40 2; 41 27; 
42 19; 43 13; 44 4; 51 3; 52 1; 
53 7; 54 8; 55 20; 56 11; 57 2; 
63 2; 65 3; 67 3; 68 9; 69 25; 
70 14; 71 3; 72 1; 75 1; 76 1; 
77 13; 78 3; 79 2; 80 3; 81 2; 
82 3; 83 2; 84 24; 85 2; 89 2; 
90 1; 91 36; 92 3; 94 2; 95 1; 
96 27; 97 19; 98 10; 99 1; 102 4; 
103 7; 104 2; 105 1; 108 2; 110 19; 
111 2; 112 1; 115 21; 116 17; 117 3; 
126 1; 127 5; 128 14; 129 16; 130 5; 
131 9; 132 2; 136 3; 138 12; 139 5; 
140 999; 141 104; 142 5; 143 1; 145 2; 
155 1; 157 2; 158 1; 159 33; 160 4; 
171 1; 174 8; 175 1; 185 1; 187 1; 
214 1; 230 1; 240 1; 242 4; 268 1; 
