Name: Adrafinil (Not Certified by NIST)
InChIKey: CGNMLOKEMNBUAI-UHFFFAOYSA-N
Synon: CRL40028
Synon: 2-[(Diphenylmethyl]sulfinyl]-N-hydroxiacetamide
Formula: C15H15NO3S
MW: 289
ExactMass: 289.077265
CASNO: 63547137
ID: 4467
Comment: Note: Spectrum not certified by NIST / ENFSI / EDND webpage, Swedish NFP, confirmed by NMR
Num Peaks: 85
39 13; 41 1; 50 5; 51 20; 52 4; 
62 2; 63 14; 64 2; 65 14; 66 1; 
70 1; 73 1; 74 3; 75 5; 76 7; 
77 18; 78 7; 79 1; 82 3; 83 3; 
86 1; 87 4; 88 2; 89 16; 90 1; 
91 8; 99 1; 100 1; 101 3; 102 9; 
103 1; 111 1; 113 5; 114 2; 115 40; 
116 4; 125 1; 126 7; 127 6; 128 22; 
129 2; 137 1; 138 1; 139 23; 140 3; 
141 12; 142 1; 150 4; 151 22; 152 199; 
153 28; 154 5; 162 1; 163 17; 164 31; 
165 377; 166 137; 167 999; 168 147; 169 11; 
176 7; 177 4; 178 15; 179 7; 180 3; 
187 1; 189 2; 200 1; 202 2; 213 1; 
215 2; 224 1; 225 1; 226 3; 227 1; 
228 1; 239 6; 240 2; 241 2; 250 2; 
251 1; 252 5; 253 3; 254 1; 255 2; 
