Name: DOIP
Synon: 1-(4-isopropyl-2,5-dimethoxy-phenyl)propan-2-amine
Synon: 1-[2,5-dimethoxy-4-(propan-2-yl)phenyl]propan-2-amine
InChIKey: SPKSLAUXKHSASF-UHFFFAOYSA-N
Formula: C14H23NO2
MW: 237
ExactMass: 237.172879
CASNO: 0
ID: 4470
Comment: ENFSI / NFL SI, EU project RESPONSE, confirmed by NMR
Num Peaks: 122
31 1; 32 7; 38 1; 39 18; 40 4; 
41 20; 42 22; 43 16; 44 999; 45 29; 
50 2; 51 10; 52 6; 53 16; 54 2; 
55 10; 56 3; 57 4; 58 1; 59 2; 
60 1; 62 1; 63 8; 64 3; 65 20; 
66 6; 67 13; 68 2; 69 3; 72 1; 
74 2; 75 3; 76 3; 77 42; 78 16; 
79 28; 80 4; 81 4; 82 2; 83 1; 
86 1; 87 1; 89 11; 90 5; 91 77; 
92 10; 93 10; 94 4; 96 10; 102 5; 
103 29; 104 14; 105 36; 106 7; 107 8; 
108 5; 109 3; 110 1; 111 2; 115 33; 
116 15; 117 27; 118 9; 119 18; 120 8; 
121 17; 122 6; 123 6; 124 2; 127 3; 
128 7; 129 7; 130 5; 131 19; 132 8; 
133 21; 134 7; 135 21; 136 8; 137 7; 
138 2; 139 3; 141 1; 143 1; 144 2; 
145 3; 146 4; 147 13; 148 22; 149 16; 
150 6; 151 24; 152 3; 158 1; 159 1; 
160 2; 161 4; 162 8; 163 18; 164 26; 
165 10; 173 1; 174 1; 175 1; 176 1; 
177 6; 178 7; 179 246; 180 35; 181 3; 
189 1; 190 2; 191 1; 192 3; 193 27; 
194 436; 195 57; 196 6; 204 3; 205 5; 
206 3; 207 2; 
