Name: DOPR
Synon: (2,5-Dimethoxy-4-propylphenyl)propan-2-amine
InChIKey: UEEAUFJYLUJWQJ-UHFFFAOYSA-N
Formula: C14H23NO2
MW: 237
ExactMass: 237.172879
CASNO: 63779884
ID: 4471
Comment: ENFSI / EDND webpage, Swedish NFP
Num Peaks: 128
30 3; 38 1; 39 14; 40 2; 41 11; 
42 18; 43 11; 44 668; 45 20; 50 2; 
51 8; 52 4; 53 8; 54 1; 55 6; 
56 1; 57 2; 59 1; 62 1; 63 6; 
64 3; 65 20; 66 5; 67 10; 68 2; 
69 2; 74 2; 75 2; 76 2; 77 40; 
78 20; 79 25; 80 4; 81 3; 89 10; 
90 6; 91 92; 92 13; 93 10; 94 4; 
95 2; 97 9; 101 1; 102 5; 103 28; 
104 22; 105 46; 106 8; 107 14; 108 8; 
109 4; 110 1; 111 2; 115 27; 116 12; 
117 18; 118 9; 119 20; 120 19; 121 50; 
122 26; 123 12; 124 1; 127 4; 128 10; 
129 9; 130 6; 131 19; 132 10; 133 21; 
134 29; 135 88; 136 13; 137 21; 138 4; 
139 1; 143 1; 144 3; 145 6; 146 9; 
147 17; 148 15; 149 12; 150 7; 151 50; 
152 7; 153 1; 158 1; 159 2; 160 3; 
161 8; 162 10; 163 30; 164 15; 165 333; 
166 37; 167 3; 173 1; 174 1; 175 2; 
176 3; 177 6; 178 12; 179 79; 180 11; 
181 1; 186 1; 188 1; 189 1; 190 4; 
191 4; 192 7; 193 66; 194 999; 195 134; 
196 13; 197 1; 204 3; 205 3; 206 5; 
207 2; 220 2; 221 3; 222 6; 223 1; 
236 3; 237 28; 238 5; 
