Name: 4-Methylphenmetrazine
InChIKey: NWNCIXFIIDVRKE-UHFFFAOYSA-N
Synon: 3-Methyl-2-(4-methylphenyl)morpholine
Synon: 4-MPM
Synon: 3-Methyl-2(p-tolyl)morpholine
Formula: C12H17NO
MW: 191
ExactMass: 191.131014
CASNO: 1094649714
ID: 4472
Comment: ENFSI / NFL SI, EU project RESPONSE, confirmed by NMR
Num Peaks: 85
30 14; 31 1; 32 2; 38 4; 39 42; 
40 6; 41 33; 42 438; 43 286; 44 48; 
45 2; 50 12; 51 33; 52 11; 53 11; 
54 15; 56 430; 57 24; 58 3; 61 1; 
62 8; 63 34; 65 79; 66 5; 67 1; 
68 10; 69 21; 70 67; 71 999; 72 52; 
73 2; 74 4; 75 7; 76 7; 77 61; 
78 29; 79 13; 80 2; 86 3; 87 3; 
89 30; 90 13; 91 208; 92 22; 93 13; 
94 1; 96 5; 98 1; 99 1; 101 2; 
102 10; 103 32; 104 15; 105 34; 106 4; 
107 1; 115 65; 116 25; 117 69; 119 142; 
120 23; 121 4; 126 1; 127 6; 128 15; 
129 10; 130 8; 131 15; 132 18; 133 5; 
143 1; 144 5; 145 2; 146 2; 147 1; 
158 3; 159 1; 160 1; 175 1; 176 1; 
188 1; 189 2; 190 2; 191 69; 192 9; 
