Name: AB-CHMFUPPYCA
InChIKey: XMZXGVYPIIOHAQ-FQEVSTJZSA-N
Synon: AB-CHFUPYCA
Synon: N-(1-amino-3-methyl-1-oxobutan-2-yl)-1-(cyclohexylmethyl)-3-(4-fluorophenyl)-1H-pyrazole-5-carboxamide
Synon: 5,3-AB-CHMFUPPYCA
Formula: C22H29FN4O2
MW: 400
ExactMass: 400.227455
CASNO: 1870799782
ID: 4473
Comment: ENFSI / NFL Ljubljana, project RESPONSE
Num Peaks: 128
52 14; 53 103; 54 29; 55 205; 56 29; 
57 24; 58 5; 59 10; 65 9; 66 6; 
67 91; 68 17; 69 15; 70 14; 71 16; 
72 83; 73 32; 74 6; 75 11; 77 17; 
79 24; 80 9; 81 27; 82 8; 83 11; 
84 32; 86 5; 87 5; 91 9; 93 24; 
94 10; 95 285; 96 48; 97 9; 100 6; 
103 4; 106 12; 107 15; 109 13; 115 21; 
117 4; 119 4; 120 13; 121 16; 122 35; 
123 4; 131 14; 132 59; 133 46; 134 95; 
135 16; 136 7; 146 31; 147 18; 148 28; 
149 7; 158 6; 160 8; 161 19; 162 25; 
163 29; 173 6; 174 31; 175 76; 176 188; 
177 28; 187 9; 188 23; 189 329; 190 41; 
191 254; 192 29; 193 8; 199 4; 200 16; 
201 11; 202 11; 203 89; 204 23; 205 16; 
206 4; 207 135; 208 27; 209 13; 213 7; 
214 4; 215 4; 216 10; 217 7; 218 29; 
219 11; 227 5; 228 7; 229 12; 230 24; 
231 11; 242 4; 243 8; 244 8; 245 5; 
255 9; 257 999; 258 194; 259 23; 260 141; 
261 22; 265 4; 267 8; 272 15; 273 10; 
274 78; 275 16; 281 52; 282 15; 283 15; 
285 67; 286 17; 287 4; 288 4; 299 4; 
300 15; 301 30; 317 14; 318 11; 355 7; 
356 36; 357 10; 400 13; 
