Name: 4-Methoxy-.alpha.-Ethylaminovalerophenone
InChIKey: HUCVECBJRKKMRN-UHFFFAOYSA-N
Synon: 4-Methoxy-.alpha.-Ethylaminopentiophenone
Synon: 2-(ethylamino)-4-Methoxyvalerophenone
Synon: 2-(ethylamino)-1-(4-methoxyphenyl)-1-pentanone
Formula: C14H21NO2
MW: 235
ExactMass: 235.157228
CASNO: 802855921
ID: 4475
Comment: Provided by www.caymanchem.com/app/template/landing%2CForensic.vm / Item #19275 Batch #0487449
Num Peaks: 86
40 1; 41 14; 42 12; 43 14; 44 18; 
46 1; 50 6; 51 6; 52 1; 53 4; 
54 3; 55 17; 56 40; 57 4; 58 83; 
59 3; 62 2; 63 19; 64 30; 65 7; 
66 3; 67 1; 68 4; 69 2; 70 29; 
71 15; 72 11; 74 2; 75 3; 76 11; 
77 82; 78 11; 79 5; 80 1; 82 1; 
84 11; 85 1; 89 2; 90 1; 91 4; 
92 67; 93 6; 94 2; 98 24; 99 4; 
100 999; 101 74; 102 3; 103 2; 104 3; 
105 2; 106 1; 107 26; 108 4; 109 2; 
115 1; 117 1; 118 1; 119 1; 120 1; 
121 10; 122 1; 131 1; 132 1; 133 2; 
134 1; 135 91; 136 9; 137 1; 145 1; 
146 1; 147 1; 148 1; 150 1; 160 1; 
161 1; 162 1; 163 3; 164 4; 174 1; 
176 1; 188 3; 190 1; 192 9; 193 1; 
217 1; 
