Name: 3,4-Dimethyl-.alpha.-Ethylaminovalerophenone
Synon: 3,4-Dimethyl-.alpha.-Ethylaminopentiophenone
Synon: 1-(3,4-dimethylphenyl)-2-(ethylamino)pentan-1-one
InChIKey: VMIDGCVGMTTZLP-UHFFFAOYSA-N
Formula: C15H23NO
MW: 233
ExactMass: 233.177964
CASNO: 0
ID: 4476
Comment: Provided by www.caymanchem.com/app/template/landing%2CForensic.vm / Item #19210 Batch #0488723
Num Peaks: 82
41 14; 42 11; 43 14; 44 17; 46 1; 
50 2; 51 9; 52 3; 53 7; 54 3; 
55 18; 56 40; 57 4; 58 81; 59 3; 
62 1; 63 8; 64 2; 65 9; 66 1; 
67 1; 68 4; 69 1; 70 23; 71 14; 
72 10; 73 1; 74 1; 75 1; 76 2; 
77 60; 78 21; 79 46; 80 3; 82 1; 
84 12; 85 1; 89 6; 90 2; 91 15; 
92 1; 98 19; 99 4; 100 999; 101 71; 
102 7; 103 37; 104 11; 105 53; 106 6; 
107 2; 115 4; 116 1; 117 2; 118 1; 
119 6; 127 1; 128 2; 129 2; 130 1; 
131 2; 132 2; 133 50; 134 6; 143 1; 
144 1; 145 2; 146 2; 147 1; 148 1; 
158 1; 159 1; 160 2; 161 2; 162 5; 
172 1; 174 1; 175 1; 186 1; 188 1; 
190 9; 191 1; 
