Name: 3,4-DMA-NBOMe
Synon: N-(ortho-methoxybenzyl)-3,4-Dimethoxyamphetamine
Synon: 3,4-dimethoxy-N-[(2-methoxyphenyl)methyl]-.alpha.-methyl-benzeneethanamine
InChIKey: RKXGZUWEWZYDAS-UHFFFAOYSA-N
Formula: C19H25NO3
MW: 315
ExactMass: 315.183443
CASNO: 0
ID: 4480
Comment: Provided by www.caymanchem.com/app/template/landing%2CForensic.vm / Item #18753 Batch #0481344
Num Peaks: 91
40 2; 41 7; 42 8; 43 3; 44 3; 
45 1; 50 4; 51 20; 52 10; 53 6; 
54 2; 55 4; 56 10; 57 2; 62 2; 
63 11; 64 7; 65 78; 66 10; 67 3; 
73 1; 74 1; 75 2; 76 5; 77 59; 
78 62; 79 23; 80 7; 81 1; 82 1; 
89 21; 90 24; 91 420; 92 38; 93 46; 
94 8; 95 3; 102 2; 103 10; 104 7; 
105 29; 106 34; 107 72; 108 19; 109 5; 
115 4; 116 2; 117 5; 118 11; 119 10; 
120 12; 121 999; 122 90; 123 7; 124 1; 
130 2; 131 6; 132 14; 133 6; 134 4; 
135 25; 136 9; 137 8; 138 3; 139 1; 
145 1; 146 4; 147 6; 148 8; 149 5; 
150 1; 151 142; 152 20; 153 2; 161 1; 
162 59; 163 13; 164 654; 165 75; 166 5; 
177 1; 178 6; 179 7; 180 1; 191 1; 
193 1; 207 2; 208 1; 253 1; 313 2; 
314 1; 
