Name: 2,6-Dimethoxyamphetamine
InChIKey: OHGNLLDQBKOWJW-UHFFFAOYSA-N
Synon: 2,6-DMA
Synon: 2,6-dimethoxy-.alpha.-methyl-benzeneethanamine
Formula: C11H17NO2
MW: 195
ExactMass: 195.125929
CASNO: 23690144
ID: 4481
Comment: Provided by www.caymanchem.com/app/template/landing%2CForensic.vm / Item #19745 Batch #0485927
Num Peaks: 92
40 4; 41 13; 42 43; 43 19; 44 999; 
45 29; 50 13; 51 40; 52 15; 53 15; 
54 5; 55 7; 56 3; 57 5; 61 1; 
62 5; 63 19; 64 9; 65 87; 66 20; 
67 8; 68 3; 69 1; 74 5; 75 6; 
76 9; 77 91; 78 55; 79 33; 80 7; 
81 4; 82 1; 83 3; 86 1; 87 1; 
89 13; 90 16; 91 176; 92 23; 93 48; 
94 14; 95 6; 96 1; 102 2; 103 10; 
104 10; 105 30; 106 41; 107 39; 108 27; 
109 11; 110 1; 115 5; 116 3; 117 6; 
118 5; 119 4; 120 5; 121 53; 122 18; 
123 22; 124 2; 130 3; 131 5; 132 3; 
133 12; 134 5; 135 7; 136 9; 137 37; 
138 6; 146 3; 147 10; 148 12; 149 10; 
150 5; 151 66; 152 566; 153 56; 154 4; 
161 2; 162 8; 163 4; 164 3; 165 1; 
178 3; 179 1; 180 13; 181 1; 194 5; 
195 6; 196 1; 
