Name: Tiletamine
InChIKey: QAXBVGVYDCAVLV-UHFFFAOYSA-N
Synon: CI-634
Synon: CL-399
Synon: CN 54521-2
Synon: NSC 167740
Synon: 2-(ethylamino)-2-(2-thienyl)-cyclohexanone
Formula: C12H17NOS
MW: 223
ExactMass: 223.1030855
CASNO: 1182252841
ID: 4483
Comment: Provided by www.caymanchem.com/app/template/landing%2CForensic.vm / Item #19794 Batch #0487402
Num Peaks: 156
40 15; 41 74; 42 67; 43 11; 44 58; 
45 71; 46 3; 47 4; 50 11; 51 27; 
52 24; 53 25; 54 43; 55 41; 56 17; 
57 13; 58 32; 59 10; 60 3; 61 3; 
62 7; 63 25; 64 7; 65 67; 66 32; 
67 44; 68 20; 69 58; 70 24; 71 19; 
72 4; 73 3; 74 7; 75 8; 76 10; 
77 49; 78 23; 79 37; 80 14; 81 12; 
82 36; 83 45; 84 45; 85 34; 86 6; 
87 4; 88 1; 89 9; 90 4; 91 29; 
92 6; 93 12; 94 10; 95 18; 96 23; 
97 167; 98 18; 99 10; 100 1; 102 4; 
103 6; 104 6; 105 8; 106 9; 107 4; 
108 22; 109 188; 110 532; 111 91; 112 54; 
113 6; 114 1; 115 26; 116 8; 117 14; 
118 8; 119 4; 120 11; 121 42; 122 32; 
123 260; 124 40; 125 39; 126 5; 127 2; 
128 3; 129 1; 130 4; 131 6; 132 6; 
133 6; 134 32; 135 35; 136 27; 137 14; 
138 122; 139 17; 140 23; 141 2; 142 1; 
143 1; 144 1; 145 1; 146 2; 147 9; 
148 9; 149 29; 150 44; 151 100; 152 170; 
153 92; 154 17; 155 5; 156 1; 160 3; 
161 3; 162 310; 163 42; 164 12; 165 4; 
166 999; 167 133; 168 53; 169 6; 170 1; 
172 3; 173 2; 174 3; 175 2; 176 15; 
177 20; 178 49; 179 13; 180 35; 181 4; 
182 2; 186 4; 187 1; 188 2; 190 3; 
192 2; 193 1; 194 70; 195 336; 196 47; 
197 17; 198 2; 201 1; 202 1; 203 3; 
204 6; 205 20; 206 6; 207 6; 221 1; 
223 4; 
