Name: 25H-NB4OMe
InChIKey: RIQSJIKRFRLJRV-UHFFFAOYSA-N
Synon: 2C-H-NB4OMe
Synon: 2,5-dimethoxy-N-[(4-methoxyphenyl)methyl]-benzeneethanamine
Formula: C18H23NO3
MW: 301
ExactMass: 301.167793
CASNO: 1566571547
ID: 4484
Comment: Provided by www.caymanchem.com/app/template/landing%2CForensic.vm / Item #19365 Batch #0482385
Num Peaks: 75
41 5; 42 3; 43 2; 50 3; 51 14; 
52 9; 53 8; 54 2; 55 4; 62 2; 
63 9; 64 6; 65 35; 66 6; 67 4; 
74 1; 75 2; 76 4; 77 89; 78 84; 
79 24; 80 3; 81 1; 82 1; 89 18; 
90 17; 91 77; 92 13; 93 9; 94 5; 
95 2; 102 1; 103 4; 104 5; 105 11; 
106 18; 107 12; 108 19; 109 5; 116 1; 
117 3; 118 5; 119 5; 120 7; 121 999; 
122 103; 123 12; 124 1; 132 2; 133 5; 
134 10; 135 17; 136 10; 137 13; 138 2; 
143 1; 147 1; 148 30; 149 10; 150 145; 
151 42; 152 118; 153 12; 154 1; 162 2; 
163 3; 164 4; 165 8; 207 1; 253 1; 
268 18; 269 6; 270 11; 271 2; 301 2; 
