Name: Dihomo-.gamma.-Linolenic Acid methyl ester
Synon: Dihomo-gamma-Linolenic Acid methyl ester
Synon: 8Z,11Z,14Z-eicosatrienoic acid, methyl ester
InChIKey: QHATYOWJCAQINT-JPFHKJGASA-N
Formula: C21H36O2
MW: 320
ExactMass: 320.27153
CASNO: 21061109
ID: 4485
Comment: Provided by www.caymanchem.com/app/template/landing%2CForensic.vm / Item #10006580 Batch #0464538
Num Peaks: 199
40 10; 41 455; 42 61; 43 189; 44 11; 
45 19; 50 5; 51 16; 52 14; 53 92; 
54 122; 55 440; 56 37; 57 77; 58 5; 
59 175; 60 6; 61 3; 62 1; 63 6; 
64 1; 65 105; 66 121; 67 942; 68 159; 
69 298; 70 31; 71 45; 72 4; 73 31; 
74 167; 75 12; 76 2; 77 318; 78 170; 
79 999; 80 676; 81 675; 82 154; 83 107; 
84 23; 85 76; 86 4; 87 188; 88 16; 
89 4; 90 2; 91 444; 92 106; 93 539; 
94 311; 95 438; 96 120; 97 78; 98 22; 
99 17; 100 3; 101 34; 102 5; 103 21; 
104 16; 105 143; 106 63; 107 243; 108 118; 
109 126; 110 47; 111 24; 112 2; 113 8; 
114 3; 115 44; 116 9; 117 51; 118 11; 
119 72; 120 30; 121 187; 122 75; 123 52; 
124 27; 125 14; 126 1; 127 9; 128 7; 
129 25; 130 6; 131 32; 132 7; 133 61; 
134 22; 135 173; 136 72; 137 64; 138 15; 
139 5; 140 4; 141 8; 142 2; 143 17; 
144 4; 145 12; 146 7; 147 32; 148 26; 
149 93; 150 172; 151 33; 152 5; 153 4; 
154 7; 155 3; 157 9; 158 3; 159 36; 
160 6; 161 32; 162 12; 163 59; 164 40; 
165 9; 166 1; 167 3; 168 4; 171 10; 
172 2; 173 9; 174 1; 175 20; 176 6; 
177 78; 178 27; 179 7; 180 2; 181 3; 
182 2; 183 1; 185 14; 186 2; 187 3; 
188 1; 189 14; 190 10; 191 22; 192 7; 
193 5; 194 2; 195 2; 196 2; 199 5; 
200 1; 203 10; 204 1; 205 8; 206 2; 
207 4; 208 4; 209 8; 210 2; 213 1; 
217 4; 218 1; 219 2; 220 1; 221 5; 
222 58; 223 10; 224 2; 231 2; 234 2; 
235 10; 236 4; 237 1; 238 1; 245 1; 
246 1; 249 14; 250 5; 251 1; 252 2; 
260 1; 263 14; 264 3; 265 1; 266 3; 
271 4; 272 1; 277 5; 278 1; 279 2; 
288 1; 289 25; 290 5; 291 4; 292 1; 
318 1; 320 68; 321 15; 322 2; 
