Name: 3,4-Dimethyl-.alpha.-PVP
Synon: 3,4-Dimethyl-.alpha.-Pyrrolidinovalerophenone
Synon: 3,4-Dimethyl-.alpha.-Pyrrolidinopentiophenone
Synon: 1-(3,4-dimethylphenyl)-2-(pyrrolidin-1-yl)pentan-1-one
InChIKey: IKKXRCRMSQZNLG-UHFFFAOYSA-N
Formula: C17H25NO
MW: 259
ExactMass: 259.193615
CASNO: 0
ID: 4488
Comment: Provided by www.caymanchem.com/app/template/landing%2CForensic.vm / Item #19212 Batch #0488721
Num Peaks: 86
40 2; 41 27; 42 33; 43 8; 44 1; 
50 1; 51 6; 52 2; 53 8; 54 13; 
55 37; 56 12; 57 2; 62 1; 63 5; 
64 1; 65 6; 66 1; 67 3; 68 11; 
69 27; 70 18; 71 1; 72 2; 75 1; 
76 1; 77 46; 78 16; 79 39; 80 6; 
81 2; 82 5; 83 2; 84 33; 85 2; 
89 4; 90 2; 91 9; 92 1; 93 1; 
94 4; 95 2; 96 38; 97 29; 98 11; 
102 4; 103 30; 104 9; 105 43; 106 5; 
108 1; 110 14; 111 1; 115 4; 116 1; 
117 2; 118 1; 119 5; 120 1; 122 2; 
124 21; 125 5; 126 999; 127 91; 128 6; 
129 2; 130 1; 131 1; 132 1; 133 37; 
134 4; 141 1; 143 1; 144 1; 145 1; 
148 2; 158 1; 159 1; 161 1; 173 1; 
188 3; 200 1; 214 1; 216 4; 257 1; 
258 1; 
