Name: 7-Aminonimetazepam
InChIKey: OALPQSAJOMDTDB-UHFFFAOYSA-N
Formula: C16H15N3O
MW: 265
ExactMass: 265.121511
CASNO: 4959164
ID: 4490
Comment: Provided by www.caymanchem.com/app/template/landing%2CForensic.vm / Item #18353 Batch #0479655
Num Peaks: 171
40 3; 41 18; 42 26; 43 2; 44 3; 
50 16; 51 51; 52 35; 53 14; 54 15; 
55 3; 56 2; 57 1; 59 1; 61 2; 
62 14; 63 51; 64 25; 65 74; 66 32; 
67 10; 68 3; 70 6; 71 9; 73 5; 
74 14; 75 24; 76 43; 77 117; 78 41; 
79 42; 80 9; 81 2; 83 8; 84 35; 
85 2; 86 8; 87 15; 88 16; 89 58; 
90 53; 91 85; 92 53; 93 20; 94 4; 
96 5; 97 48; 99 6; 100 6; 101 8; 
102 22; 103 40; 104 85; 105 52; 106 41; 
107 6; 108 1; 110 73; 112 3; 113 22; 
114 21; 115 60; 116 47; 117 67; 118 69; 
119 54; 120 9; 121 2; 122 5; 123 2; 
124 1; 125 9; 126 17; 127 23; 128 19; 
129 8; 130 6; 131 30; 132 34; 133 46; 
134 10; 135 4; 137 4; 138 6; 139 41; 
140 38; 141 19; 142 8; 143 10; 144 29; 
145 18; 146 6; 147 8; 148 1; 149 2; 
150 11; 151 32; 152 59; 153 28; 154 16; 
155 7; 156 4; 157 1; 158 19; 159 5; 
160 8; 161 4; 162 11; 163 14; 164 20; 
165 48; 166 47; 167 56; 168 20; 169 6; 
170 1; 175 1; 176 6; 177 19; 178 23; 
179 15; 180 87; 181 31; 182 12; 183 3; 
188 1; 189 1; 190 9; 191 14; 192 35; 
193 58; 194 65; 195 21; 196 10; 197 1; 
202 2; 203 10; 204 7; 205 43; 206 18; 
207 31; 208 49; 209 68; 210 11; 211 1; 
217 2; 218 7; 219 37; 220 141; 221 62; 
222 121; 223 26; 224 3; 233 3; 234 18; 
236 538; 237 773; 238 135; 239 13; 247 3; 
248 7; 249 46; 250 10; 251 2; 253 5; 
254 1; 255 1; 264 488; 265 999; 266 182; 
267 18; 
