Name: AH 7563
Synon: N-[[1-(dimethylamino)cyclohexyl]methyl]-benzamide
InChIKey: GMBMAHMMQCNOGV-UHFFFAOYSA-N
Formula: C16H24N2O
MW: 260
ExactMass: 260.188864
CASNO: 63886942
ID: 4493
Comment: Provided by www.caymanchem.com/app/template/landing%2CForensic.vm / Item #19335 Batch #0489296
Num Peaks: 70
41 15; 42 21; 43 4; 44 21; 45 1; 
46 7; 50 7; 51 26; 52 3; 53 7; 
54 5; 55 27; 56 15; 57 1; 58 35; 
59 1; 63 1; 65 3; 66 2; 67 8; 
68 19; 69 5; 70 20; 71 5; 72 2; 
74 2; 75 2; 76 7; 77 132; 78 12; 
79 15; 80 3; 81 19; 82 14; 83 5; 
84 41; 85 6; 91 3; 93 2; 94 4; 
95 4; 96 25; 97 7; 98 2; 99 3; 
103 2; 104 3; 105 108; 106 9; 107 1; 
108 2; 109 2; 110 11; 111 3; 112 8; 
117 1; 122 4; 123 1; 124 14; 125 9; 
126 999; 127 95; 128 4; 134 1; 138 1; 
153 2; 215 2; 216 1; 217 1; 258 1; 
