Name: Deschloro W-19
Synon: (Z)-N-(1-(4-aminophenethyl)piperidin-2-ylidene)benzenesulfonamide
InChIKey: LEPJQUCPARWIPK-XUTLUUPISA-N
Formula: C19H23N3O2S
MW: 357
ExactMass: 357.151098
CASNO: 0
ID: 4495
Comment: Provided by www.caymanchem.com/app/template/landing%2CForensic.vm / Item #19576 Batch #0482921
Num Peaks: 110
41 11; 42 19; 43 4; 44 1; 45 1; 
48 4; 50 9; 51 33; 52 6; 53 7; 
54 11; 55 15; 56 4; 57 4; 58 1; 
62 1; 63 4; 64 9; 65 13; 66 10; 
67 4; 68 4; 69 4; 70 2; 73 5; 
74 5; 75 3; 76 6; 77 247; 78 53; 
79 19; 80 8; 81 3; 82 11; 83 3; 
84 5; 89 5; 90 3; 91 21; 92 5; 
93 13; 94 6; 96 3; 97 6; 98 2; 
99 2; 100 1; 102 2; 103 6; 104 12; 
105 5; 106 196; 107 28; 108 4; 109 12; 
110 19; 111 4; 112 1; 116 2; 117 11; 
118 61; 119 999; 120 105; 121 5; 123 3; 
125 5; 126 3; 128 1; 130 3; 131 3; 
132 3; 133 7; 134 14; 135 4; 141 50; 
142 4; 143 4; 144 1; 145 2; 147 3; 
154 1; 157 1; 158 1; 161 2; 173 12; 
174 1; 187 1; 193 1; 194 1; 197 1; 
199 3; 207 12; 208 1; 209 2; 214 5; 
215 2; 216 9; 217 1; 239 140; 240 18; 
241 7; 249 1; 251 2; 253 4; 254 2; 
255 1; 281 2; 331 1; 332 1; 357 2; 
