Name: W-19
Synon: (Z)-N-(1-(4-aminophenethyl)piperidin-2-ylidene)-4-chlorobenzenesulfonamide
InChIKey: LPAZQXGIOLCCTG-ZBJSNUHESA-N
Formula: C19H22ClN3O2S
MW: 391
ExactMass: 391.112125
CASNO: 0
ID: 4496
Comment: Provided by www.caymanchem.com/app/template/landing%2CForensic.vm / Item #19484 Batch #0482299
Num Peaks: 138
41 10; 42 18; 43 3; 44 2; 45 1; 
48 5; 49 1; 50 6; 51 8; 52 3; 
53 3; 54 10; 55 13; 56 4; 57 4; 
58 1; 59 1; 61 1; 62 1; 63 3; 
64 11; 65 10; 66 5; 67 1; 68 2; 
69 5; 70 1; 72 1; 73 8; 74 9; 
75 36; 76 11; 77 42; 78 15; 79 16; 
80 4; 81 2; 82 8; 83 2; 84 2; 
85 3; 87 1; 89 4; 90 1; 91 16; 
92 4; 93 11; 94 2; 95 1; 96 4; 
97 1; 98 1; 99 2; 100 1; 101 1; 
102 1; 103 5; 104 10; 105 4; 106 185; 
107 25; 108 15; 109 14; 110 5; 111 120; 
112 26; 113 39; 114 8; 115 2; 116 2; 
117 11; 118 58; 119 999; 120 104; 121 3; 
123 4; 125 1; 127 1; 128 1; 130 1; 
131 5; 132 3; 133 7; 134 12; 135 5; 
140 1; 142 1; 143 2; 144 17; 145 4; 
146 4; 147 4; 148 1; 149 1; 154 1; 
156 1; 158 1; 159 3; 160 1; 161 3; 
163 1; 165 1; 173 1; 175 32; 176 3; 
177 13; 178 1; 179 1; 195 1; 197 1; 
199 2; 207 19; 208 4; 209 1; 210 1; 
214 3; 215 1; 216 6; 221 1; 249 1; 
251 1; 253 7; 254 4; 255 1; 267 1; 
268 1; 269 2; 273 42; 274 6; 275 16; 
276 1; 281 4; 282 1; 327 1; 331 2; 
332 1; 341 1; 346 2; 
