Name: ADB-BINACA
InChIKey: IUFIUAWRCUVUCQ-UHFFFAOYSA-N
Synon: N-(1-amino-3,3-dimethyl-1-oxobutan-2-yl)-1-benzyl-1H-indazole-3-carboxamide
Formula: C21H24N4O2
MW: 364
ExactMass: 364.189926
CASNO: 1185282272
ID: 4499
Comment: Provided by www.caymanchem.com/app/template/landing%2CForensic.vm / Item # 18757 Batch #0481751
Num Peaks: 170
40 3; 41 66; 42 9; 43 11; 44 44; 
45 4; 50 6; 51 15; 52 5; 53 5; 
54 3; 55 10; 56 12; 57 59; 58 4; 
59 1; 61 1; 62 7; 63 13; 64 5; 
65 82; 66 5; 67 1; 68 3; 69 7; 
70 15; 71 6; 72 1; 73 9; 74 2; 
75 7; 76 11; 77 23; 78 12; 79 1; 
81 1; 82 1; 83 2; 84 7; 85 8; 
86 18; 87 4; 88 34; 89 30; 90 31; 
91 999; 92 77; 93 2; 100 1; 101 2; 
102 23; 103 15; 104 16; 105 15; 106 2; 
107 1; 112 1; 115 4; 116 2; 117 9; 
118 7; 119 3; 127 1; 128 2; 129 21; 
130 6; 131 30; 132 4; 133 2; 135 4; 
140 1; 143 2; 144 6; 145 101; 146 10; 
147 4; 149 2; 150 2; 151 6; 152 6; 
153 2; 154 1; 156 1; 158 1; 159 2; 
160 1; 161 5; 165 2; 170 2; 171 8; 
172 7; 173 5; 174 1; 176 3; 177 5; 
178 16; 179 9; 180 7; 181 1; 185 1; 
186 3; 190 1; 191 2; 192 1; 193 3; 
195 1; 197 2; 199 6; 200 12; 201 1; 
205 21; 206 15; 207 37; 208 25; 209 5; 
210 1; 213 1; 214 5; 217 1; 218 2; 
219 1; 220 1; 221 1; 229 4; 230 1; 
233 3; 234 1; 235 882; 236 151; 237 14; 
238 1; 246 1; 247 3; 248 5; 249 2; 
250 1; 251 1; 252 6; 253 5; 254 1; 
255 1; 262 2; 263 2; 264 5; 265 2; 
273 3; 274 4; 281 1; 289 1; 290 15; 
291 78; 292 15; 293 1; 304 2; 305 1; 
306 1; 307 1; 308 13; 309 2; 318 1; 
320 439; 321 101; 322 12; 331 2; 332 4; 
333 1; 342 1; 346 2; 347 1; 349 1; 
