Name: Metaescaline
InChIKey: HNBAVLIQFTYMAX-UHFFFAOYSA-N
Synon: 3,4-Dimethoxy-5-ethoxyphenethylamine
Synon: 3-Ethoxy-4,5-dimethoxy-benzeneethanamine
Formula: C12H19NO3
MW: 225
ExactMass: 225.136494
CASNO: 90132313
ID: 4500
Comment: Provided by www.caymanchem.com/app/template/landing%2CForensic.vm / Item #19927 Batch # 0489394
Num Peaks: 125
40 1; 41 14; 42 10; 43 18; 44 3; 
45 5; 46 1; 50 13; 51 32; 52 40; 
53 56; 54 10; 55 15; 56 2; 57 5; 
58 1; 59 1; 61 1; 62 6; 63 24; 
64 28; 65 57; 66 51; 67 34; 68 9; 
69 16; 70 3; 71 3; 74 2; 75 5; 
76 13; 77 70; 78 73; 79 52; 80 48; 
81 44; 82 16; 83 3; 85 7; 87 1; 
89 21; 90 24; 91 34; 92 28; 93 22; 
94 28; 95 43; 96 11; 97 6; 98 1; 
99 1; 102 1; 103 3; 104 10; 105 29; 
106 56; 107 44; 108 28; 109 33; 110 30; 
111 8; 117 2; 118 4; 119 5; 120 17; 
121 34; 122 69; 123 82; 124 40; 125 54; 
126 4; 131 1; 132 6; 133 5; 134 15; 
135 21; 136 61; 137 53; 138 35; 139 80; 
140 7; 146 1; 147 5; 148 5; 149 9; 
150 16; 151 58; 152 23; 153 398; 154 39; 
155 4; 161 2; 162 3; 163 5; 164 12; 
165 91; 166 19; 167 335; 168 93; 169 9; 
170 1; 176 1; 177 1; 178 4; 179 8; 
180 9; 181 199; 182 24; 183 2; 192 1; 
193 3; 194 3; 195 390; 196 999; 197 120; 
198 12; 199 1; 207 2; 208 7; 209 1; 
221 1; 223 4; 225 238; 226 32; 227 3; 
