Name: 6.beta.-Naltrexol
Synon: 6.alpha.-hydroxy Naltrexone
Synon: (5.alpha.,6.beta.)-17-(cyclopropylmethyl)-4,5-epoxy-morphinan-3,6,14-triol
InChIKey: JLVNEHKORQFVQJ-UHFFFAOYSA-N
Formula: C20H25NO4
MW: 343
ExactMass: 343.178358
CASNO: 49625890
ID: 4501
Comment: Provided by www.caymanchem.com/app/template/landing%2CForensic.vm / Item #15896 Batch #0476370
Num Peaks: 291
40 5; 41 89; 42 91; 43 88; 44 52; 
45 10; 46 1; 49 1; 50 5; 51 25; 
52 13; 53 95; 54 58; 55 936; 56 126; 
57 73; 58 20; 59 3; 60 2; 61 1; 
62 4; 63 18; 64 5; 65 49; 66 15; 
67 34; 68 68; 69 46; 70 41; 71 35; 
72 20; 73 7; 74 8; 75 10; 76 16; 
77 110; 78 36; 79 41; 80 42; 81 41; 
82 126; 83 36; 84 232; 85 63; 86 11; 
87 13; 88 6; 89 36; 90 16; 91 117; 
92 21; 93 17; 94 29; 95 19; 96 181; 
97 127; 98 346; 99 49; 100 16; 101 21; 
102 43; 103 70; 104 25; 105 37; 106 16; 
107 27; 108 35; 109 18; 110 411; 111 60; 
112 34; 113 16; 114 21; 115 226; 116 64; 
117 62; 118 34; 119 39; 120 16; 121 22; 
122 17; 123 37; 124 22; 125 4; 126 29; 
127 110; 128 132; 129 70; 130 37; 131 116; 
132 45; 133 29; 134 33; 135 29; 136 16; 
137 14; 138 21; 139 37; 140 20; 141 63; 
142 26; 143 53; 144 69; 145 67; 146 40; 
147 101; 148 44; 149 20; 150 15; 151 24; 
152 54; 153 62; 154 47; 155 43; 156 26; 
157 66; 158 36; 159 38; 160 66; 161 140; 
162 68; 163 22; 164 15; 165 36; 166 17; 
167 24; 168 27; 169 47; 170 31; 171 107; 
172 59; 173 105; 174 86; 175 80; 176 32; 
177 18; 178 14; 179 11; 180 14; 181 59; 
182 43; 183 33; 184 86; 185 92; 186 77; 
187 144; 188 70; 189 59; 190 29; 191 16; 
192 4; 193 15; 194 10; 195 18; 196 18; 
197 52; 198 44; 199 122; 200 114; 201 90; 
202 138; 203 46; 204 29; 205 17; 206 5; 
207 24; 208 9; 209 25; 210 23; 211 35; 
212 40; 213 44; 214 54; 215 48; 216 62; 
217 29; 218 27; 219 5; 220 8; 221 10; 
222 5; 223 17; 224 21; 225 24; 226 46; 
227 40; 228 189; 229 60; 230 28; 231 26; 
232 18; 233 6; 234 3; 235 4; 236 6; 
237 7; 238 10; 239 9; 240 23; 241 18; 
242 49; 243 46; 244 43; 245 16; 246 155; 
247 39; 248 4; 249 7; 250 6; 251 4; 
252 14; 253 40; 254 44; 255 28; 256 148; 
257 32; 258 43; 259 13; 260 29; 261 6; 
262 2; 263 1; 264 1; 265 3; 266 12; 
267 11; 268 15; 269 14; 270 49; 271 24; 
272 53; 273 10; 274 8; 275 1; 278 2; 
279 1; 280 3; 281 26; 282 12; 283 4; 
284 90; 285 16; 286 17; 287 11; 288 230; 
289 43; 290 4; 291 1; 292 1; 294 1; 
295 2; 296 13; 297 8; 298 8; 299 14; 
300 28; 302 460; 303 90; 304 12; 305 1; 
306 6; 307 6; 308 10; 309 2; 310 2; 
311 1; 312 1; 313 2; 314 19; 315 18; 
316 4; 317 2; 323 1; 324 43; 325 20; 
326 27; 327 9; 328 39; 329 14; 330 2; 
331 7; 332 1; 333 2; 341 11; 342 116; 
343 999; 344 225; 345 32; 346 5; 347 1; 
348 1; 
