Name: 3-Fluoro-ADB
Synon: 3-Fluoro MDMB-PINACA
InChIKey: PDDCMTWVXIMOHY-LRHAYUFXSA-N
Formula: C20H28FN3O3
MW: 377
ExactMass: 377.21147
CASNO: 0
ID: 4503
Comment: Provided by www.caymanchem.com/app/template/landing%2CForensic.vm / Item #9002716 Batch #0481552
Num Peaks: 172
40 2; 41 92; 42 10; 43 12; 44 4; 
45 2; 47 8; 50 2; 51 5; 52 1; 
53 6; 54 2; 55 13; 56 7; 57 86; 
58 4; 59 33; 60 2; 61 6; 62 3; 
63 5; 64 2; 65 3; 66 1; 67 6; 
68 4; 69 36; 70 11; 71 1; 73 11; 
74 3; 75 5; 76 13; 77 18; 78 3; 
82 1; 83 5; 84 5; 85 6; 86 4; 
87 3; 88 28; 89 20; 90 47; 91 6; 
92 1; 96 1; 99 1; 101 3; 102 28; 
103 92; 104 29; 105 3; 112 4; 114 1; 
115 3; 116 7; 117 28; 118 11; 119 2; 
121 2; 127 1; 128 3; 129 38; 130 39; 
131 214; 132 22; 133 2; 135 1; 142 2; 
143 10; 144 28; 145 258; 146 25; 147 2; 
148 2; 149 2; 154 1; 155 3; 156 6; 
157 18; 158 17; 159 4; 160 1; 163 1; 
167 1; 168 2; 169 4; 170 3; 171 32; 
172 6; 173 3; 174 7; 175 3; 176 1; 
177 3; 183 2; 184 2; 185 9; 186 14; 
187 3; 189 1; 191 1; 197 1; 198 1; 
199 1; 200 2; 201 16; 202 2; 203 5; 
204 1; 205 1; 206 7; 207 2; 211 1; 
212 1; 213 28; 214 10; 215 4; 217 1; 
226 3; 227 1; 228 1; 231 9; 233 999; 
234 157; 235 14; 242 1; 244 1; 246 86; 
247 14; 248 1; 250 1; 253 2; 258 1; 
260 1; 261 2; 262 4; 263 1; 265 2; 
269 5; 270 1; 272 2; 275 1; 278 5; 
279 1; 281 1; 286 1; 289 171; 290 30; 
291 3; 298 2; 300 1; 301 5; 302 7; 
303 5; 304 1; 316 1; 318 99; 319 20; 
321 184; 322 36; 323 4; 330 5; 331 2; 
345 1; 346 2; 357 2; 362 4; 363 1; 
377 15; 378 3; 
