Name: 4-Fluoro-ADB
Synon: 4-Fluoro MDMB-PINACA
InChIKey: UVZIIUNEZHXUMY-LRHAYUFXSA-N
Formula: C20H28FN3O3
MW: 377
ExactMass: 377.21147
CASNO: 0
ID: 4504
Comment: Provided by www.caymanchem.com/app/template/landing%2CForensic.vm / Item #9002717 Batch #0481553
Num Peaks: 203
40 3; 41 138; 42 15; 43 18; 44 7; 
45 3; 46 1; 47 41; 48 1; 50 3; 
51 7; 52 3; 53 10; 54 4; 55 22; 
56 10; 57 127; 58 6; 59 40; 60 3; 
61 3; 62 5; 63 7; 64 3; 65 5; 
66 1; 67 11; 68 7; 69 89; 70 18; 
71 3; 73 17; 74 4; 75 7; 76 20; 
77 27; 78 4; 79 1; 82 2; 83 7; 
84 7; 85 9; 86 7; 87 7; 88 44; 
89 32; 90 75; 91 11; 92 2; 95 1; 
96 1; 97 1; 98 1; 99 1; 101 4; 
102 43; 103 135; 104 40; 105 4; 112 5; 
113 1; 114 1; 115 5; 116 11; 117 45; 
118 15; 119 4; 120 1; 121 3; 127 2; 
128 7; 129 57; 130 56; 131 280; 132 30; 
133 2; 135 1; 142 4; 143 15; 144 38; 
145 411; 146 41; 147 4; 149 3; 154 3; 
155 4; 156 8; 157 18; 158 22; 159 7; 
160 1; 161 3; 162 1; 163 1; 165 1; 
167 1; 168 3; 169 7; 170 7; 171 118; 
172 19; 173 4; 174 8; 175 2; 177 46; 
178 5; 181 1; 183 3; 184 4; 185 36; 
186 21; 187 5; 188 1; 189 4; 190 1; 
191 1; 195 1; 196 1; 197 1; 198 2; 
199 1; 200 2; 201 51; 202 6; 203 3; 
204 1; 206 3; 209 1; 211 3; 213 149; 
214 36; 215 8; 216 1; 217 4; 218 1; 
219 1; 226 11; 227 2; 228 2; 229 1; 
230 2; 231 16; 233 999; 234 162; 235 14; 
240 1; 242 3; 243 1; 244 1; 246 111; 
247 18; 248 1; 250 1; 253 1; 254 1; 
255 1; 257 1; 258 4; 259 1; 260 1; 
261 2; 262 6; 263 1; 265 2; 269 29; 
270 5; 271 1; 272 1; 275 1; 278 7; 
279 1; 281 2; 282 1; 286 5; 287 1; 
289 158; 290 27; 291 3; 298 9; 299 2; 
300 1; 301 19; 302 12; 303 7; 304 1; 
310 1; 316 2; 318 140; 319 29; 321 244; 
322 48; 323 5; 330 7; 331 3; 342 1; 
345 1; 346 2; 357 7; 358 1; 362 7; 
363 1; 377 21; 378 5; 
