Name: 2-Fluoro-AMB
Synon: 2-Fluoro-AMP
InChIKey: ZOLPINKONYFTMC-FQNRMIAFSA-N
Formula: C19H26FN3O3
MW: 363
ExactMass: 363.19582
CASNO: 0
ID: 4505
Comment: Provided by www.caymanchem.com/app/template/landing%2CForensic.vm / Item #9002736 Batch#0481554
Num Peaks: 150
40 1; 41 46; 42 7; 43 44; 44 5; 
45 1; 46 1; 47 14; 50 1; 51 4; 
52 1; 53 4; 54 2; 55 28; 56 8; 
57 2; 58 1; 59 30; 60 2; 61 2; 
62 3; 63 3; 64 2; 65 2; 67 3; 
68 2; 69 16; 70 8; 71 9; 72 5; 
73 6; 74 2; 75 6; 76 12; 77 16; 
78 2; 83 3; 84 1; 85 1; 86 1; 
87 3; 88 27; 89 15; 90 32; 91 4; 
92 1; 98 7; 101 2; 102 27; 103 90; 
104 24; 105 2; 107 1; 114 2; 115 3; 
116 5; 117 20; 118 5; 119 1; 127 1; 
128 2; 129 33; 130 46; 131 86; 132 11; 
133 2; 134 1; 135 1; 142 2; 143 5; 
144 12; 145 206; 146 21; 147 2; 154 1; 
155 3; 156 4; 157 4; 158 10; 159 3; 
160 1; 161 14; 162 4; 163 1; 168 2; 
169 4; 170 1; 171 3; 172 2; 173 1; 
174 23; 175 7; 176 2; 177 1; 183 2; 
184 1; 185 8; 186 4; 187 1; 188 1; 
189 8; 190 1; 200 7; 201 2; 203 5; 
204 1; 205 22; 206 4; 207 5; 211 1; 
212 2; 213 10; 214 2; 215 2; 216 1; 
217 2; 228 5; 229 2; 231 13; 233 999; 
234 145; 235 12; 246 2; 247 3; 249 71; 
250 11; 251 1; 253 1; 261 6; 262 1; 
274 1; 284 1; 286 1; 288 4; 289 7; 
290 1; 302 2; 304 312; 305 61; 306 6; 
316 2; 320 6; 321 5; 322 1; 331 4; 
332 2; 348 1; 363 36; 364 7; 365 1; 
