Name: 4-Methylpentedrone
InChIKey: AKVKBEDACKJNPO-UHFFFAOYSA-N
Synon: 4-Methyl-.alpha.-methylamino-Valerophenone
Synon: 4-MPD
Synon: 2-(methylamino)-1-(p-tolyl)pentan-1-one
Formula: C13H19NO
MW: 205
ExactMass: 205.146665
CASNO: 1373918616
ID: 4507
Comment: Provided by www.caymanchem.com/app/template/landing%2CForensic.vm / Item #9002180 batch #0465914
Num Peaks: 67
40 1; 41 25; 42 48; 43 16; 44 197; 
45 5; 50 5; 51 10; 52 3; 53 4; 
54 4; 55 18; 56 35; 57 41; 58 26; 
59 1; 62 5; 63 22; 64 7; 65 88; 
66 5; 67 1; 68 4; 69 1; 70 25; 
71 5; 74 2; 75 2; 76 2; 77 7; 
78 2; 79 1; 84 10; 85 3; 86 999; 
87 59; 88 2; 89 32; 90 15; 91 144; 
92 13; 93 1; 102 1; 103 2; 104 1; 
105 6; 115 5; 116 1; 117 2; 118 2; 
119 60; 120 6; 128 1; 129 1; 130 1; 
131 1; 132 1; 134 4; 144 2; 145 1; 
146 2; 147 7; 148 1; 160 2; 161 1; 
162 17; 163 2; 
