Name: Eicosadienoic Acid Methyl Ester
Synon: 11Z,14Z-eicosadienoic acid, methyl ester
InChIKey: GWJCFAOQCNNFAM-NQLNTKRDSA-N
Formula: C21H38O2
MW: 322
ExactMass: 322.28718
CASNO: 61012462
ID: 4508
Comment: Provided by www.caymanchem.com/app/template/landing%2CForensic.vm / Item #10022305 Batch #C300993
Num Peaks: 193
40 9; 41 433; 42 65; 43 250; 44 14; 
45 17; 50 4; 51 10; 52 9; 53 84; 
54 251; 55 570; 56 56; 57 74; 58 5; 
59 189; 60 7; 61 2; 63 4; 65 69; 
66 70; 67 999; 68 388; 69 401; 70 40; 
71 32; 72 4; 73 37; 74 288; 75 19; 
76 3; 77 143; 78 46; 79 447; 80 231; 
81 898; 82 540; 83 227; 84 42; 85 34; 
86 2; 87 120; 88 14; 89 3; 91 121; 
92 23; 93 147; 94 111; 95 674; 96 474; 
97 181; 98 37; 99 16; 100 3; 101 25; 
102 3; 103 5; 104 5; 105 25; 106 12; 
107 72; 108 64; 109 310; 110 234; 111 77; 
112 11; 113 9; 114 5; 115 31; 116 2; 
117 7; 118 2; 119 23; 120 10; 121 81; 
122 50; 123 138; 124 113; 125 40; 126 6; 
127 8; 128 7; 129 25; 130 3; 131 13; 
132 5; 133 23; 134 8; 135 80; 136 67; 
137 82; 138 62; 139 23; 140 9; 141 12; 
142 3; 143 15; 144 2; 145 10; 146 4; 
147 13; 148 4; 149 55; 150 81; 151 43; 
152 32; 153 14; 154 9; 155 5; 156 1; 
157 8; 158 1; 159 9; 160 3; 161 12; 
162 3; 163 31; 164 45; 165 22; 166 15; 
167 9; 168 8; 169 3; 171 5; 172 1; 
173 10; 174 2; 175 9; 176 2; 177 22; 
178 28; 179 17; 180 11; 181 10; 182 3; 
183 2; 185 4; 187 9; 188 2; 189 2; 
191 12; 192 23; 193 11; 194 6; 195 6; 
196 4; 197 1; 199 1; 201 6; 202 1; 
203 1; 205 8; 206 17; 207 8; 208 4; 
209 5; 210 4; 213 1; 215 3; 219 7; 
220 8; 221 3; 222 1; 223 4; 224 3; 
233 6; 234 4; 235 2; 237 3; 238 4; 
246 1; 247 3; 248 15; 249 4; 250 1; 
251 3; 252 3; 261 3; 262 5; 263 1; 
265 2; 266 1; 273 1; 279 1; 290 51; 
291 83; 292 17; 293 4; 294 1; 320 1; 
322 101; 323 24; 324 3; 
