Name: cis-4,10,13,16-Docosatetraenoic Acid methyl ester
Synon: 4Z,10Z,13Z,16Z-docosatetraenoic acid, methyl ester
InChIKey: JXKCBSKPWHNCFL-MUDRAGMJSA-N
Formula: C23H38O2
MW: 346
ExactMass: 346.28718
CASNO: 0
ID: 4512
Comment: Provided by www.caymanchem.com/app/template/landing%2CForensic.vm / Item #10006866 Batch #128644-4
Num Peaks: 221
40 5; 41 404; 42 40; 43 134; 44 9; 
45 12; 50 5; 51 16; 52 13; 53 101; 
54 106; 55 340; 56 26; 57 50; 58 3; 
59 139; 60 5; 61 2; 62 1; 63 6; 
64 1; 65 108; 66 108; 67 999; 68 122; 
69 180; 70 17; 71 56; 72 5; 73 9; 
74 146; 75 12; 76 3; 77 295; 78 158; 
79 991; 80 630; 81 572; 82 102; 83 62; 
84 22; 85 183; 86 10; 87 46; 88 19; 
89 3; 90 2; 91 510; 92 133; 93 488; 
94 218; 95 355; 96 90; 97 41; 98 18; 
99 17; 100 2; 101 12; 102 5; 103 21; 
104 24; 105 210; 106 95; 107 208; 108 91; 
109 90; 110 32; 111 18; 112 2; 113 9; 
114 2; 115 22; 116 9; 117 62; 118 20; 
119 163; 120 99; 121 244; 122 56; 123 37; 
124 16; 125 6; 126 4; 127 12; 128 8; 
129 18; 130 7; 131 68; 132 20; 133 141; 
134 74; 135 145; 136 72; 137 63; 138 11; 
139 3; 140 18; 141 10; 142 2; 143 14; 
144 9; 145 50; 146 18; 147 117; 148 43; 
149 65; 150 153; 151 32; 152 7; 153 9; 
154 4; 155 5; 156 1; 157 9; 158 3; 
159 37; 160 11; 161 121; 162 32; 163 39; 
164 23; 165 11; 166 11; 167 12; 168 6; 
169 10; 170 2; 171 9; 172 2; 173 20; 
174 15; 175 64; 176 14; 177 28; 178 10; 
179 7; 180 11; 181 12; 182 3; 183 6; 
184 1; 185 30; 186 5; 187 27; 188 9; 
189 24; 190 10; 191 11; 192 4; 193 9; 
194 20; 195 6; 196 1; 197 3; 199 4; 
201 14; 202 5; 203 29; 204 7; 205 8; 
206 7; 207 20; 208 9; 209 3; 211 6; 
213 1; 215 5; 216 1; 217 9; 218 1; 
219 6; 220 9; 221 16; 222 3; 223 1; 
225 3; 229 6; 230 2; 231 12; 232 2; 
233 8; 234 6; 235 16; 236 3; 237 1; 
243 4; 244 1; 245 24; 246 5; 247 7; 
248 4; 249 3; 250 3; 251 1; 257 2; 
259 17; 260 4; 261 12; 262 3; 263 1; 
264 8; 265 2; 271 1; 272 6; 273 3; 
275 12; 276 3; 277 1; 278 1; 281 1; 
286 1; 287 1; 289 5; 290 1; 297 3; 
303 2; 315 9; 316 3; 317 1; 346 5; 
347 1; 
