Name: Docosahexaenoic Acid methyl ester
Synon: DHA methyl ester
Synon: Cervonic Acid methyl ester
Synon: 4Z,7Z,10Z,13Z,16Z,19Z-docosahexaenoic acid, methyl ester
InChIKey: VCDLWFYODNTQOT-JDPCYWKWSA-N
Formula: C23H34O2
MW: 342
ExactMass: 342.25588
CASNO: 2566907
ID: 4513
Comment: Provided by www.caymanchem.com/app/template/landing%2CForensic.vm / Item #10006865 Batch #0479221
Num Peaks: 219
40 11; 41 323; 42 23; 43 56; 44 2; 
45 11; 50 7; 51 25; 52 17; 53 98; 
54 40; 55 206; 56 12; 57 15; 58 2; 
59 94; 60 3; 61 3; 62 2; 63 12; 
64 2; 65 134; 66 125; 67 573; 68 55; 
69 91; 70 14; 71 29; 72 2; 73 8; 
74 96; 75 10; 76 4; 77 439; 78 213; 
79 999; 80 270; 81 187; 82 38; 83 21; 
84 8; 85 74; 86 5; 87 20; 88 32; 
89 9; 90 4; 91 876; 92 256; 93 439; 
94 113; 95 161; 96 21; 97 17; 98 5; 
99 7; 100 1; 101 7; 102 8; 103 54; 
104 72; 105 383; 106 178; 107 127; 108 190; 
109 52; 110 8; 111 7; 113 1; 114 2; 
115 69; 116 34; 117 269; 118 79; 119 299; 
120 81; 121 79; 122 29; 123 13; 124 2; 
125 1; 126 1; 127 18; 128 34; 129 77; 
130 40; 131 182; 132 84; 133 149; 134 58; 
135 52; 136 11; 137 4; 138 1; 140 4; 
141 21; 142 10; 143 47; 144 20; 145 103; 
146 42; 147 75; 148 36; 149 15; 150 3; 
151 2; 152 6; 153 6; 154 4; 155 12; 
156 5; 157 35; 158 12; 159 75; 160 24; 
161 49; 162 15; 163 6; 164 1; 165 6; 
166 38; 167 10; 168 3; 169 13; 170 2; 
171 27; 172 10; 173 41; 174 15; 175 24; 
176 6; 177 2; 178 4; 179 3; 180 8; 
181 8; 182 2; 183 13; 184 4; 185 23; 
186 10; 187 23; 188 10; 189 5; 190 1; 
191 3; 192 4; 193 5; 194 4; 195 4; 
196 1; 197 8; 198 1; 199 24; 200 7; 
201 21; 202 5; 203 2; 204 1; 205 5; 
206 18; 207 11; 208 3; 209 3; 210 1; 
211 4; 212 2; 213 11; 214 4; 215 15; 
216 2; 217 1; 218 1; 219 5; 220 4; 
221 2; 223 7; 224 1; 225 3; 227 7; 
228 1; 229 1; 231 2; 232 2; 233 6; 
234 3; 235 1; 237 1; 239 3; 240 1; 
241 12; 242 2; 243 1; 245 1; 246 3; 
247 1; 249 1; 253 1; 255 5; 256 1; 
257 1; 259 3; 260 2; 263 1; 267 1; 
268 1; 269 1; 271 1; 273 6; 274 3; 
275 1; 281 1; 285 1; 286 1; 288 1; 
299 2; 311 1; 313 2; 342 1; 
