Name: Linoleic Acid methyl ester
Synon: Methyl Linoleate
Synon: 9Z,12Z-octadecadienoic acid, methyl ester
InChIKey: WTTJVINHCBCLGX-NQLNTKRDSA-N
Formula: C19H34O2
MW: 294
ExactMass: 294.25588
CASNO: 112630
ID: 4514
Comment: Provided by www.caymanchem.com/app/template/landing%2CForensic.vm / Item #10001969 Batch #C300991
Num Peaks: 178
40 7; 41 477; 42 71; 43 201; 44 11; 
45 19; 50 4; 51 13; 52 11; 53 98; 
54 253; 55 538; 56 60; 57 57; 58 5; 
59 213; 60 6; 61 3; 62 1; 63 4; 
64 1; 65 82; 66 73; 67 999; 68 368; 
69 333; 70 38; 71 29; 72 3; 73 35; 
74 193; 75 14; 76 1; 77 177; 78 52; 
79 509; 80 234; 81 881; 82 443; 83 180; 
84 39; 85 41; 86 2; 87 98; 88 10; 
89 1; 90 1; 91 147; 92 27; 93 174; 
94 134; 95 584; 96 357; 97 132; 98 29; 
99 19; 100 4; 101 25; 102 3; 103 6; 
104 5; 105 36; 106 16; 107 100; 108 89; 
109 274; 110 192; 111 57; 112 7; 113 10; 
114 3; 115 33; 116 4; 117 11; 118 5; 
119 25; 120 20; 121 105; 122 81; 123 131; 
124 92; 125 29; 126 5; 127 11; 128 4; 
129 20; 130 2; 131 22; 132 8; 133 29; 
134 13; 135 104; 136 98; 137 72; 138 47; 
139 16; 140 10; 141 14; 142 2; 143 11; 
144 1; 145 14; 146 7; 147 18; 148 6; 
149 75; 150 101; 151 44; 152 24; 153 13; 
154 9; 155 4; 156 1; 157 4; 159 13; 
160 4; 161 7; 162 1; 163 39; 164 61; 
165 22; 166 12; 167 9; 168 8; 169 2; 
171 2; 173 17; 174 3; 175 4; 177 22; 
178 39; 179 14; 180 5; 181 8; 182 5; 
185 1; 187 11; 188 2; 189 2; 191 13; 
192 12; 193 5; 194 1; 195 6; 196 6; 
199 1; 201 4; 202 1; 203 1; 205 7; 
206 6; 207 2; 208 1; 209 4; 210 5; 
215 1; 218 3; 219 3; 220 26; 221 5; 
223 4; 224 3; 233 3; 234 5; 235 1; 
237 3; 238 2; 245 2; 251 2; 252 1; 
262 59; 263 88; 264 16; 265 3; 292 1; 
294 106; 295 25; 296 3; 
