Name: Stearidonic Acid methyl ester
Synon: Moroctic Acid methyl ester
Synon: 6Z,9Z,12Z,15Z-octadecatetraenoic acid, methyl ester
InChIKey: BIRKCHKCDPCDEG-GJDCDIHCSA-N
Formula: C19H30O2
MW: 290
ExactMass: 290.22458
CASNO: 73097004
ID: 4515
Comment: Provided by www.caymanchem.com/app/template/landing%2CForensic.vm / Item #10005000 Batch #0469726
Num Peaks: 194
40 20; 41 328; 42 38; 43 66; 44 9; 
45 13; 50 7; 51 26; 52 19; 53 104; 
54 51; 55 249; 56 16; 57 25; 58 3; 
59 145; 60 5; 61 3; 62 2; 63 10; 
64 4; 65 122; 66 114; 67 498; 68 59; 
69 97; 70 12; 71 21; 72 3; 73 19; 
74 73; 75 6; 76 3; 77 340; 78 166; 
79 999; 80 334; 81 227; 82 46; 83 35; 
84 26; 85 32; 86 2; 87 82; 88 11; 
89 6; 90 3; 91 610; 92 143; 93 482; 
94 164; 95 186; 96 25; 97 24; 98 7; 
99 12; 100 2; 101 14; 102 6; 103 35; 
104 27; 105 318; 106 115; 107 185; 108 233; 
109 54; 110 7; 111 9; 112 1; 113 4; 
114 1; 115 44; 116 16; 117 90; 118 35; 
119 228; 120 121; 121 103; 122 84; 123 25; 
124 4; 125 3; 126 1; 127 10; 128 15; 
129 34; 130 14; 131 69; 132 17; 133 120; 
134 66; 135 112; 136 27; 137 9; 138 3; 
139 3; 140 2; 141 10; 142 3; 143 15; 
144 15; 145 54; 146 14; 147 112; 148 47; 
149 40; 150 9; 151 3; 152 2; 153 2; 
154 4; 155 5; 156 2; 157 11; 158 4; 
159 22; 160 11; 161 126; 162 42; 163 17; 
164 3; 165 3; 166 2; 167 2; 168 2; 
169 6; 170 1; 171 24; 172 4; 173 17; 
174 7; 175 54; 176 17; 177 5; 178 6; 
179 3; 180 3; 181 2; 182 1; 183 6; 
184 1; 185 5; 186 1; 187 11; 188 5; 
189 39; 190 7; 191 1; 192 1; 193 3; 
194 58; 195 9; 196 2; 197 7; 198 1; 
199 2; 201 8; 202 4; 203 5; 204 1; 
205 2; 206 1; 207 8; 208 10; 209 2; 
210 6; 211 6; 212 1; 213 1; 214 1; 
215 7; 216 3; 217 2; 219 3; 220 2; 
221 44; 222 15; 223 2; 229 4; 230 1; 
233 5; 234 13; 235 5; 236 9; 237 1; 
241 2; 247 8; 248 2; 249 2; 261 12; 
262 3; 288 1; 290 8; 291 1; 
