Name: Heneicosapentaenoic Acid methyl ester
Synon: HPA methyl ester
Synon: 6Z,9Z,12Z,15Z,18Z-heneicosapentaenoic acid, methyl ester
InChIKey: VWHAHPVYEMPWTO-JEBPEJKESA-N
Formula: C22H34O2
MW: 330
ExactMass: 330.25588
CASNO: 65919531
ID: 4516
Comment: Provided by www.caymanchem.com/app/template/landing%2CForensic.vm / Item #11622 Batch #0477073
Num Peaks: 216
40 18; 41 352; 42 31; 43 64; 44 9; 
45 12; 49 1; 50 7; 51 25; 52 18; 
53 107; 54 52; 55 263; 56 17; 57 23; 
58 3; 59 135; 60 5; 61 3; 62 1; 
63 10; 64 3; 65 135; 66 125; 67 598; 
68 62; 69 110; 70 15; 71 23; 72 3; 
73 21; 74 78; 75 6; 76 4; 77 382; 
78 186; 79 999; 80 338; 81 254; 82 48; 
83 36; 84 24; 85 31; 86 3; 87 80; 
88 11; 89 6; 90 3; 91 742; 92 177; 
93 430; 94 159; 95 186; 96 24; 97 26; 
98 7; 99 11; 100 2; 101 13; 102 7; 
103 44; 104 47; 105 364; 106 133; 107 169; 
108 184; 109 57; 110 8; 111 9; 112 1; 
113 4; 114 1; 115 54; 116 23; 117 176; 
118 57; 119 281; 120 128; 121 93; 122 46; 
123 22; 124 4; 125 4; 126 1; 127 12; 
128 23; 129 49; 130 21; 131 143; 132 36; 
133 152; 134 66; 135 57; 136 20; 137 7; 
138 2; 139 2; 140 2; 141 12; 142 5; 
143 24; 144 18; 145 97; 146 27; 147 95; 
148 50; 149 32; 150 7; 151 3; 152 3; 
153 3; 154 3; 155 7; 156 3; 157 16; 
158 6; 159 50; 160 20; 161 56; 162 42; 
163 14; 164 3; 165 3; 166 2; 167 3; 
168 2; 169 9; 170 2; 171 18; 172 4; 
173 34; 174 17; 175 50; 176 12; 177 4; 
178 2; 179 3; 180 2; 181 4; 182 1; 
183 6; 184 1; 185 12; 186 3; 187 26; 
188 11; 189 14; 190 2; 191 2; 192 1; 
193 2; 194 41; 195 9; 196 1; 197 4; 
198 1; 199 6; 200 2; 201 37; 202 9; 
203 3; 205 2; 206 1; 207 6; 208 10; 
209 3; 211 6; 212 1; 213 4; 214 1; 
215 18; 216 5; 217 1; 219 2; 220 3; 
221 7; 222 6; 223 2; 225 1; 227 2; 
228 1; 229 8; 230 1; 233 3; 234 12; 
235 4; 236 1; 237 1; 241 2; 243 1; 
245 1; 247 5; 248 7; 249 2; 250 4; 
251 2; 253 2; 255 2; 259 2; 260 1; 
261 14; 262 7; 263 1; 269 2; 273 1; 
274 1; 275 2; 276 4; 277 1; 282 1; 
287 3; 288 1; 289 1; 301 5; 302 1; 
330 1; 
