Name: Eicosapentaenoic Acid methyl ester
Synon: EPA methyl ester
Synon: 5Z,8Z,11Z,14Z,17Z-eicosapentaenoic acid, methyl ester
InChIKey: QWDCYFDDFPWISL-JEBPEJKESA-N
Formula: C21H32O2
MW: 316
ExactMass: 316.24023
CASNO: 2734476
ID: 4519
Comment: Provided by www.caymanchem.com/app/template/landing%2CForensic.vm / Item #9000295 Batch #0470898
Num Peaks: 207
40 10; 41 335; 42 27; 43 89; 44 7; 
45 11; 50 7; 51 25; 52 19; 53 101; 
54 43; 55 237; 56 14; 57 16; 58 2; 
59 97; 60 3; 61 2; 62 2; 63 11; 
64 4; 65 136; 66 129; 67 570; 68 57; 
69 102; 70 16; 71 19; 72 1; 73 14; 
74 139; 75 10; 76 4; 77 416; 78 208; 
79 999; 80 306; 81 228; 82 46; 83 28; 
84 11; 85 40; 86 2; 87 44; 88 16; 
89 8; 90 3; 91 816; 92 194; 93 470; 
94 145; 95 180; 96 21; 97 21; 98 6; 
99 15; 100 3; 101 9; 102 8; 103 46; 
104 66; 105 381; 106 244; 107 161; 108 176; 
109 60; 110 8; 111 6; 112 1; 113 3; 
114 2; 115 58; 116 26; 117 195; 118 52; 
119 279; 120 106; 121 72; 122 41; 123 17; 
124 3; 125 3; 126 1; 127 11; 128 24; 
129 51; 130 30; 131 157; 132 44; 133 157; 
134 54; 135 68; 136 17; 137 4; 138 1; 
139 1; 140 4; 141 18; 142 7; 143 22; 
144 13; 145 77; 146 31; 147 86; 148 51; 
149 24; 150 5; 151 2; 152 3; 153 3; 
154 3; 155 8; 156 3; 157 19; 158 5; 
159 44; 160 22; 161 51; 162 26; 163 7; 
164 2; 165 3; 166 2; 167 4; 168 2; 
169 9; 170 2; 171 18; 172 5; 173 39; 
174 14; 175 58; 176 10; 177 2; 178 1; 
179 3; 180 43; 181 10; 182 2; 183 8; 
184 1; 185 9; 186 3; 187 25; 188 10; 
189 7; 190 1; 191 2; 192 2; 193 5; 
194 10; 195 3; 196 1; 197 10; 198 2; 
199 7; 200 3; 201 37; 202 8; 203 3; 
204 1; 205 3; 206 3; 207 7; 208 6; 
209 2; 211 2; 213 5; 214 1; 215 23; 
216 4; 217 1; 219 2; 220 14; 221 4; 
222 2; 223 3; 225 1; 227 3; 228 1; 
229 4; 233 4; 234 7; 235 2; 236 4; 
237 2; 241 4; 242 1; 243 1; 245 1; 
246 2; 247 14; 248 7; 249 1; 255 3; 
259 1; 260 1; 261 2; 262 4; 263 1; 
267 1; 273 5; 274 1; 275 1; 287 6; 
288 1; 316 2; 
