Name: 11(Z),14(Z),17(Z)-Eicosatrienoic Acid methyl ester
Synon: 11Z,14Z,17Z-eicosatrienoic acid, methyl ester
InChIKey: XQAVRBUXEPJVRC-YSTUJMKBSA-N
Formula: C21H36O2
MW: 320
ExactMass: 320.27153
CASNO: 62472962
ID: 4520
Comment: Provided by www.caymanchem.com/app/template/landing%2CForensic.vm / Item #17622 Batch #0467350
Num Peaks: 199
40 2; 41 374; 42 48; 43 180; 44 10; 
45 16; 50 5; 51 15; 52 11; 53 84; 
54 79; 55 420; 56 32; 57 52; 58 4; 
59 159; 60 5; 61 2; 62 1; 63 6; 
64 2; 65 80; 66 88; 67 701; 68 133; 
69 245; 70 19; 71 23; 72 2; 73 30; 
74 224; 75 14; 76 3; 77 243; 78 138; 
79 999; 80 422; 81 446; 82 139; 83 104; 
84 18; 85 24; 86 1; 87 137; 88 13; 
89 4; 90 1; 91 322; 92 69; 93 469; 
94 222; 95 698; 96 128; 97 75; 98 13; 
99 10; 100 2; 101 20; 102 3; 103 15; 
104 9; 105 109; 106 36; 107 189; 108 350; 
109 181; 110 35; 111 27; 112 3; 113 5; 
114 2; 115 27; 116 5; 117 25; 118 3; 
119 50; 120 21; 121 178; 122 96; 123 59; 
124 14; 125 18; 126 2; 127 4; 128 5; 
129 20; 130 3; 131 24; 132 4; 133 32; 
134 13; 135 156; 136 67; 137 33; 138 7; 
139 8; 140 2; 141 4; 142 1; 143 19; 
144 2; 145 16; 146 4; 147 15; 148 6; 
149 82; 150 42; 151 13; 152 3; 153 3; 
154 2; 155 1; 157 9; 158 1; 159 11; 
160 2; 161 8; 162 1; 163 30; 164 21; 
165 4; 166 1; 167 1; 168 2; 169 1; 
171 7; 172 1; 173 6; 174 1; 175 9; 
176 3; 177 19; 178 9; 179 2; 181 2; 
182 1; 185 4; 187 3; 189 3; 190 2; 
191 7; 192 6; 193 2; 194 1; 195 2; 
196 1; 199 1; 201 15; 202 2; 203 3; 
205 1; 206 4; 207 2; 209 1; 210 1; 
215 1; 217 2; 219 10; 220 4; 221 3; 
223 1; 224 1; 231 2; 232 1; 233 1; 
234 2; 235 2; 238 2; 241 1; 245 6; 
246 1; 247 1; 249 3; 250 1; 251 9; 
252 5; 253 1; 259 4; 260 1; 261 1; 
263 5; 264 28; 265 7; 266 3; 271 2; 
277 8; 278 2; 279 2; 281 1; 288 1; 
289 33; 290 8; 291 19; 292 3; 305 1; 
318 1; 320 52; 321 12; 322 1; 
