Name: Isobutyryl norfentanyl
InChIKey: ULIMTJITWAXNBB-UHFFFAOYSA-N
Formula: C15H22N2O
MW: 246
ExactMass: 246.173213
CASNO: 1046436536
ID: 4523
Comment: Provided by www.caymanchem.com/app/template/landing%2CForensic.vm / Item #19430 Batch #0482301
Num Peaks: 143
40 17; 41 213; 42 169; 43 513; 44 43; 
45 2; 49 2; 50 20; 51 69; 52 27; 
53 42; 54 54; 55 202; 56 252; 57 134; 
58 12; 59 22; 60 1; 61 2; 62 4; 
63 21; 64 27; 65 71; 66 34; 67 29; 
68 330; 69 34; 70 21; 71 107; 72 8; 
73 3; 74 6; 75 5; 76 13; 77 265; 
78 45; 79 27; 80 62; 81 46; 82 639; 
83 999; 84 403; 85 30; 86 2; 87 2; 
88 10; 89 10; 90 11; 91 120; 92 60; 
93 426; 94 99; 95 7; 96 3; 97 2; 
98 4; 99 2; 100 1; 101 1; 102 3; 
103 17; 104 79; 105 30; 106 44; 107 7; 
108 2; 110 1; 112 4; 113 3; 114 2; 
115 12; 116 9; 117 56; 118 209; 119 119; 
120 304; 121 31; 122 16; 123 2; 124 2; 
125 6; 126 2; 127 8; 128 7; 129 3; 
130 63; 131 30; 132 121; 133 61; 134 29; 
135 27; 136 1; 140 1; 141 25; 142 28; 
143 8; 144 25; 145 12; 146 139; 147 51; 
148 49; 149 7; 154 1; 155 16; 156 3; 
157 2; 158 41; 159 418; 160 81; 161 10; 
162 14; 163 66; 164 300; 165 38; 166 2; 
171 1; 172 1; 173 6; 174 7; 175 317; 
176 46; 177 3; 185 1; 188 7; 189 1; 
190 10; 191 2; 193 1; 202 2; 203 10; 
204 2; 207 10; 208 6; 209 2; 216 2; 
217 17; 218 3; 228 2; 229 1; 231 1; 
245 2; 246 15; 247 2; 
