Name: Butyryl norfentanyl
Synon: N-phenyl-N-4-piperidinyl-butanamide
InChIKey: GOXLPDTZAWMNTG-UHFFFAOYSA-N
Formula: C15H22N2O
MW: 246
ExactMass: 246.173213
CASNO: 0
ID: 4529
Comment: Provided by www.caymanchem.com/app/template/landing%2CForensic.vm / Item #19428 Batch #0482298
Num Peaks: 151
41 225; 42 181; 43 414; 44 43; 45 4; 
49 2; 50 19; 51 79; 52 24; 53 42; 
54 55; 55 218; 56 276; 57 154; 58 12; 
59 12; 60 1; 61 1; 62 4; 63 19; 
64 26; 65 60; 66 35; 67 31; 68 370; 
69 38; 70 19; 71 126; 72 8; 73 8; 
74 4; 75 6; 76 14; 77 277; 78 44; 
79 24; 80 53; 81 34; 82 665; 83 999; 
84 363; 85 26; 86 1; 87 2; 88 10; 
89 10; 90 13; 91 116; 92 82; 93 380; 
94 100; 95 7; 96 2; 97 1; 98 2; 
99 3; 100 1; 101 1; 102 2; 103 16; 
104 73; 105 27; 106 52; 107 9; 108 1; 
110 1; 112 3; 113 3; 114 1; 115 10; 
116 10; 117 58; 118 219; 119 115; 120 329; 
121 32; 122 7; 124 1; 125 2; 126 2; 
127 7; 128 6; 129 4; 130 74; 131 34; 
132 136; 133 64; 134 47; 135 58; 136 4; 
140 1; 141 26; 142 26; 143 8; 144 25; 
145 13; 146 128; 147 51; 148 30; 149 4; 
154 1; 155 16; 156 4; 157 2; 158 44; 
159 391; 160 62; 161 9; 162 11; 163 34; 
164 269; 165 34; 166 2; 169 1; 170 1; 
171 2; 172 2; 173 6; 174 9; 175 369; 
176 49; 177 3; 185 2; 186 1; 188 5; 
189 2; 190 9; 191 2; 192 1; 193 1; 
197 1; 199 1; 200 1; 202 3; 203 8; 
204 2; 207 12; 209 1; 213 5; 214 1; 
216 3; 217 17; 218 5; 219 1; 221 1; 
228 3; 229 2; 231 1; 245 2; 246 18; 
247 4; 
