Name: 2-Fluoro NNEI
Synon: 2-Fluoro MN-24
Synon: 1-(2-fluoropentyl)-N-(naphthalen-1-yl)-1H-indole-3-carboxamide
InChIKey: HSKUHSPFXOBHMD-UHFFFAOYSA-N
Formula: C24H23FN2O
MW: 374
ExactMass: 374.179441
CASNO: 0
ID: 4531
Comment: Provided by www.caymanchem.com/app/template/landing%2CForensic.vm / Item #9002739 Batch #0481557
Num Peaks: 137
41 32; 42 1; 43 14; 45 1; 47 15; 
50 1; 51 4; 52 2; 53 2; 55 4; 
59 5; 60 1; 61 4; 62 4; 63 7; 
64 2; 65 4; 67 3; 69 9; 73 6; 
74 2; 75 7; 76 7; 77 9; 78 4; 
87 3; 88 9; 89 26; 90 4; 91 2; 
96 1; 101 12; 102 32; 103 11; 104 1; 
105 1; 113 6; 114 19; 115 169; 116 67; 
117 8; 118 1; 119 1; 126 3; 127 10; 
128 30; 129 72; 130 29; 131 4; 132 1; 
133 3; 134 1; 135 6; 140 14; 141 7; 
142 40; 143 48; 144 140; 145 14; 146 2; 
147 3; 148 3; 149 21; 152 1; 153 1; 
154 10; 155 12; 156 4; 157 12; 158 6; 
159 1; 161 2; 165 1; 167 3; 168 6; 
169 6; 170 1; 171 1; 172 1; 174 1; 
175 1; 176 3; 177 2; 179 2; 182 1; 
184 2; 187 2; 188 7; 189 1; 191 3; 
192 2; 193 1; 195 1; 197 1; 202 3; 
204 5; 205 2; 207 14; 208 1; 209 2; 
210 2; 212 19; 213 4; 214 1; 216 1; 
228 1; 230 17; 232 999; 233 152; 234 13; 
235 1; 240 1; 253 8; 254 5; 255 4; 
256 3; 257 1; 267 3; 268 1; 269 3; 
281 3; 282 1; 284 1; 285 2; 299 1; 
315 1; 325 1; 327 1; 328 1; 332 1; 
341 2; 346 1; 354 1; 358 2; 374 81; 
375 22; 376 1; 
