Name: Furanyl norfentanyl
Synon: N-phenyl-N-4-piperidinyl-2-furancarboxamide
InChIKey: DDSUGTXSJFAMIM-UHFFFAOYSA-N
Formula: C16H18N2O2
MW: 270
ExactMass: 270.136827
CASNO: 0
ID: 4532
Comment: Provided by www.caymanchem.com/app/template/landing%2CForensic.vm / Item #19429 batch #0482300
Num Peaks: 163
40 7; 41 27; 42 101; 43 25; 44 19; 
45 2; 49 2; 50 17; 51 62; 52 16; 
53 25; 54 39; 55 146; 56 173; 57 82; 
58 4; 59 1; 62 4; 63 13; 64 17; 
65 42; 66 17; 67 54; 68 179; 69 16; 
70 8; 71 2; 73 9; 74 3; 75 6; 
76 10; 77 155; 78 25; 79 13; 80 37; 
81 22; 82 375; 83 257; 84 94; 85 6; 
86 1; 87 5; 88 1; 89 7; 90 6; 
91 46; 92 15; 93 60; 94 23; 95 999; 
96 63; 97 10; 101 1; 102 4; 103 10; 
104 43; 105 10; 106 22; 107 3; 108 1; 
109 2; 110 3; 111 1; 112 2; 113 1; 
115 16; 116 7; 117 26; 118 86; 119 35; 
120 174; 121 14; 122 2; 123 1; 124 1; 
125 2; 127 2; 128 5; 129 5; 130 48; 
131 16; 132 61; 133 16; 134 6; 135 2; 
136 1; 137 1; 138 2; 139 1; 140 1; 
141 1; 142 2; 143 5; 144 17; 145 7; 
146 51; 147 108; 148 13; 149 3; 150 1; 
151 5; 152 1; 154 3; 155 1; 156 4; 
157 2; 158 16; 159 19; 160 5; 161 1; 
163 1; 165 2; 166 1; 167 1; 168 1; 
169 2; 170 10; 171 6; 172 3; 173 7; 
174 2; 175 665; 176 86; 177 6; 179 1; 
180 1; 184 2; 185 2; 186 5; 187 72; 
188 100; 189 11; 190 1; 191 3; 193 5; 
194 1; 195 2; 196 1; 197 1; 198 16; 
199 2; 200 1; 201 1; 207 17; 208 2; 
209 1; 210 2; 212 2; 213 1; 214 15; 
215 2; 226 2; 227 5; 228 1; 249 1; 
251 1; 253 9; 254 2; 255 2; 268 1; 
270 24; 271 6; 272 1; 
