Name: Lauric Acid Methyl Ester
Synon: Dodecanoic Acid methyl ester
Synon: Methyl Dodecanoate
Synon: Methyl Laurate
Synon: NSC 5027
InChIKey: UQDUPQYQJKYHQI-UHFFFAOYSA-N
Formula: C13H26O2
MW: 214
ExactMass: 214.19328
CASNO: 111820
ID: 4535
Comment: Provided by www.caymanchem.com/app/template/landing%2CForensic.vm / Item #10022300 Batch #C300986
Num Peaks: 91
40 6; 41 227; 42 57; 43 213; 44 9; 
45 11; 50 1; 51 2; 52 1; 53 20; 
54 15; 55 200; 56 39; 57 85; 58 5; 
59 115; 60 4; 61 2; 65 4; 66 2; 
67 27; 68 13; 69 112; 70 23; 71 30; 
72 3; 73 24; 74 999; 75 119; 76 7; 
77 4; 78 1; 79 9; 80 3; 81 18; 
82 8; 83 63; 84 34; 85 20; 86 1; 
87 605; 88 54; 89 4; 91 1; 93 5; 
94 1; 95 14; 96 6; 97 46; 98 29; 
99 4; 100 3; 101 54; 102 6; 107 2; 
109 7; 110 3; 111 14; 112 6; 113 2; 
115 37; 116 8; 121 2; 123 2; 125 4; 
126 1; 129 68; 130 7; 135 1; 138 3; 
139 2; 140 6; 141 1; 143 131; 144 13; 
145 1; 153 1; 157 26; 158 3; 163 1; 
171 104; 172 12; 173 1; 181 1; 183 83; 
184 11; 185 42; 186 5; 199 1; 214 36; 
215 6; 
