Name: threo-4-Fluoromethylphenidate
Synon: (.alpha.R,2R)-rel-.alpha.-(4-fluorophenyl)-2-piperidineacetic acid, methyl ester
InChIKey: XISBAJBPDVRSPG-ABLWVSNPSA-N
Formula: C14H18FNO2
MW: 251
ExactMass: 251.132157
CASNO: 0
ID: 4537
Comment: Provided by www.caymanchem.com/app/template/landing%2CForensic.vm / Item #9002651 Batch #0480761
Num Peaks: 116
40 2; 41 34; 42 20; 43 5; 44 3; 
45 2; 49 1; 50 8; 51 11; 52 4; 
53 6; 54 24; 55 77; 56 84; 57 28; 
58 1; 59 33; 60 1; 61 2; 62 8; 
63 18; 64 2; 65 4; 66 1; 67 11; 
68 15; 69 5; 70 6; 71 1; 73 1; 
74 5; 75 15; 76 3; 77 6; 78 2; 
79 1; 80 8; 81 16; 82 46; 83 106; 
84 999; 85 59; 86 4; 87 3; 88 2; 
89 13; 90 3; 91 3; 92 1; 93 1; 
94 4; 95 15; 96 13; 97 9; 98 1; 
99 1; 100 1; 101 17; 102 2; 103 3; 
104 1; 105 2; 106 1; 107 58; 108 56; 
109 444; 110 35; 111 2; 114 1; 115 13; 
116 2; 117 1; 120 9; 121 9; 122 7; 
123 12; 124 3; 125 6; 126 1; 127 3; 
128 2; 130 2; 131 1; 132 1; 133 36; 
134 16; 135 33; 136 38; 137 8; 138 1; 
139 20; 140 2; 145 1; 146 10; 147 10; 
148 23; 149 6; 150 7; 151 1; 153 4; 
159 1; 161 3; 162 9; 163 3; 164 1; 
167 1; 168 89; 169 9; 170 1; 188 2; 
190 10; 191 4; 192 7; 216 1; 249 2; 
250 1; 
