Name: Flunitrazepam-d3 (Not Certified by NIST)
InChIKey: PPTYJKAXVCCBDU-FIBGUPNXSA-N
Formula: C16H9D3FN3O3
MW: 316
ExactMass: 316.1051
CASNO: 219533649
ID: 4538
Comment: Note: Spectrum not certified by NIST / Provided by www.caymanchem.com/app/template/landing%2CForensic.vm / Item #16189 Batch #0488759
Num Peaks: 253
40 12; 41 17; 42 11; 43 7; 44 19; 
45 42; 46 18; 47 1; 49 1; 50 42; 
51 65; 52 30; 53 17; 54 7; 55 5; 
56 10; 57 32; 58 12; 59 8; 60 13; 
61 14; 62 42; 63 116; 64 40; 65 29; 
66 18; 67 15; 68 36; 69 71; 70 33; 
71 8; 72 11; 73 19; 74 61; 75 148; 
76 84; 77 67; 78 26; 79 46; 80 26; 
81 65; 82 25; 83 44; 84 20; 85 40; 
86 28; 87 37; 88 40; 89 39; 90 34; 
91 61; 92 56; 93 65; 94 90; 95 111; 
96 30; 97 15; 98 39; 99 44; 100 26; 
101 28; 102 44; 103 45; 104 22; 105 44; 
106 46; 107 124; 108 44; 109 150; 110 45; 
111 33; 112 25; 113 15; 114 12; 115 20; 
116 12; 117 39; 118 34; 119 54; 120 140; 
121 133; 122 32; 123 41; 124 14; 125 26; 
126 46; 127 11; 128 11; 129 19; 130 10; 
131 48; 132 33; 133 58; 134 57; 135 76; 
136 19; 137 19; 138 7; 139 18; 140 9; 
141 7; 142 7; 143 11; 144 97; 145 57; 
146 34; 147 52; 148 15; 149 48; 150 30; 
151 29; 152 17; 153 11; 154 9; 155 21; 
156 19; 157 57; 158 51; 159 19; 160 9; 
161 18; 162 13; 163 30; 164 33; 165 31; 
166 22; 167 31; 168 70; 169 92; 170 162; 
171 46; 172 22; 173 13; 174 11; 175 20; 
176 46; 177 31; 178 21; 179 18; 180 16; 
181 66; 182 76; 183 77; 184 182; 185 133; 
186 53; 187 18; 188 21; 189 6; 190 13; 
191 24; 192 35; 193 43; 194 36; 195 104; 
196 68; 197 44; 198 21; 199 11; 200 19; 
201 29; 202 24; 203 33; 204 21; 205 20; 
206 10; 207 40; 208 25; 209 37; 210 40; 
211 46; 212 75; 213 80; 214 79; 215 19; 
216 3; 217 2; 218 3; 219 9; 220 18; 
221 51; 222 74; 223 163; 224 152; 225 37; 
226 14; 227 10; 228 15; 229 42; 230 42; 
231 8; 232 2; 233 3; 234 1; 236 2; 
237 5; 238 17; 239 77; 240 186; 241 469; 
242 305; 243 83; 244 11; 245 1; 248 1; 
249 7; 250 33; 251 224; 252 53; 253 17; 
254 9; 255 10; 256 10; 257 80; 258 39; 
259 11; 260 13; 261 2; 265 1; 266 1; 
267 15; 268 5; 269 535; 270 155; 271 44; 
272 24; 273 5; 274 3; 281 3; 283 4; 
284 4; 285 12; 286 22; 287 253; 288 987; 
289 999; 290 165; 291 17; 292 2; 295 1; 
296 4; 297 339; 298 69; 299 26; 300 14; 
301 2; 311 1; 312 1; 315 985; 316 682; 
317 121; 318 14; 319 1; 
