Name: Mephedrone-d3
InChIKey: YELGFTGWJGBAQU-HPRDVNIFSA-N
Formula: C11H12D3NO
MW: 180
ExactMass: 180.134194
CASNO: 1189972799
ID: 4541
Comment: Provided by www.caymanchem.com/app/template/landing%2CForensic.vm / Item #12064
Num Peaks: 77
40 7; 41 20; 42 46; 43 25; 44 4; 
50 6; 51 7; 52 6; 53 6; 54 7; 
55 7; 56 87; 57 23; 58 999; 59 39; 
62 3; 63 10; 64 14; 65 12; 66 23; 
67 59; 68 34; 69 2; 71 3; 74 4; 
75 3; 76 3; 77 5; 78 4; 79 3; 
80 2; 81 1; 86 1; 87 1; 88 1; 
89 1; 90 5; 91 19; 92 17; 93 13; 
94 135; 95 14; 96 1; 103 1; 104 1; 
105 2; 106 1; 107 1; 108 7; 109 1; 
115 1; 116 1; 117 2; 118 2; 119 1; 
120 2; 121 2; 122 57; 123 7; 130 1; 
131 2; 132 1; 133 3; 134 1; 135 1; 
137 3; 147 3; 149 2; 150 2; 151 1; 
160 1; 161 1; 163 1; 164 2; 165 5; 
179 1; 180 1; 
