Name: Flurazepam-d10
InChIKey: SAADBVWGJQAEFS-MWUKXHIBSA-N
Formula: C21H13D10ClFN3O
MW: 397
ExactMass: 397.214136
CASNO: 0
ID: 4542
Comment: Provided by www.caymanchem.com/app/template/landing%2CForensic.vm / Item #16191
Num Peaks: 164
42 2; 43 2; 44 10; 45 2; 46 15; 
49 1; 50 1; 51 1; 57 1; 58 2; 
59 4; 60 7; 61 4; 62 7; 63 5; 
64 43; 65 3; 73 2; 74 1; 75 12; 
76 3; 77 6; 78 7; 79 1; 81 2; 
82 1; 83 2; 86 1; 87 1; 89 8; 
90 5; 91 13; 92 5; 93 1; 94 4; 
95 57; 96 999; 97 59; 98 1; 99 1; 
100 1; 101 1; 102 3; 103 1; 105 1; 
106 1; 107 5; 108 5; 109 47; 110 10; 
111 3; 112 1; 113 1; 114 1; 116 2; 
117 6; 120 1; 121 2; 122 2; 123 2; 
124 2; 125 4; 126 1; 127 1; 130 1; 
131 1; 132 1; 133 3; 134 3; 135 2; 
136 2; 137 2; 138 1; 139 1; 144 2; 
145 1; 150 3; 151 4; 152 4; 153 1; 
154 1; 155 1; 156 1; 157 1; 162 1; 
163 6; 164 3; 165 1; 166 3; 167 1; 
168 3; 169 3; 170 3; 176 2; 177 4; 
178 1; 179 1; 180 2; 181 9; 182 8; 
183 28; 184 6; 188 1; 189 1; 190 4; 
191 2; 193 1; 195 4; 196 3; 197 1; 
198 1; 199 1; 203 1; 204 1; 205 1; 
207 6; 208 5; 209 5; 210 4; 211 12; 
212 3; 217 4; 218 1; 219 2; 221 1; 
222 2; 223 4; 224 2; 225 1; 226 1; 
232 1; 236 2; 237 3; 238 1; 239 1; 
244 2; 245 15; 246 4; 247 6; 252 1; 
253 7; 254 1; 255 1; 256 1; 257 3; 
258 3; 259 4; 260 2; 261 1; 271 5; 
272 2; 273 10; 274 2; 275 3; 281 2; 
282 1; 285 1; 287 1; 315 6; 316 2; 
317 2; 397 7; 398 1; 399 2; 
