Name: Cocaine-d3
InChIKey: ZPUCINDJVBIVPJ-FIBGUPNXSA-N
Formula: C17H18D3NO4
MW: 306
ExactMass: 306.165888
CASNO: 138704140
ID: 4543
Comment: Provided by www.caymanchem.com/app/template/landing%2CForensic.vm / Item #16187 Batch #0481668
Num Peaks: 135
41 30; 42 10; 43 12; 44 13; 45 165; 
46 5; 47 20; 49 1; 50 27; 51 104; 
52 12; 53 25; 54 10; 55 19; 56 9; 
57 17; 58 29; 59 54; 60 33; 61 8; 
62 2; 63 4; 64 2; 65 16; 66 11; 
67 45; 68 27; 69 21; 70 20; 71 25; 
72 6; 73 27; 74 12; 75 9; 76 23; 
77 443; 78 48; 79 31; 80 15; 81 26; 
82 36; 83 18; 84 101; 85 959; 86 238; 
87 34; 88 1; 89 1; 91 41; 92 9; 
93 25; 94 10; 95 12; 96 20; 97 422; 
98 45; 99 251; 100 101; 101 10; 102 1; 
103 2; 104 4; 105 370; 106 35; 107 8; 
108 6; 109 7; 110 11; 111 42; 112 6; 
113 22; 114 2; 115 2; 117 5; 118 5; 
119 31; 120 4; 121 3; 122 12; 123 19; 
124 12; 125 84; 126 14; 127 10; 128 1; 
129 4; 133 2; 134 1; 135 9; 136 1; 
137 1; 139 2; 140 3; 141 9; 142 1; 
143 9; 145 2; 150 1; 151 4; 152 1; 
153 29; 154 5; 155 43; 156 8; 157 15; 
158 27; 159 4; 163 1; 166 3; 167 2; 
168 1; 169 30; 170 3; 171 1; 173 2; 
182 3; 183 21; 184 63; 185 999; 186 106; 
187 9; 201 93; 202 10; 203 3; 207 2; 
222 2; 247 5; 253 1; 262 2; 275 82; 
276 13; 277 2; 306 199; 307 37; 308 5; 
