Name: MT-45-d11
Synon: I-C6-d11
Synon: 1-(cyclohexyl-d11)-4-(1,2-diphenylethyl)piperazine
InChIKey: IGBRRSIHEGCUEN-ZAKRPFGRSA-N
Formula: C24H21D11N2
MW: 359
ExactMass: 359.325594
CASNO: 0
ID: 4552
Comment: Provided by www.caymanchem.com/app/template/landing%2CForensic.vm / Item #19506 Batch  #0484628
Num Peaks: 149
41 5; 42 21; 43 7; 44 10; 45 15; 
46 44; 47 2; 48 1; 50 6; 51 8; 
52 2; 53 1; 54 5; 55 9; 56 38; 
57 35; 58 18; 59 12; 60 10; 61 9; 
62 93; 63 9; 64 2; 65 27; 66 2; 
68 2; 69 3; 70 5; 71 7; 72 12; 
73 6; 74 11; 75 3; 76 5; 77 35; 
78 10; 79 5; 80 1; 81 1; 82 2; 
83 6; 84 13; 85 11; 86 32; 87 5; 
88 8; 89 16; 90 13; 91 208; 92 36; 
93 6; 94 17; 95 7; 96 1; 97 1; 
98 2; 99 2; 100 4; 102 12; 103 60; 
104 22; 105 20; 106 6; 107 3; 109 85; 
112 1; 113 2; 114 1; 115 9; 116 4; 
117 15; 118 17; 119 8; 120 7; 121 9; 
122 4; 123 5; 126 2; 127 9; 128 5; 
129 4; 130 13; 131 7; 132 10; 133 11; 
134 19; 135 5; 136 3; 137 4; 139 1; 
141 4; 142 1; 143 1; 144 7; 145 4; 
146 20; 147 9; 148 9; 149 18; 150 3; 
151 3; 152 9; 153 6; 154 1; 156 1; 
158 2; 159 1; 160 2; 161 2; 162 1; 
163 2; 164 1; 165 46; 166 37; 167 6; 
171 1; 173 23; 174 13; 175 8; 176 32; 
177 21; 178 50; 179 32; 180 15; 181 42; 
182 8; 190 1; 191 1; 197 1; 204 3; 
208 5; 209 3; 210 2; 222 1; 240 3; 
253 1; 262 1; 263 1; 264 1; 265 3; 
266 17; 267 122; 268 999; 269 186; 270 16; 
271 1; 357 2; 358 1; 359 1; 
