Name: W-18-d4
InChIKey: BKRSVROQVRTSND-BXAICLBDSA-N
Formula: C19H16D4ClN3O4S
MW: 425
ExactMass: 425.111412
CASNO: 0
ID: 4561
Comment: Provided by www.caymanchem.com/app/template/landing%2CForensic.vm / Item #19486 batch #0484833
Num Peaks: 276
40 13; 41 41; 42 132; 43 35; 44 19; 
45 14; 46 8; 47 4; 48 29; 49 2; 
50 9; 51 17; 52 75; 53 29; 54 75; 
55 57; 56 32; 57 12; 58 8; 59 35; 
60 8; 61 11; 62 6; 63 19; 64 69; 
65 32; 66 14; 67 9; 68 13; 69 12; 
70 34; 71 3; 72 2; 73 43; 74 69; 
75 13; 76 48; 77 172; 78 277; 79 44; 
80 42; 81 25; 82 101; 83 23; 84 24; 
85 8; 86 3; 87 22; 88 12; 89 94; 
90 68; 91 158; 92 39; 93 9; 94 7; 
95 3; 96 42; 97 13; 98 11; 99 2; 
100 2; 101 3; 102 21; 103 171; 104 49; 
105 22; 106 38; 107 15; 108 5; 109 33; 
110 11; 111 25; 112 35; 113 74; 114 163; 
115 721; 116 127; 117 196; 118 92; 119 201; 
120 39; 121 17; 122 3; 123 29; 124 2; 
125 7; 126 3; 127 4; 128 8; 129 16; 
130 16; 131 27; 132 22; 133 120; 134 28; 
135 36; 136 11; 137 9; 138 4; 139 1; 
141 4; 142 5; 143 21; 144 50; 145 29; 
146 16; 147 48; 148 105; 149 41; 150 47; 
151 3; 152 6; 153 2; 154 11; 155 10; 
156 36; 157 12; 158 14; 159 5; 160 1; 
161 17; 162 9; 163 18; 164 31; 165 35; 
166 13; 167 4; 168 5; 169 3; 170 2; 
171 5; 172 2; 173 3; 174 1; 175 5; 
176 7; 177 20; 178 72; 179 248; 180 28; 
181 79; 182 11; 183 8; 184 3; 185 2; 
186 1; 187 3; 188 1; 189 3; 190 2; 
192 25; 193 149; 194 13; 195 54; 196 7; 
197 20; 198 6; 199 6; 200 56; 201 11; 
202 1; 203 3; 205 7; 206 2; 207 143; 
208 16; 209 209; 210 999; 211 207; 212 264; 
213 37; 214 4; 215 1; 216 2; 217 1; 
218 1; 219 4; 221 12; 222 2; 223 10; 
224 1; 225 3; 227 1; 229 28; 230 3; 
234 1; 235 3; 237 4; 238 1; 239 10; 
240 1; 244 2; 246 259; 247 49; 248 4; 
249 22; 250 8; 251 22; 252 2; 253 58; 
254 50; 255 14; 256 2; 257 1; 265 21; 
266 10; 267 19; 268 12; 269 42; 270 4; 
271 2; 275 1; 276 1; 277 5; 278 1; 
279 2; 281 65; 282 14; 283 60; 284 10; 
285 5; 288 2; 289 23; 290 3; 291 6; 
293 1; 294 2; 295 2; 297 1; 311 5; 
312 1; 313 3; 315 6; 316 2; 324 2; 
325 34; 326 6; 327 64; 328 3; 329 5; 
330 2; 331 51; 332 8; 333 3; 340 1; 
341 116; 342 9; 343 23; 344 4; 345 1; 
346 12; 347 4; 348 1; 355 36; 356 7; 
357 4; 377 2; 378 1; 389 1; 399 1; 
401 1; 403 4; 405 29; 406 4; 407 2; 
408 2; 415 2; 417 1; 424 5; 425 18; 
426 10; 427 9; 428 1; 429 22; 430 7; 
431 3; 
