Name: W-19-d4
Synon: (Z)-N-(1-(4-aminophenethyl)piperidin-2-ylidene)-4-chlorobenzenesulfonamide-d4
InChIKey: LPAZQXGIOLCCTG-ZASNVIIBSA-N
Formula: C19H18D4ClN3O2S
MW: 395
ExactMass: 395.137232
CASNO: 0
ID: 4562
Comment: Provided by www.caymanchem.com/app/template/landing%2CForensic.vm / Item #19487 Batch #0484834
Num Peaks: 148
40 1; 41 9; 42 17; 43 5; 44 2; 
45 1; 46 1; 48 6; 50 3; 51 4; 
52 7; 53 8; 54 14; 55 14; 56 5; 
57 3; 58 2; 59 2; 61 1; 62 1; 
63 2; 64 12; 65 10; 66 7; 67 4; 
68 2; 69 2; 70 5; 73 12; 74 4; 
75 4; 76 6; 77 42; 78 41; 79 11; 
80 17; 81 9; 82 10; 83 3; 84 2; 
85 1; 86 1; 87 3; 89 5; 90 3; 
91 20; 92 6; 93 12; 94 2; 96 2; 
97 2; 98 1; 99 1; 100 1; 101 1; 
102 1; 103 7; 104 13; 105 7; 106 192; 
107 27; 108 8; 109 2; 110 1; 111 3; 
112 8; 113 13; 114 29; 115 99; 116 31; 
117 41; 118 60; 119 999; 120 105; 121 4; 
123 4; 128 1; 130 1; 131 4; 132 6; 
133 5; 134 10; 135 10; 137 1; 143 1; 
144 3; 145 5; 146 2; 147 12; 148 17; 
149 3; 150 4; 154 1; 156 2; 158 1; 
161 1; 162 1; 163 6; 164 1; 165 2; 
173 2; 176 1; 177 1; 178 6; 179 25; 
180 3; 181 10; 182 1; 191 1; 193 2; 
195 2; 197 2; 199 2; 205 1; 207 13; 
208 1; 209 2; 210 2; 212 1; 214 2; 
215 1; 216 7; 217 1; 221 2; 249 2; 
251 1; 253 8; 254 1; 255 2; 269 2; 
276 8; 277 31; 278 7; 279 8; 280 1; 
281 7; 283 2; 284 1; 315 1; 327 2; 
329 1; 331 1; 332 1; 341 2; 342 1; 
343 1; 346 1; 355 3; 
