Name: Fentanyl-d5
Synon: N-phenyl-d5-N-[1-(2-phenylethyl)-4-piperidinyl]-propanamide
InChIKey: PJMPHNIQZUBGLI-SCUSKTIWSA-N
Formula: C22H23D5N2O
MW: 341
ExactMass: 341.251547
CASNO: 0
ID: 4563
Comment: Provided by www.caymanchem.com/app/template/landing%2CForensic.vm / Item #14721 Batch #0485926
Num Peaks: 156
40 8; 41 44; 42 194; 43 29; 44 110; 
45 4; 50 5; 51 14; 52 9; 53 16; 
54 28; 55 39; 56 31; 57 209; 58 10; 
59 1; 61 1; 62 2; 63 6; 64 3; 
65 44; 66 11; 67 28; 68 47; 69 44; 
70 85; 71 18; 72 1; 74 1; 75 1; 
76 2; 77 57; 78 22; 79 63; 80 25; 
81 26; 82 133; 83 21; 84 12; 85 2; 
86 1; 89 10; 90 4; 91 175; 92 17; 
93 5; 94 20; 95 37; 96 183; 97 56; 
98 164; 99 26; 100 2; 101 1; 102 3; 
103 48; 104 33; 105 207; 106 21; 107 8; 
108 15; 109 53; 110 25; 111 22; 112 2; 
115 4; 116 2; 117 10; 118 5; 119 4; 
120 9; 121 19; 122 36; 123 57; 124 25; 
125 12; 126 2; 128 2; 129 2; 130 15; 
131 6; 132 16; 133 10; 134 57; 135 42; 
136 61; 137 97; 138 17; 139 14; 140 2; 
141 1; 142 1; 143 2; 144 3; 145 1; 
146 5; 147 4; 148 22; 149 40; 150 78; 
151 586; 152 69; 153 11; 154 32; 155 8; 
156 1; 157 1; 158 4; 159 1; 160 22; 
161 6; 162 7; 163 48; 164 12; 165 7; 
166 1; 174 1; 176 3; 177 3; 178 3; 
180 1; 184 8; 185 7; 186 26; 187 5; 
188 19; 189 3; 190 3; 191 8; 192 29; 
193 51; 194 322; 195 46; 196 2; 204 2; 
205 6; 206 11; 207 105; 208 14; 220 1; 
221 6; 222 1; 231 1; 247 18; 248 55; 
249 125; 250 999; 251 173; 252 16; 253 2; 
268 1; 282 1; 284 2; 327 1; 339 3; 
340 1; 
