Name: 7-Aminoclonazepam-d4
Synon: 7-ACLO-d4
Synon: 7-amino-5-(2-chlorophenyl-d4)-1,3-dihydro-2H-benzo[e][1,4]diazepin-2-one
InChIKey: HEFRPWRJTGLSSV-RHQRLBAQSA-N
Formula: C15H8D4ClN3O
MW: 289
ExactMass: 289.091997
CASNO: 0
ID: 4565
Comment: Provided by www.caymanchem.com/app/template/landing%2CForensic.vm / Item #10010670
Num Peaks: 238
40 8; 41 37; 42 40; 43 8; 44 6; 
45 3; 46 1; 47 1; 50 9; 51 28; 
52 105; 53 59; 54 51; 55 4; 56 5; 
57 1; 58 1; 59 3; 60 1; 61 3; 
62 11; 63 41; 64 48; 65 95; 66 62; 
67 18; 68 9; 69 4; 70 2; 71 10; 
72 12; 73 15; 74 8; 75 31; 76 42; 
77 57; 78 111; 79 64; 80 44; 81 20; 
82 3; 83 2; 84 9; 85 78; 86 5; 
87 22; 88 19; 89 31; 90 48; 91 55; 
92 107; 93 83; 94 18; 95 9; 96 4; 
97 5; 98 16; 99 44; 100 3; 101 17; 
102 28; 103 24; 104 34; 105 97; 106 63; 
107 17; 108 9; 109 3; 110 2; 111 7; 
112 70; 113 90; 114 2; 115 34; 116 38; 
117 96; 118 72; 119 152; 120 61; 121 5; 
122 2; 123 4; 124 2; 125 6; 126 9; 
127 22; 128 14; 129 37; 130 9; 131 33; 
132 43; 133 11; 134 15; 135 9; 136 2; 
138 2; 139 4; 140 15; 141 51; 142 77; 
143 83; 144 87; 145 30; 146 31; 147 43; 
148 12; 149 2; 150 1; 151 6; 152 17; 
153 33; 154 53; 155 43; 156 39; 157 17; 
158 4; 159 7; 160 2; 161 1; 162 1; 
163 3; 164 4; 165 5; 166 15; 167 26; 
168 31; 169 50; 170 85; 171 75; 172 20; 
173 1; 174 4; 175 1; 176 2; 177 11; 
178 10; 179 16; 180 14; 181 32; 182 29; 
183 19; 184 11; 185 3; 186 2; 187 1; 
188 1; 190 1; 191 5; 192 3; 193 3; 
194 16; 195 38; 196 60; 197 80; 198 63; 
199 60; 200 8; 201 1; 203 2; 204 4; 
205 10; 206 12; 207 52; 208 21; 209 27; 
210 24; 211 16; 212 8; 213 2; 214 1; 
215 2; 216 3; 217 1; 218 8; 219 3; 
220 2; 221 3; 222 7; 223 50; 224 141; 
225 67; 226 137; 227 27; 228 2; 229 1; 
230 3; 231 9; 232 41; 233 28; 234 17; 
235 12; 236 8; 237 14; 238 10; 239 2; 
242 3; 243 7; 244 4; 245 3; 246 13; 
247 17; 248 4; 249 5; 250 1; 251 5; 
252 23; 253 32; 254 225; 255 41; 256 3; 
257 2; 258 7; 259 31; 260 857; 261 428; 
262 314; 263 132; 264 14; 265 2; 267 3; 
268 2; 269 1; 271 2; 272 4; 273 14; 
274 3; 275 3; 281 7; 282 3; 283 2; 
286 1; 287 105; 288 55; 289 999; 290 197; 
291 316; 292 59; 293 6; 
