Name: Midazolam-d4
Synon: 8-chloro-6-(2-fluorophenyl-d4)-1-methyl-4H-imidazo[1,5-a][1,4]benzodiazepine
InChIKey: DDLIGBOFAVUZHB-QFFDRWTDSA-N
Formula: C18H9D4ClFN3
MW: 329
ExactMass: 329.10331
CASNO: 0
ID: 4572
Comment: Provided by www.caymanchem.com/app/template/landing%2CForensic.vm / Item #16194 Batch #0486619
Num Peaks: 282
40 11; 41 15; 42 27; 43 5; 44 3; 
47 1; 49 2; 50 10; 51 13; 52 27; 
53 17; 54 13; 55 1; 58 2; 59 6; 
60 1; 61 4; 62 10; 63 18; 64 11; 
65 6; 66 8; 67 10; 68 10; 69 5; 
70 1; 71 9; 72 4; 73 19; 74 22; 
75 66; 76 26; 77 22; 78 53; 79 9; 
80 9; 81 2; 82 3; 83 9; 84 6; 
85 10; 86 13; 87 19; 88 16; 89 22; 
90 5; 91 2; 92 7; 93 7; 94 2; 
95 3; 96 5; 97 30; 98 4; 99 93; 
100 50; 101 44; 102 32; 103 14; 104 5; 
105 7; 106 18; 107 6; 108 4; 109 9; 
110 34; 111 43; 112 35; 113 63; 114 18; 
115 32; 116 16; 117 14; 118 5; 119 2; 
120 4; 121 3; 122 3; 123 14; 124 19; 
125 45; 126 47; 127 34; 128 88; 129 19; 
130 9; 131 5; 132 3; 133 4; 134 5; 
135 15; 136 62; 137 37; 138 33; 139 15; 
140 18; 141 17; 142 34; 143 9; 144 51; 
145 10; 146 5; 147 7; 148 18; 149 11; 
150 17; 151 12; 152 23; 153 12; 154 32; 
155 8; 156 4; 157 1; 158 5; 159 4; 
160 6; 161 9; 162 27; 163 125; 164 30; 
165 47; 166 13; 167 10; 168 36; 169 54; 
170 10; 171 9; 172 13; 173 9; 174 7; 
175 9; 176 16; 177 24; 178 14; 179 14; 
180 9; 181 7; 182 4; 183 7; 184 22; 
185 24; 186 13; 187 12; 188 4; 189 31; 
190 6; 191 15; 192 6; 193 5; 194 12; 
195 16; 196 10; 197 16; 198 21; 199 11; 
200 7; 201 3; 202 7; 203 23; 204 16; 
205 17; 206 8; 207 8; 208 4; 209 5; 
210 5; 211 8; 212 9; 213 4; 214 2; 
215 2; 216 4; 217 2; 218 4; 219 2; 
220 3; 221 7; 222 9; 223 12; 224 20; 
225 30; 226 87; 227 22; 228 4; 229 1; 
230 24; 231 6; 232 11; 233 6; 234 3; 
235 2; 236 2; 237 3; 238 4; 239 5; 
240 4; 241 5; 242 3; 243 3; 244 2; 
245 3; 246 3; 247 2; 248 1; 249 2; 
250 6; 251 7; 252 4; 253 61; 254 12; 
255 2; 256 1; 257 2; 258 4; 259 8; 
260 13; 261 25; 262 12; 263 10; 264 5; 
265 3; 266 4; 267 10; 268 3; 269 7; 
270 2; 271 2; 272 1; 273 1; 274 2; 
275 2; 276 7; 277 5; 278 7; 279 13; 
280 3; 281 5; 282 2; 283 5; 284 2; 
285 3; 286 30; 287 43; 288 24; 289 19; 
290 6; 291 3; 292 2; 293 3; 294 10; 
295 3; 296 3; 297 1; 298 1; 299 1; 
300 12; 301 100; 302 35; 303 35; 304 11; 
305 1; 307 1; 308 4; 309 5; 310 8; 
311 7; 312 8; 313 4; 314 999; 315 210; 
316 331; 317 61; 318 5; 325 1; 326 1; 
327 6; 328 38; 329 224; 330 56; 331 72; 
332 15; 333 2; 
