Name: AB-CHMINACA-d4
Synon: N-[(1S)-1-(aminocarbonyl)-2-methylpropyl]-1-(cyclohexylmethyl)-1H-indazole-d4-3-carboxamide
InChIKey: KJNZIEGLNLCWTQ-NYSHHIHSSA-N
Formula: C20H24D4N4O2
MW: 360
ExactMass: 360.246334
CASNO: 0
ID: 4573
Comment: Provided by www.caymanchem.com/app/template/landing%2CForensic.vm / Item # 18879 batch # 0486551
Num Peaks: 180
40 3; 41 91; 42 12; 43 36; 44 57; 
45 4; 50 1; 51 3; 52 3; 53 10; 
54 14; 55 171; 56 20; 57 9; 58 1; 
59 1; 61 1; 63 1; 64 4; 65 7; 
66 6; 67 30; 68 8; 69 12; 70 11; 
71 9; 72 51; 73 10; 75 1; 76 1; 
77 10; 78 9; 79 13; 80 20; 81 25; 
82 6; 83 22; 84 4; 86 2; 87 1; 
89 1; 90 1; 91 7; 92 25; 93 28; 
94 38; 95 19; 96 3; 97 14; 98 7; 
99 1; 100 1; 103 1; 104 1; 105 6; 
106 35; 107 101; 108 30; 109 4; 110 1; 
115 3; 117 1; 118 1; 119 3; 120 5; 
121 22; 122 10; 123 2; 130 1; 131 1; 
132 8; 133 35; 134 53; 135 122; 136 22; 
143 1; 145 1; 146 1; 147 11; 148 82; 
149 501; 150 48; 151 5; 152 1; 154 1; 
156 1; 158 1; 159 2; 160 6; 161 12; 
162 17; 163 8; 164 1; 165 5; 166 1; 
171 1; 172 2; 173 8; 174 2; 175 5; 
176 3; 177 4; 178 14; 179 11; 187 2; 
188 1; 189 6; 190 10; 191 2; 193 1; 
195 3; 196 1; 197 1; 200 1; 201 1; 
202 1; 203 2; 204 2; 205 3; 207 14; 
208 2; 209 4; 210 1; 214 3; 215 4; 
216 9; 217 10; 218 4; 219 2; 220 5; 
221 1; 231 3; 232 20; 233 13; 234 1; 
235 1; 242 4; 243 27; 244 139; 245 999; 
246 169; 247 15; 251 1; 253 7; 254 1; 
255 1; 257 1; 258 1; 259 9; 260 26; 
261 11; 262 2; 267 6; 268 1; 271 1; 
272 3; 277 2; 281 6; 287 1; 299 5; 
300 4; 301 2; 313 1; 314 3; 315 69; 
316 550; 317 122; 318 13; 327 2; 328 2; 
331 3; 332 1; 341 2; 342 2; 343 5; 
344 1; 346 1; 356 1; 360 4; 361 1; 
