Name: Cyclopropyl fentanyl
InChIKey: OIQSKDSKROTEMN-UHFFFAOYSA-N
Synon: N-(1-phenethylpiperidin-4-yl)-N-phenylcyclopropanecarboxamide
Formula: C23H28N2O
MW: 348
ExactMass: 348.220163
CASNO: 1169682
ID: 4574
Comment: DEA SWL / Non-verified from sample
Num Peaks: 143
36 378; 37 29; 38 166; 39 144; 40 14; 
41 487; 42 376; 43 59; 44 182; 45 3; 
50 16; 51 68; 52 12; 53 15; 54 21; 
55 70; 56 56; 57 38; 58 10; 63 24; 
64 5; 65 97; 66 15; 67 53; 68 63; 
69 822; 70 134; 71 11; 73 23; 74 7; 
75 1; 76 9; 77 282; 78 68; 79 118; 
80 11; 81 11; 82 51; 83 6; 84 18; 
85 11; 87 2; 89 12; 90 14; 91 192; 
92 53; 93 421; 94 76; 95 33; 96 354; 
97 31; 98 12; 100 2; 101 2; 102 7; 
103 116; 104 163; 105 423; 106 83; 107 15; 
108 2; 110 2; 112 2; 115 22; 116 7; 
117 65; 118 105; 119 29; 120 23; 121 9; 
125 3; 129 3; 130 148; 131 93; 132 196; 
133 3; 134 32; 135 44; 136 5; 137 7; 
139 5; 141 2; 143 7; 144 53; 145 29; 
146 999; 147 121; 148 21; 149 4; 150 6; 
154 2; 156 1; 157 2; 158 123; 159 17; 
160 34; 161 106; 162 23; 163 2; 165 1; 
170 2; 172 5; 173 4; 174 3; 179 4; 
184 6; 185 7; 186 44; 187 23; 188 42; 
189 740; 190 92; 193 12; 195 11; 197 8; 
207 52; 208 21; 209 25; 214 109; 215 16; 
221 2; 229 2; 249 9; 253 19; 254 7; 
256 7; 257 985; 258 177; 259 20; 265 5; 
267 8; 269 9; 282 14; 283 4; 311 2; 
325 5; 327 4; 329 2; 331 10; 332 1; 
341 2; 342 12; 343 7; 
