Name: Adamantyl-THPINACA
Synon: N-(1-adamantyl)-1-(tetrahydropyran-4-ylmethyl)indazole-3-carboxamide
Synon: AD-THPINACA
InChIKey: WFDRVDUEMGJILX-UHFFFAOYSA-N
Formula: C24H31N3O2
MW: 393
ExactMass: 393.241627
CASNO: 1400742484
ID: 4577
Comment: ENFSI / NFL SI, EU project RESPONSE, confirmed by NMR
Num Peaks: 274
51 17; 52 7; 53 63; 54 25; 55 242; 
56 34; 57 87; 58 29; 59 3; 61 2; 
62 5; 63 11; 64 5; 65 37; 66 24; 
67 166; 68 26; 69 318; 70 33; 71 12; 
72 2; 73 20; 74 4; 75 11; 76 22; 
77 166; 78 39; 79 255; 80 43; 81 145; 
82 25; 83 40; 84 5; 85 2; 86 1; 
87 4; 88 38; 89 36; 90 79; 91 179; 
92 136; 93 288; 94 179; 95 31; 96 36; 
97 70; 98 6; 99 263; 100 17; 101 6; 
102 49; 103 162; 104 71; 105 54; 106 33; 
107 79; 108 55; 109 31; 110 7; 111 1; 
114 2; 115 12; 116 13; 117 47; 118 26; 
119 37; 120 27; 121 8; 122 5; 123 2; 
126 6; 127 8; 128 21; 129 71; 130 53; 
131 344; 132 69; 133 44; 134 29; 135 999; 
136 147; 137 9; 139 5; 140 1; 141 2; 
142 6; 143 19; 144 36; 145 524; 146 55; 
147 13; 148 6; 149 13; 150 442; 151 65; 
152 13; 154 4; 155 16; 156 27; 157 40; 
158 30; 159 21; 160 6; 161 31; 162 7; 
163 4; 164 2; 165 2; 166 1; 167 3; 
168 8; 169 18; 170 10; 171 36; 172 118; 
173 20; 174 46; 175 16; 176 4; 177 8; 
178 2; 179 2; 180 2; 181 4; 182 4; 
183 13; 184 8; 185 58; 186 23; 187 33; 
188 6; 189 1; 191 12; 192 2; 193 8; 
194 2; 195 3; 196 5; 197 10; 198 6; 
199 7; 200 6; 201 2; 202 2; 203 1; 
205 1; 207 94; 208 22; 209 14; 210 7; 
211 4; 212 4; 213 25; 214 40; 215 180; 
216 29; 217 33; 218 4; 219 2; 220 2; 
221 3; 222 4; 223 3; 224 3; 225 4; 
226 2; 227 1; 228 4; 229 15; 230 141; 
231 22; 232 5; 233 1; 234 1; 235 1; 
236 2; 237 2; 238 9; 239 2; 240 3; 
241 46; 243 856; 244 139; 245 15; 246 1; 
249 7; 250 12; 251 8; 252 11; 253 4; 
255 1; 256 2; 257 3; 258 91; 259 16; 
260 5; 261 1; 263 13; 264 11; 265 69; 
266 16; 267 21; 268 5; 269 3; 270 2; 
271 3; 272 1; 277 3; 278 5; 279 2; 
280 36; 281 64; 282 17; 283 7; 284 1; 
290 1; 291 3; 292 3; 294 247; 295 84; 
296 13; 297 2; 298 6; 299 7; 300 7; 
301 1; 305 2; 306 4; 307 6; 308 158; 
309 73; 310 14; 311 2; 318 1; 319 3; 
320 7; 321 5; 322 8; 323 2; 324 7; 
325 3; 326 1; 334 2; 336 77; 337 27; 
338 5; 339 1; 341 1; 347 4; 348 61; 
349 30; 350 21; 351 4; 352 5; 353 1; 
355 3; 356 1; 362 1; 363 1; 364 26; 
365 140; 366 37; 367 6; 374 1; 375 1; 
376 7; 377 2; 378 2; 391 1; 392 11; 
393 182; 394 47; 395 7; 396 1; 
