Name: Dapoxetine
InChIKey: USRHYDPUVLEVMC-FQEVSTJZSA-N
Synon: LY210448
Synon: N,N-dimethyl-.alpha.S-[2-(1-naphthalenyloxy)ethyl]-benzenemethanamine
Synon: Priligy
Synon: Westoxetin
Formula: C21H23NO
MW: 305
ExactMass: 305.177965
CASNO: 119356773
ID: 4578
Comment: Provided by www.caymanchem.com/Forensic.vm / Item# 9002488  Batch# 0474399
Num Peaks: 120
41 6; 42 42; 43 4; 44 9; 45 2; 
46 3; 50 5; 51 12; 52 3; 53 1; 
55 1; 56 5; 57 1; 58 65; 59 2; 
62 5; 63 17; 64 3; 65 22; 66 2; 
67 1; 68 3; 69 1; 70 13; 71 2; 
72 1; 73 1; 74 5; 75 8; 76 7; 
77 48; 78 24; 79 5; 82 1; 84 43; 
85 6; 86 2; 87 4; 88 7; 89 33; 
90 6; 91 127; 92 11; 93 1; 94 2; 
98 1; 99 1; 100 1; 101 8; 102 7; 
103 23; 104 25; 105 7; 106 1; 113 9; 
114 14; 115 287; 116 52; 117 100; 118 83; 
119 15; 120 11; 121 1; 125 1; 126 17; 
127 85; 128 34; 129 22; 130 4; 131 5; 
132 23; 133 7; 134 999; 135 148; 136 7; 
139 1; 141 6; 142 1; 143 22; 144 20; 
145 9; 146 14; 147 16; 148 2; 152 3; 
153 4; 154 1; 155 4; 156 3; 157 15; 
158 2; 160 28; 161 8; 162 30; 163 4; 
165 1; 169 3; 170 2; 171 5; 176 1; 
177 2; 183 3; 191 1; 202 2; 203 1; 
207 3; 215 2; 217 1; 228 4; 229 1; 
231 5; 232 1; 253 1; 259 1; 260 13; 
261 3; 262 1; 281 1; 305 21; 306 5; 
