Name: Ondansetron
InChIKey: FELGMEQIXOGIFQ-UHFFFAOYSA-N
Synon: Zofran
Synon: Emeset
Synon: GR 38032F
Synon: NSC 665799
Synon: SN 307
Synon: 1,2,3,9-tetrahydro-9-methyl-3-[(2-methyl-1H-imidazol-1-yl)methyl]-4H-carbazol-4-one
Formula: C18H19N3O
MW: 293
ExactMass: 293.152813
CASNO: 99614025
ID: 4579
Comment: Provided by www.caymanchem.com/Forensic.vm / Item# 14999  Batch# 0498215
Num Peaks: 240
40 8; 41 151; 42 170; 43 12; 44 14; 
45 3; 47 8; 48 1; 49 2; 50 20; 
51 44; 52 54; 53 79; 54 194; 55 222; 
56 17; 57 5; 58 3; 59 14; 60 3; 
61 5; 62 13; 63 54; 64 14; 65 20; 
66 18; 67 33; 68 106; 69 17; 70 4; 
71 7; 72 2; 73 129; 74 27; 75 58; 
76 73; 77 95; 78 36; 79 9; 80 55; 
81 145; 82 96; 83 16; 84 7; 85 7; 
86 10; 87 46; 88 30; 89 72; 90 31; 
91 64; 92 10; 93 10; 94 28; 95 288; 
96 938; 97 111; 98 17; 99 9; 100 9; 
101 83; 102 149; 103 61; 104 20; 105 9; 
106 6; 107 13; 108 4; 109 5; 110 7; 
111 3; 112 6; 113 21; 114 48; 115 448; 
116 146; 117 90; 118 8; 119 15; 120 5; 
121 48; 122 11; 123 3; 124 3; 125 11; 
126 35; 127 97; 128 333; 129 92; 130 29; 
131 16; 132 3; 133 41; 134 21; 135 62; 
136 7; 137 8; 138 3; 139 26; 140 51; 
141 40; 142 392; 143 752; 144 105; 145 13; 
146 3; 147 131; 148 14; 149 20; 150 13; 
151 11; 152 48; 153 55; 154 147; 155 76; 
156 70; 157 38; 158 17; 159 6; 160 1; 
161 5; 162 2; 163 29; 164 7; 165 19; 
166 36; 167 265; 168 295; 169 110; 170 282; 
171 344; 172 97; 173 10; 174 1; 175 7; 
176 3; 177 24; 178 20; 179 23; 180 147; 
181 88; 182 377; 183 422; 184 224; 185 36; 
186 3; 187 4; 188 1; 189 11; 190 2; 
191 40; 192 20; 193 37; 194 43; 195 26; 
196 86; 197 131; 198 999; 199 197; 200 9; 
201 2; 202 2; 203 5; 204 4; 205 6; 
206 5; 207 354; 208 74; 209 52; 210 133; 
211 857; 212 408; 213 68; 214 8; 215 1; 
216 1; 217 1; 218 2; 219 6; 220 4; 
221 18; 222 7; 223 8; 224 6; 225 6; 
226 1; 227 1; 232 1; 233 1; 234 4; 
235 5; 236 5; 237 9; 238 2; 239 4; 
240 4; 247 2; 248 2; 249 9; 250 4; 
251 8; 252 5; 253 104; 254 24; 255 29; 
256 7; 257 3; 258 1; 262 1; 263 2; 
264 3; 265 12; 266 10; 267 17; 268 4; 
269 18; 270 3; 271 2; 272 1; 274 2; 
275 2; 276 11; 277 3; 278 7; 279 5; 
281 94; 282 25; 283 16; 284 8; 285 7; 
287 1; 289 1; 290 1; 291 4; 292 4; 
293 941; 294 200; 295 25; 296 1; 297 1; 
