Name: ADB-FUBICA
Synon: N-(1-amino-3,3-dimethyl-1-oxobutan-2-yl)-1-(4-fluorobenzyl)-1H-indole-3-carboxamide
InChIKey: QIFOZYUACLDTAJ-UHFFFAOYSA-N
Formula: C22H24FN3O2
MW: 381
ExactMass: 381.185255
CASNO: 0
ID: 4581
Comment: Provided by www.caymanchem.com/Forensic.vm / Item#18756 Batch#0487908
Num Peaks: 189
41 55; 42 9; 43 10; 44 33; 45 3; 
47 1; 50 4; 51 3; 52 1; 53 2; 
54 1; 55 10; 56 13; 57 62; 58 3; 
59 7; 61 1; 62 4; 63 9; 64 1; 
65 2; 67 1; 68 2; 69 5; 70 7; 
71 1; 73 16; 74 3; 75 7; 76 2; 
77 5; 78 3; 80 1; 81 2; 82 2; 
83 70; 84 2; 85 1; 86 3; 87 6; 
88 7; 89 18; 90 2; 91 5; 92 1; 
93 1; 94 1; 95 1; 96 6; 97 1; 
99 1; 100 1; 101 4; 102 4; 103 2; 
104 1; 105 1; 107 8; 108 6; 109 999; 
110 77; 111 2; 113 1; 114 13; 115 40; 
116 9; 117 2; 118 1; 119 2; 121 1; 
125 2; 127 1; 128 7; 129 3; 130 1; 
131 1; 133 5; 134 1; 135 7; 136 1; 
141 2; 142 4; 143 67; 144 23; 145 3; 
146 1; 147 2; 149 3; 150 1; 152 1; 
153 2; 154 1; 156 3; 157 1; 158 1; 
161 1; 163 1; 165 1; 168 1; 169 1; 
170 1; 171 3; 172 1; 175 1; 176 4; 
177 3; 178 3; 179 4; 181 1; 184 1; 
185 1; 189 1; 191 3; 192 1; 193 4; 
194 4; 195 4; 196 4; 197 5; 198 2; 
199 2; 201 1; 203 1; 204 2; 205 1; 
207 32; 208 7; 209 5; 210 2; 220 1; 
221 7; 222 18; 223 11; 224 8; 225 9; 
226 3; 228 5; 229 1; 235 1; 247 1; 
249 1; 250 16; 252 780; 253 154; 254 11; 
255 1; 257 1; 265 2; 266 1; 267 4; 
268 1; 269 2; 270 1; 279 2; 280 9; 
281 12; 282 5; 283 2; 306 5; 307 11; 
308 60; 309 12; 315 1; 323 1; 324 1; 
325 5; 326 1; 327 5; 328 1; 329 1; 
331 4; 332 1; 337 48; 338 12; 339 1; 
341 3; 342 2; 343 1; 346 1; 349 3; 
355 1; 356 1; 357 2; 363 9; 364 5; 
365 2; 381 29; 382 6; 383 1; 
