Name: 4,4'-Dicyanobenzhydrol
Synon: bis-(4-Cyanophenyl)methanol
Synon: bis(p-Cyanophenyl)methanol
Synon: CGP 44,645
Synon: 4,4'-(hydroxymethylene)bis-benzonitrile
InChIKey: JNJWXPZHWUOYRZ-UHFFFAOYSA-N
Formula: C15H10N2O
MW: 234
ExactMass: 234.079313
CASNO: 134521167
ID: 4583
Comment: Provided by www.caymanchem.com/Forensic.vm / Item# 21316 Batch# 0497791
Num Peaks: 124
40 1; 41 1; 49 4; 50 54; 51 86; 
52 25; 53 6; 54 1; 55 1; 61 6; 
62 19; 63 34; 64 22; 65 5; 66 2; 
73 9; 74 43; 75 167; 76 175; 77 248; 
78 26; 79 2; 81 8; 85 3; 86 9; 
87 16; 88 19; 89 14; 90 5; 91 2; 
94 1; 95 5; 96 4; 98 5; 99 16; 
100 15; 101 14; 102 424; 103 265; 104 697; 
105 88; 106 5; 107 1; 108 6; 110 2; 
111 5; 112 5; 113 8; 114 11; 115 5; 
116 9; 117 1; 122 1; 123 2; 124 3; 
125 5; 126 6; 127 8; 128 2; 129 3; 
130 999; 131 196; 132 197; 133 18; 134 2; 
135 3; 136 1; 137 3; 138 6; 139 5; 
140 13; 141 1; 147 1; 149 3; 150 9; 
151 24; 152 10; 153 5; 154 1; 155 1; 
156 1; 161 3; 162 6; 163 11; 164 15; 
165 7; 166 2; 175 6; 176 12; 177 25; 
178 12; 179 5; 180 3; 181 1; 186 1; 
187 4; 188 29; 189 23; 190 57; 191 14; 
192 2; 193 1; 202 5; 203 4; 204 4; 
205 99; 206 30; 207 25; 208 8; 209 2; 
213 3; 214 2; 215 62; 216 31; 217 22; 
218 44; 219 8; 220 1; 231 4; 232 12; 
233 125; 234 165; 235 27; 236 3; 
