Name: 11-Hydroxy-delta-9-THC-d3
Synon: 11-Hydroxy-.delta.9-Tetrahydrocannabinol-d3
Synon: rel-6aR,7,8,10aR-tetrahydro-1-hydroxy-6,6-dimethyl-3-(pentyl-5,5,5-d3)-6H-dibenzo[b,d]pyran-9-methanol
InChIKey: YCBKSSAWEUDACY-MVOYJBSWSA-N
Formula: C21H27D3O3
MW: 333
ExactMass: 333.238325
CASNO: 362044744
ID: 4585
Comment: Provided by www.caymanchem.com/Forensic.vm / Item# 19781 Batch# 0500793
Num Peaks: 275
41 97; 42 26; 43 74; 44 32; 45 30; 
46 31; 47 2; 50 2; 51 9; 52 4; 
53 23; 54 4; 55 37; 56 8; 57 18; 
58 8; 59 17; 60 10; 61 1; 62 1; 
63 7; 64 2; 65 20; 66 9; 67 89; 
68 12; 69 79; 70 16; 71 4; 72 6; 
73 31; 74 13; 75 6; 76 3; 77 61; 
78 31; 79 56; 80 7; 81 62; 82 8; 
83 14; 84 1; 85 2; 86 2; 87 6; 
88 1; 89 10; 90 5; 91 96; 92 15; 
93 28; 94 9; 95 48; 96 28; 97 8; 
98 4; 99 2; 100 1; 101 2; 102 8; 
103 21; 104 8; 105 41; 106 16; 107 36; 
108 11; 109 10; 110 2; 111 3; 112 2; 
113 1; 114 2; 115 68; 116 20; 117 27; 
118 7; 119 39; 120 9; 121 15; 122 5; 
123 31; 124 12; 125 1; 126 2; 127 25; 
128 54; 129 39; 130 9; 131 32; 132 9; 
133 24; 134 5; 135 25; 136 19; 137 8; 
138 4; 139 8; 140 4; 141 33; 142 16; 
143 13; 144 15; 145 30; 146 9; 147 54; 
148 10; 149 21; 150 11; 151 8; 152 30; 
153 30; 154 12; 155 18; 156 7; 157 15; 
158 12; 159 19; 160 23; 161 41; 162 12; 
163 17; 164 8; 165 32; 166 13; 167 12; 
168 24; 169 17; 170 10; 171 16; 172 8; 
173 27; 174 39; 175 35; 176 7; 177 7; 
178 13; 179 9; 180 7; 181 13; 182 11; 
183 18; 184 10; 185 19; 186 10; 187 54; 
188 24; 189 15; 190 5; 191 13; 192 4; 
193 11; 194 7; 195 17; 196 78; 197 35; 
198 11; 199 39; 200 18; 201 19; 202 7; 
203 6; 204 6; 205 4; 206 1; 207 63; 
208 22; 209 13; 210 17; 211 20; 212 15; 
213 26; 214 15; 215 8; 216 4; 217 3; 
218 8; 219 3; 220 103; 221 20; 222 6; 
223 7; 224 9; 225 7; 226 8; 227 12; 
228 8; 229 11; 230 2; 231 3; 232 6; 
233 6; 234 125; 235 27; 236 30; 237 9; 
238 5; 239 5; 240 8; 241 14; 242 8; 
243 6; 244 7; 245 2; 246 52; 247 63; 
248 43; 249 8; 250 5; 251 8; 252 1; 
253 32; 254 8; 255 16; 256 23; 257 7; 
258 10; 259 18; 260 38; 261 9; 262 8; 
263 4; 264 1; 265 3; 267 6; 268 2; 
269 7; 270 7; 271 5; 272 59; 273 19; 
274 27; 275 5; 276 1; 281 23; 282 6; 
283 4; 284 4; 285 1; 286 9; 287 19; 
288 9; 289 3; 290 5; 291 1; 295 1; 
296 1; 297 1; 298 12; 299 7; 300 76; 
301 2; 302 999; 303 217; 304 27; 305 2; 
311 1; 312 1; 313 3; 314 3; 315 74; 
316 24; 317 21; 318 26; 319 5; 323 1; 
325 7; 326 1; 327 6; 328 3; 329 1; 
331 22; 332 7; 333 124; 334 28; 335 2; 
