Name: 7-Aminoclonazepam
Synon: 7-ACLO
InChIKey: HEFRPWRJTGLSSV-UHFFFAOYSA-N
Formula: C15H12ClN3O
MW: 285
ExactMass: 285.066889
CASNO: 4959175
ID: 4586
Comment: Provided by www.caymanchem.com/Forensic.vm / Item #14256 Batch #0488607
Num Peaks: 215
40 1; 41 31; 42 25; 43 5; 45 1; 
49 5; 50 37; 51 61; 52 111; 53 53; 
54 36; 55 6; 56 4; 57 4; 59 1; 
60 1; 61 9; 62 34; 63 98; 64 44; 
65 95; 66 49; 67 15; 68 5; 69 30; 
70 27; 72 2; 73 23; 74 42; 75 112; 
76 62; 77 65; 78 55; 79 63; 80 28; 
81 4; 83 37; 84 136; 85 14; 86 29; 
87 47; 88 36; 89 98; 90 51; 91 47; 
92 95; 93 57; 94 8; 95 1; 97 88; 
99 32; 100 21; 101 28; 102 84; 103 28; 
104 32; 105 84; 106 17; 107 9; 108 16; 
111 233; 112 14; 113 72; 114 54; 115 66; 
116 37; 117 46; 118 27; 119 135; 120 41; 
121 6; 122 4; 123 23; 124 8; 125 48; 
126 27; 127 31; 128 16; 130 2; 131 16; 
132 33; 133 7; 134 16; 135 5; 136 7; 
137 28; 138 50; 139 99; 140 88; 141 26; 
142 8; 143 7; 144 58; 145 13; 146 25; 
147 35; 148 17; 149 26; 150 46; 151 54; 
152 56; 153 24; 154 14; 155 6; 156 1; 
157 3; 158 1; 159 5; 160 6; 161 3; 
162 7; 163 8; 164 46; 165 29; 166 110; 
167 109; 168 27; 169 4; 170 1; 172 3; 
173 7; 174 9; 175 12; 176 25; 177 48; 
178 43; 179 29; 180 22; 181 10; 182 3; 
186 3; 187 1; 188 5; 189 3; 190 7; 
191 20; 192 81; 193 92; 194 105; 195 75; 
196 11; 197 2; 198 1; 199 1; 200 5; 
201 11; 202 7; 203 30; 204 15; 205 51; 
206 30; 207 27; 208 15; 209 3; 210 1; 
211 2; 212 5; 213 5; 214 14; 215 4; 
216 7; 217 2; 218 5; 219 11; 220 188; 
221 104; 222 170; 223 32; 224 4; 225 1; 
226 1; 227 7; 228 13; 229 68; 230 16; 
231 22; 232 6; 233 20; 234 13; 235 3; 
239 8; 240 8; 241 10; 242 18; 243 17; 
244 7; 245 5; 246 1; 248 4; 249 43; 
250 234; 251 42; 252 4; 253 7; 254 11; 
256 935; 257 433; 258 354; 259 142; 260 18; 
261 1; 265 1; 267 2; 268 4; 269 16; 
270 4; 271 5; 281 5; 282 1; 284 148; 
285 999; 286 216; 287 332; 288 54; 289 4; 
