Name: Benzoylecgonine-d3
InChIKey: GVGYEFKIHJTNQZ-FIBGUPNXSA-N
Formula: C16H16D3NO4
MW: 292
ExactMass: 292.150238
CASNO: 115732688
ID: 4587
Comment: Provided by www.caymanchem.com/Forensic.vm / Item #18712 Batch #0493516
Num Peaks: 144
41 38; 42 14; 43 16; 44 22; 45 169; 
46 6; 47 28; 49 3; 50 45; 51 125; 
52 17; 53 23; 54 9; 55 26; 56 11; 
57 15; 58 33; 59 22; 60 78; 61 20; 
62 3; 63 7; 64 1; 65 23; 66 11; 
67 90; 68 25; 69 16; 70 23; 71 22; 
72 7; 73 37; 74 23; 75 16; 76 31; 
77 480; 78 60; 79 27; 80 19; 81 21; 
82 33; 83 27; 84 68; 85 427; 86 142; 
87 21; 88 2; 89 11; 90 1; 91 55; 
92 13; 93 166; 94 21; 95 9; 96 20; 
97 290; 98 46; 99 172; 100 58; 101 11; 
102 2; 103 3; 104 7; 105 338; 106 33; 
107 7; 108 8; 109 5; 110 8; 111 28; 
112 4; 113 14; 114 3; 115 2; 117 4; 
118 1; 119 13; 120 1; 121 4; 122 64; 
123 15; 124 14; 125 48; 126 36; 127 999; 
128 90; 129 6; 131 3; 134 2; 135 10; 
136 2; 137 1; 139 1; 141 19; 142 4; 
143 21; 144 16; 145 1; 147 2; 148 2; 
150 1; 151 1; 152 4; 153 6; 154 2; 
155 1; 156 3; 157 1; 158 1; 159 1; 
161 1; 165 3; 169 9; 170 19; 171 353; 
172 35; 173 3; 176 2; 177 2; 178 1; 
179 1; 187 22; 188 1; 191 1; 193 2; 
195 2; 203 1; 205 1; 207 12; 221 1; 
223 2; 248 1; 249 6; 253 6; 254 4; 
255 1; 266 1; 267 1; 268 3; 282 2; 
285 1; 292 50; 293 10; 294 1; 
