Name: Normeperidine-d4
InChIKey: QKHMFBKXTNQCTM-LZMSFWOYSA-N
Formula: C14H15D4NO2
MW: 237
ExactMass: 237.166686
CASNO: 0
ID: 4588
Comment: Provided by www.caymanchem.com/Forensic.vm / Item #18568 Batch #0483138
Num Peaks: 134
40 6; 41 16; 42 387; 43 278; 44 36; 
45 25; 46 5; 47 6; 50 11; 51 39; 
52 21; 53 15; 54 9; 55 12; 56 27; 
57 75; 58 324; 59 999; 60 50; 61 5; 
62 4; 63 13; 64 12; 65 16; 66 19; 
67 15; 68 6; 69 6; 70 9; 71 8; 
72 3; 74 17; 75 11; 76 15; 77 75; 
78 100; 79 80; 80 25; 81 12; 82 28; 
83 14; 84 7; 85 18; 86 93; 87 13; 
88 3; 89 7; 90 11; 91 47; 92 69; 
93 118; 94 48; 95 13; 96 1; 98 4; 
99 1; 100 1; 101 2; 102 19; 103 66; 
104 61; 105 249; 106 55; 107 24; 108 11; 
109 2; 111 1; 113 1; 114 7; 115 11; 
116 58; 117 78; 118 84; 119 72; 120 37; 
121 25; 122 9; 123 4; 127 1; 128 5; 
129 21; 130 87; 131 70; 132 94; 133 108; 
134 77; 135 39; 136 8; 137 2; 142 1; 
143 12; 144 19; 145 20; 146 26; 147 23; 
148 10; 149 10; 150 6; 151 11; 152 2; 
156 2; 157 6; 158 8; 159 32; 160 32; 
161 178; 162 89; 163 59; 164 177; 165 28; 
166 2; 176 1; 177 1; 178 20; 179 8; 
180 3; 189 4; 190 12; 191 99; 192 34; 
193 4; 205 1; 206 1; 207 9; 208 71; 
209 10; 210 1; 220 18; 221 3; 235 4; 
236 52; 237 378; 238 62; 239 6; 
