Name: Meperidine-d4
InChIKey: XADCESSVHJOZHK-YQUBHJMPSA-N
Formula: C15H17D4NO2
MW: 251
ExactMass: 251.182336
CASNO: 0
ID: 4589
Comment: Provided by www.caymanchem.com/Forensic.vm / Item #18561 Batch #0493866
Num Peaks: 155
40 4; 41 19; 42 372; 43 166; 44 80; 
45 87; 46 5; 47 2; 50 9; 51 33; 
52 17; 53 12; 54 9; 55 12; 56 30; 
57 340; 58 43; 59 28; 60 10; 61 5; 
62 3; 63 11; 64 11; 65 15; 66 17; 
67 14; 68 5; 69 6; 70 11; 71 142; 
72 491; 73 999; 74 60; 75 12; 76 13; 
77 69; 78 93; 79 78; 80 25; 81 9; 
82 7; 83 10; 84 18; 85 20; 86 7; 
87 6; 88 11; 89 26; 90 11; 91 42; 
92 64; 93 148; 94 64; 95 20; 96 17; 
97 12; 98 6; 99 26; 100 212; 101 19; 
102 11; 103 124; 104 60; 105 316; 106 45; 
107 12; 108 4; 109 2; 112 3; 113 1; 
114 1; 115 12; 116 69; 117 88; 118 88; 
119 69; 120 32; 121 11; 122 2; 123 1; 
127 2; 128 9; 129 22; 130 43; 131 56; 
132 67; 133 84; 134 46; 135 89; 136 10; 
137 1; 141 1; 142 2; 143 12; 144 97; 
145 29; 146 41; 147 12; 148 12; 149 4; 
150 3; 151 9; 152 1; 155 1; 156 2; 
157 20; 158 12; 159 11; 160 16; 161 54; 
162 13; 163 4; 164 8; 165 1; 170 1; 
171 3; 172 9; 173 32; 174 37; 175 334; 
176 74; 177 47; 178 222; 179 40; 180 3; 
181 1; 186 1; 190 1; 191 3; 192 55; 
193 8; 194 2; 203 1; 204 1; 205 1; 
206 26; 207 4; 208 1; 219 1; 220 2; 
221 26; 222 272; 223 38; 224 3; 233 1; 
234 61; 235 11; 236 25; 237 3; 248 2; 
249 19; 250 291; 251 403; 252 65; 253 7; 
