Name: Cannabichromene-d9
InChIKey: UVOLYTDXHDXWJU-KTSLMVEPSA-N
Formula: C21H21D9O2
MW: 323
ExactMass: 323.28107
CASNO: 0
ID: 4590
Comment: Provided by www.caymanchem.com/Forensic.vm / Item# 16202  Batch# 0496504
Num Peaks: 177
40 1; 41 57; 42 5; 43 13; 44 1; 
45 1; 46 9; 48 3; 49 4; 50 3; 
51 2; 52 1; 53 10; 54 2; 55 33; 
56 3; 62 1; 63 2; 64 1; 65 7; 
66 4; 67 21; 68 10; 69 45; 70 3; 
76 1; 77 13; 78 6; 79 11; 80 4; 
81 6; 82 4; 83 4; 89 2; 90 1; 
91 17; 92 7; 93 6; 94 2; 95 2; 
102 2; 103 5; 104 3; 105 7; 106 4; 
107 8; 108 4; 109 2; 110 1; 115 13; 
116 7; 117 9; 118 5; 119 5; 120 3; 
121 4; 122 2; 123 2; 124 1; 126 1; 
127 3; 128 7; 129 7; 130 4; 131 11; 
132 6; 133 5; 134 3; 135 2; 136 2; 
137 2; 138 1; 139 1; 141 2; 142 2; 
143 2; 144 3; 145 11; 146 8; 147 12; 
148 7; 149 3; 150 1; 151 1; 152 2; 
153 2; 154 1; 155 1; 156 1; 157 3; 
158 2; 159 6; 160 13; 161 9; 162 7; 
163 2; 164 1; 165 1; 166 1; 167 1; 
168 1; 169 1; 170 1; 171 2; 172 2; 
173 29; 174 173; 175 58; 176 21; 177 5; 
178 1; 179 1; 181 1; 183 1; 184 1; 
185 1; 186 4; 187 8; 188 15; 189 23; 
190 12; 191 4; 192 1; 193 1; 194 1; 
195 1; 197 1; 198 1; 199 2; 200 2; 
201 3; 202 14; 203 3; 204 3; 205 2; 
206 1; 207 1; 213 1; 214 1; 215 1; 
216 2; 221 1; 224 1; 225 1; 226 9; 
227 2; 228 1; 230 1; 236 1; 237 1; 
238 2; 239 50; 240 999; 241 181; 242 24; 
243 3; 244 1; 252 5; 253 2; 254 4; 
255 2; 257 1; 259 2; 260 1; 266 3; 
267 1; 268 1; 279 1; 280 11; 281 3; 
308 28; 309 6; 310 1; 322 2; 323 34; 
324 7; 325 1; 
