Name: .beta.-Hydroxyfentanyl
InChIKey: JEFVHLMGRUJLET-UHFFFAOYSA-N
Synon: NIH 10506
Synon: R-4333
Synon: N-[1-(2-hydroxy-2-phenylethyl)-4-piperidinyl]-N-phenyl-propanamide
Formula: C22H28N2O2
MW: 352
ExactMass: 352.215078
CASNO: 78995105
ID: 4591
Comment: Provided by www.caymanchem.com/Forensic.vm / Item #20789 Batch #0494095
Num Peaks: 192
41 57; 42 215; 43 52; 44 129; 45 5; 
49 3; 50 27; 51 70; 52 27; 53 19; 
54 24; 55 30; 56 43; 57 200; 58 12; 
59 1; 60 1; 61 3; 62 5; 63 23; 
64 15; 65 56; 66 32; 67 40; 68 52; 
69 41; 70 67; 71 7; 72 1; 73 21; 
74 14; 75 10; 76 17; 77 305; 78 76; 
79 161; 80 35; 81 16; 82 69; 83 15; 
84 19; 85 3; 86 2; 87 1; 88 1; 
89 14; 90 9; 91 108; 92 36; 93 256; 
94 61; 95 44; 96 138; 97 48; 98 13; 
99 1; 101 1; 102 13; 103 60; 104 117; 
105 95; 106 56; 107 74; 108 7; 109 1; 
111 1; 113 1; 115 9; 116 6; 117 44; 
118 101; 119 36; 120 28; 121 4; 125 1; 
126 2; 127 1; 128 6; 129 8; 130 98; 
131 54; 132 142; 133 28; 134 3; 135 9; 
136 1; 139 10; 140 1; 141 2; 142 1; 
143 6; 144 21; 145 13; 146 649; 147 79; 
148 13; 149 38; 150 12; 151 1; 152 1; 
153 1; 154 2; 155 2; 156 8; 157 4; 
158 47; 159 22; 160 4; 161 3; 162 2; 
163 3; 164 1; 165 3; 166 1; 167 2; 
168 1; 169 1; 170 4; 171 1; 172 5; 
173 6; 174 2; 175 5; 176 3; 177 6; 
179 1; 180 1; 181 2; 182 14; 183 8; 
184 23; 185 24; 186 7; 187 16; 188 7; 
189 371; 190 52; 191 8; 192 1; 193 4; 
194 1; 195 1; 196 1; 197 2; 198 1; 
200 3; 202 132; 203 21; 204 7; 205 1; 
207 22; 208 6; 209 4; 210 1; 216 4; 
221 1; 223 1; 243 3; 245 999; 246 168; 
247 18; 248 1; 249 1; 250 1; 251 1; 
253 17; 254 4; 255 2; 265 1; 267 3; 
268 1; 269 2; 270 1; 275 1; 277 1; 
278 4; 281 9; 282 2; 283 2; 284 1; 
315 2; 327 4; 328 1; 329 1; 331 2; 
332 2; 334 24; 335 6; 341 3; 343 2; 
344 1; 346 1; 
