Name: AB-BICA
Synon: N-[(1S)-1-(aminocarbonyl)-2-methylpropyl]-1-(phenylmethyl)-1H-indole-3-carboxamide
InChIKey: KWZMKPNXFPNTEJ-IBGZPJMESA-N
Formula: C21H23N3O2
MW: 349
ExactMass: 349.179028
CASNO: 1969264376
ID: 4592
Comment: Provided by www.caymanchem.com/Forensic.vm / Item #18759 Batch #0480276
Num Peaks: 180
40 1; 41 26; 42 4; 43 23; 44 38; 
45 7; 50 4; 51 11; 52 4; 53 2; 
54 2; 55 7; 56 6; 57 1; 59 7; 
61 3; 62 6; 63 15; 64 4; 65 87; 
66 5; 68 1; 69 2; 70 2; 72 4; 
73 69; 74 9; 75 14; 76 5; 77 12; 
78 10; 79 1; 81 1; 82 1; 83 1; 
85 1; 86 2; 87 6; 88 15; 89 31; 
90 11; 91 999; 92 78; 93 2; 96 13; 
97 1; 99 1; 100 1; 101 8; 102 9; 
103 10; 104 1; 105 4; 107 1; 109 3; 
114 15; 115 52; 116 15; 117 6; 118 1; 
119 8; 121 1; 125 1; 126 1; 127 1; 
128 8; 129 3; 130 2; 131 1; 133 22; 
134 3; 135 19; 136 1; 137 1; 141 1; 
142 4; 143 77; 144 23; 145 3; 147 16; 
148 2; 149 5; 150 1; 151 3; 152 3; 
154 2; 155 2; 156 4; 157 1; 158 1; 
161 2; 163 2; 164 1; 165 5; 166 1; 
175 1; 176 6; 177 16; 178 9; 179 5; 
180 1; 181 1; 189 1; 191 26; 192 6; 
193 18; 194 3; 195 4; 196 1; 197 5; 
198 2; 199 1; 202 2; 203 8; 204 36; 
205 13; 206 22; 207 199; 208 42; 209 26; 
210 2; 211 1; 214 8; 215 2; 221 5; 
223 2; 232 14; 233 3; 234 877; 235 156; 
236 14; 237 1; 239 2; 248 1; 249 6; 
250 118; 251 24; 252 2; 253 33; 254 8; 
255 5; 265 5; 266 1; 267 10; 268 2; 
269 5; 270 1; 273 1; 281 67; 282 19; 
283 12; 284 2; 285 1; 288 4; 289 13; 
290 4; 291 1; 295 1; 304 1; 305 37; 
306 10; 307 3; 311 1; 313 1; 315 2; 
317 3; 325 4; 327 7; 328 3; 329 1; 
331 12; 332 15; 333 2; 341 11; 342 4; 
343 3; 346 2; 347 1; 349 33; 350 6; 
