Name: para-Chloroisobutyryl fentanyl
InChIKey: YWHLYGSHOQKCJG-UHFFFAOYSA-N
Synon: 4-Chloride Isobutyryl fentanyl
Synon: 4-Chloro iBF
Synon: 4-Chloroisobutyryl fentanyl
Synon: N-(4-chlorophenyl)-2-methyl-N-[1-(2-phenylethyl)-4-piperidinyl]-propanamide
Formula: C23H29ClN2O
MW: 384
ExactMass: 384.19684
CASNO: 0
ID: 4595
Comment: Provided by www.caymanchem.com/Forensic.vm / Item #20018 Batch #0490774
Num Peaks: 212
41 160; 42 226; 43 636; 44 151; 45 4; 
49 2; 50 9; 51 27; 52 10; 53 14; 
54 19; 55 54; 56 38; 57 26; 58 3; 
59 1; 61 2; 62 7; 63 25; 64 10; 
65 61; 66 9; 67 32; 68 53; 69 60; 
70 101; 71 286; 72 13; 73 26; 74 5; 
75 38; 76 8; 77 102; 78 42; 79 94; 
80 21; 81 5; 82 41; 83 9; 84 18; 
85 2; 86 1; 87 1; 88 1; 89 16; 
90 24; 91 301; 92 36; 93 8; 94 23; 
95 23; 96 228; 97 36; 98 12; 99 18; 
100 5; 101 8; 102 15; 103 90; 104 57; 
105 330; 106 31; 107 2; 108 2; 109 1; 
110 2; 111 80; 112 11; 113 27; 114 4; 
115 18; 116 9; 117 39; 118 12; 119 4; 
120 2; 121 1; 123 1; 124 1; 125 26; 
126 14; 127 105; 128 21; 129 35; 130 107; 
131 30; 132 33; 133 7; 134 12; 135 8; 
136 1; 137 7; 138 62; 139 44; 140 34; 
141 9; 142 6; 143 4; 144 24; 145 20; 
146 11; 147 5; 148 3; 149 1; 150 1; 
151 6; 152 39; 153 30; 154 24; 155 10; 
156 4; 157 3; 158 6; 159 3; 160 22; 
161 4; 163 1; 164 26; 165 38; 166 62; 
167 21; 168 20; 169 4; 170 1; 171 1; 
172 2; 177 3; 178 7; 179 9; 180 289; 
181 27; 182 124; 183 9; 184 17; 185 12; 
186 37; 187 13; 188 44; 189 7; 190 1; 
191 6; 192 16; 193 14; 194 3; 195 7; 
196 2; 197 19; 198 5; 199 3; 200 1; 
205 1; 207 36; 208 8; 209 7; 210 1; 
215 2; 221 19; 222 18; 223 451; 224 71; 
225 151; 226 19; 229 1; 231 1; 234 1; 
235 1; 236 1; 239 1; 248 1; 249 2; 
250 32; 251 6; 252 11; 253 18; 254 3; 
255 1; 257 1; 258 7; 259 3; 264 3; 
265 2; 266 1; 267 3; 268 1; 269 2; 
277 1; 281 9; 282 2; 283 10; 291 2; 
293 999; 294 180; 295 329; 296 57; 297 5; 
313 3; 315 1; 325 1; 327 5; 328 1; 
329 1; 331 4; 332 1; 341 3; 342 1; 
343 1; 346 1; 355 1; 356 1; 382 4; 
383 1; 384 1; 
