Name: 11-Nor-9-carboxy-delta 9-THC
Synon: 11-Nor-9-carboxy-.delta.-9-Tetrahydrocannabinol
Synon: (6aR,10aR)-rel-6a,7,8,10a-tetrahydro-1-hydroxy-6,6-dimethyl-3-pentyl-6H-dibenzo[b,d]pyran-9-carboxylic acid
InChIKey: YOVRGSHRZRJTLZ-HZPDHXFCSA-N
Formula: C21H28O4
MW: 344
ExactMass: 344.19876
CASNO: 104874502
ID: 4597
Comment: Provided by www.caymanchem.com/Forensic.vm / Item# 14241 Batch#0492461
Num Peaks: 268
41 392; 42 39; 43 272; 44 25; 45 74; 
46 4; 50 14; 51 20; 52 19; 53 51; 
54 2; 55 123; 56 25; 57 41; 58 11; 
59 32; 60 7; 61 5; 63 39; 64 5; 
65 70; 66 38; 67 165; 68 32; 69 215; 
70 25; 71 36; 73 7; 75 7; 76 16; 
77 150; 78 53; 79 136; 80 8; 81 87; 
82 26; 83 17; 84 5; 85 21; 86 5; 
87 5; 88 2; 89 43; 90 11; 91 204; 
92 33; 93 61; 94 12; 95 90; 96 17; 
97 15; 98 4; 99 2; 100 7; 101 18; 
102 16; 103 88; 104 17; 105 94; 106 26; 
107 86; 108 38; 109 30; 110 4; 111 6; 
112 12; 113 10; 114 24; 115 199; 116 64; 
117 57; 118 11; 119 113; 120 27; 121 42; 
122 17; 123 60; 124 49; 125 22; 126 14; 
127 85; 128 148; 129 107; 130 10; 131 70; 
132 22; 134 58; 135 25; 136 26; 137 49; 
138 10; 139 35; 140 6; 141 63; 142 39; 
143 40; 144 21; 145 79; 146 31; 147 110; 
148 63; 149 75; 150 25; 151 18; 152 40; 
153 80; 154 22; 155 55; 156 20; 157 25; 
158 24; 159 40; 160 53; 161 63; 162 16; 
163 41; 164 41; 165 130; 166 29; 167 18; 
168 14; 169 61; 170 10; 171 54; 172 26; 
173 80; 174 110; 175 106; 176 24; 177 8; 
178 29; 179 33; 180 33; 181 63; 182 17; 
183 40; 184 16; 185 65; 186 45; 187 120; 
188 47; 189 37; 190 13; 191 29; 192 32; 
193 196; 194 32; 195 67; 196 17; 197 85; 
198 28; 199 107; 200 42; 201 44; 202 78; 
203 32; 204 65; 205 13; 206 17; 208 32; 
209 63; 210 14; 211 37; 212 18; 213 75; 
214 36; 215 17; 217 94; 218 30; 219 14; 
220 79; 221 31; 222 5; 223 13; 224 33; 
225 32; 226 39; 227 79; 228 34; 229 49; 
230 45; 231 246; 232 34; 233 41; 234 16; 
235 5; 237 11; 238 5; 239 11; 240 9; 
241 53; 242 114; 243 93; 244 24; 245 52; 
246 14; 247 2; 248 2; 249 11; 250 8; 
251 21; 252 19; 253 12; 254 40; 255 80; 
256 39; 257 76; 258 63; 259 32; 260 3; 
261 9; 262 2; 265 28; 266 8; 268 20; 
269 38; 270 95; 271 35; 272 16; 273 149; 
274 17; 275 7; 276 149; 277 18; 281 8; 
282 2; 283 219; 284 48; 285 25; 286 3; 
287 25; 288 217; 289 35; 292 2; 295 6; 
296 4; 297 49; 298 68; 299 980; 300 241; 
301 235; 302 47; 303 4; 305 2; 311 25; 
312 3; 313 8; 315 14; 316 5; 323 2; 
325 52; 326 44; 327 4; 328 35; 329 999; 
330 133; 331 36; 333 7; 337 3; 339 2; 
340 1; 342 20; 343 39; 344 585; 345 138; 
346 49; 347 2; 348 2; 
