Name: Thiofentanyl
InChIKey: YMRFZDHYDKZXPA-UHFFFAOYSA-N
Synon: NIH 10505
Synon: N-phenyl-N-[1-[2-(2-thienyl)ethyl]-4-piperidinyl]-propanamide
Formula: C20H26N2OS
MW: 342
ExactMass: 342.176584
CASNO: 1165226
ID: 4598
Comment: Provided by www.caymanchem.com/Forensic.vm / Item #20786 Batch #0494637
Num Peaks: 148
41 48; 42 208; 43 31; 44 124; 45 33; 
46 1; 47 2; 50 5; 51 24; 52 7; 
53 30; 54 18; 55 36; 56 33; 57 204; 
58 14; 59 3; 61 1; 62 2; 63 8; 
64 6; 65 28; 66 16; 67 53; 68 37; 
69 43; 70 66; 71 16; 72 1; 73 2; 
74 1; 75 2; 76 5; 77 176; 78 35; 
79 14; 80 13; 81 8; 82 30; 83 8; 
84 18; 85 16; 86 3; 87 1; 88 1; 
89 2; 90 4; 91 37; 92 12; 93 61; 
94 44; 95 29; 96 133; 97 206; 98 19; 
99 9; 100 1; 102 1; 103 9; 104 63; 
105 27; 106 31; 107 5; 108 7; 109 14; 
110 31; 111 145; 112 12; 113 7; 115 5; 
116 4; 117 32; 118 97; 119 26; 120 12; 
121 2; 122 1; 123 3; 124 1; 125 1; 
127 1; 128 2; 129 2; 130 77; 131 50; 
132 133; 133 21; 134 4; 135 2; 136 3; 
137 2; 138 3; 139 10; 140 4; 141 1; 
142 1; 143 3; 144 16; 145 11; 146 720; 
147 82; 148 9; 149 8; 150 6; 151 1; 
152 1; 154 1; 156 2; 157 2; 158 58; 
159 15; 160 8; 161 2; 166 6; 167 1; 
170 1; 172 4; 173 4; 174 1; 185 1; 
187 15; 188 12; 189 413; 190 60; 191 6; 
192 13; 193 3; 194 9; 195 1; 200 1; 
202 130; 203 18; 204 1; 207 4; 208 1; 
216 4; 217 1; 227 1; 229 1; 243 1; 
245 999; 246 169; 247 15; 248 1; 253 1; 
285 1; 340 2; 341 1; 
