Name: N-Propylnorketamine
Synon: Propylketamine
Synon: 2-(2-chlorophenyl)-2-(propylamino)cyclohexan-1-one
InChIKey: ALSYVNZHMWPPNW-UHFFFAOYSA-N
Formula: C15H20ClNO
MW: 265
ExactMass: 265.123343
CASNO: 0
ID: 4600
Comment: Provided by www.caymanchem.com/Forensic.vm / Item #20272 Batch #0490441
Num Peaks: 181
41 100; 42 53; 43 48; 44 8; 49 1; 
50 9; 51 23; 52 6; 53 7; 54 15; 
55 26; 56 11; 57 6; 58 46; 59 2; 
61 1; 62 4; 63 16; 64 4; 65 17; 
67 21; 68 7; 69 4; 70 12; 72 3; 
73 4; 74 9; 75 55; 76 26; 77 54; 
78 10; 79 5; 80 3; 81 8; 82 7; 
83 4; 84 9; 85 9; 86 2; 87 6; 
88 5; 89 37; 90 10; 91 27; 92 3; 
93 1; 94 3; 95 1; 96 3; 97 2; 
98 9; 99 7; 100 4; 101 60; 102 198; 
103 55; 104 36; 105 5; 106 1; 107 1; 
110 2; 111 13; 112 8; 113 11; 114 11; 
115 137; 116 78; 117 39; 118 20; 119 3; 
120 1; 123 5; 124 2; 125 103; 126 29; 
127 50; 128 38; 129 20; 130 53; 131 38; 
132 19; 133 2; 136 5; 137 64; 138 418; 
139 69; 140 144; 141 30; 142 19; 143 28; 
144 50; 145 20; 146 14; 147 2; 149 15; 
150 3; 151 78; 152 41; 153 59; 154 22; 
155 14; 156 9; 157 4; 158 13; 159 4; 
160 35; 161 4; 162 3; 163 4; 164 12; 
165 9; 166 58; 167 23; 168 22; 169 8; 
170 3; 171 4; 172 12; 173 8; 174 49; 
175 8; 176 1; 177 3; 178 21; 179 37; 
180 183; 181 32; 182 64; 183 8; 184 4; 
186 3; 187 1; 188 2; 189 1; 190 3; 
191 2; 192 6; 193 1; 194 102; 195 40; 
196 36; 197 13; 198 1; 200 3; 201 1; 
202 73; 203 11; 204 3; 206 7; 208 999; 
209 137; 210 317; 211 43; 212 12; 213 2; 
214 2; 218 4; 219 2; 220 6; 221 1; 
222 16; 223 2; 224 9; 225 1; 226 1; 
230 2; 234 1; 236 59; 237 240; 238 55; 
239 77; 240 12; 246 1; 247 3; 248 4; 
249 3; 250 1; 264 1; 265 7; 266 2; 
267 2; 
