Name: AH 8507
Synon: 3,4-dichloro-N-[[1-(4-methyl-1-piperazinyl)cyclohexyl]methyl]-benzamide
InChIKey: RIVJZGXJJBBWIJ-UHFFFAOYSA-N
Formula: C19H27Cl2N3O
MW: 383
ExactMass: 383.153118
CASNO: 41805634
ID: 4603
Comment: Provided by www.caymanchem.com/Forensic.vm / Item #19367 Batch #0491712
Num Peaks: 118
41 20; 42 57; 43 34; 44 25; 45 1; 
50 2; 51 2; 52 2; 53 10; 54 14; 
55 31; 56 68; 57 13; 58 38; 59 1; 
65 3; 66 2; 67 22; 68 11; 69 9; 
70 107; 71 16; 72 11; 73 5; 74 8; 
75 14; 76 1; 77 8; 78 2; 79 20; 
80 9; 81 27; 82 19; 83 10; 84 14; 
85 6; 86 1; 89 1; 91 5; 92 1; 
93 6; 94 8; 95 23; 96 10; 97 12; 
98 15; 99 40; 100 4; 101 2; 102 1; 
103 1; 105 1; 106 1; 107 1; 108 9; 
109 26; 110 28; 111 16; 112 6; 113 1; 
119 1; 121 1; 122 4; 123 9; 124 27; 
125 4; 126 1; 133 1; 134 1; 135 2; 
136 4; 137 3; 138 18; 139 8; 140 2; 
141 1; 144 1; 145 56; 146 6; 147 38; 
148 4; 149 7; 150 1; 151 2; 152 1; 
165 8; 166 1; 171 1; 172 1; 173 83; 
174 7; 175 53; 176 4; 177 9; 178 1; 
179 20; 180 11; 181 999; 182 127; 183 7; 
185 1; 187 1; 190 2; 192 1; 193 1; 
194 1; 202 8; 203 2; 204 6; 205 1; 
206 1; 207 3; 253 2; 255 1; 267 1; 
281 1; 284 1; 327 1; 
