Name: para-Methylfentanyl
Synon: 4-Methylfentanyl
Synon: p-Methylfentanyl
Synon: NIH 10489
Synon: N-(4-methylphenyl)-N-[1-(2-phenylethyl)-4-piperidinyl]-propanamide
InChIKey: XHWYYMNEJCMADF-UHFFFAOYSA-N
Formula: C23H30N2O
MW: 350
ExactMass: 350.235813
CASNO: 1807121
ID: 4604
Comment: Provided by www.caymanchem.com/Forensic.vm / Item #20038 Batch #0492758
Num Peaks: 137
41 28; 42 124; 43 16; 44 62; 45 2; 
50 4; 51 6; 52 7; 53 8; 54 11; 
55 29; 56 23; 57 138; 58 7; 61 1; 
62 1; 63 8; 64 2; 65 56; 66 5; 
67 21; 68 29; 69 28; 70 59; 71 5; 
73 3; 74 1; 75 2; 76 3; 77 65; 
78 26; 79 64; 80 10; 81 4; 82 26; 
83 6; 84 7; 85 1; 86 1; 88 1; 
89 16; 90 13; 91 229; 92 24; 93 7; 
94 16; 95 16; 96 152; 97 23; 98 6; 
101 2; 102 5; 103 31; 104 39; 105 236; 
106 53; 107 49; 108 18; 109 1; 115 9; 
116 6; 117 30; 118 56; 119 21; 120 21; 
121 2; 127 1; 128 3; 129 3; 130 48; 
131 28; 132 83; 133 24; 134 17; 135 3; 
139 8; 140 1; 141 1; 142 2; 143 6; 
144 55; 145 53; 146 96; 147 15; 148 3; 
154 1; 156 1; 157 1; 158 15; 159 10; 
160 707; 161 88; 162 9; 163 9; 164 6; 
165 1; 170 2; 171 2; 172 74; 173 15; 
174 6; 175 1; 182 1; 184 9; 185 7; 
186 33; 187 9; 188 22; 189 3; 191 1; 
199 1; 201 13; 202 19; 203 338; 204 50; 
205 3; 207 7; 208 2; 209 1; 214 1; 
216 145; 217 23; 218 2; 230 4; 231 1; 
241 1; 253 2; 254 1; 257 2; 259 999; 
260 178; 261 17; 262 1; 281 1; 293 2; 
348 3; 349 1; 
