Name: 4-Cyano-CUMYL-BUTINACA isomer 2
Synon: 2-(4-cyanobutyl)-N-(2-phenylpropan-2-yl)-2H-indazole-3-carboxamide
InChIKey: HZXAXDPZAHVPGL-UHFFFAOYSA-N
Formula: C22H24N4O
MW: 360
ExactMass: 360.195011
CASNO: 0
ID: 4606
Comment: Provided by www.caymanchem.com/Forensic.vm / Item #20748 Batch #0493348
Num Peaks: 193
40 3; 41 102; 42 25; 43 4; 44 7; 
50 12; 51 35; 52 13; 53 17; 54 27; 
55 72; 56 7; 57 1; 58 25; 59 2; 
61 2; 62 14; 63 31; 64 13; 65 26; 
66 4; 67 3; 68 4; 70 1; 73 6; 
74 6; 75 12; 76 27; 77 140; 78 54; 
79 60; 80 8; 81 2; 82 20; 83 2; 
84 1; 85 1; 86 2; 87 7; 88 66; 
89 59; 90 152; 91 416; 92 41; 93 4; 
94 1; 95 4; 96 7; 97 15; 98 1; 
100 1; 101 5; 102 40; 103 118; 104 102; 
105 28; 106 1; 107 9; 114 3; 115 43; 
116 20; 117 116; 118 157; 119 315; 120 75; 
121 6; 125 1; 127 2; 128 7; 129 35; 
130 23; 131 125; 132 56; 133 11; 134 13; 
135 12; 136 1; 139 1; 140 1; 141 1; 
142 4; 143 18; 144 69; 145 448; 146 79; 
147 12; 148 1; 154 1; 155 6; 156 17; 
157 26; 158 20; 159 12; 160 5; 161 44; 
162 6; 163 1; 164 1; 165 3; 166 1; 
168 1; 169 6; 170 5; 171 16; 172 8; 
173 10; 174 163; 175 58; 176 6; 177 1; 
178 1; 179 1; 180 1; 181 1; 182 1; 
183 1; 184 2; 185 8; 186 4; 187 2; 
188 32; 189 5; 190 1; 191 2; 192 1; 
193 2; 194 1; 195 1; 196 4; 197 9; 
198 999; 199 141; 200 12; 201 1; 202 31; 
203 4; 204 1; 205 1; 206 1; 207 18; 
208 17; 209 4; 210 4; 214 1; 216 1; 
218 1; 219 1; 220 1; 221 3; 222 1; 
224 7; 225 2; 226 463; 227 69; 228 6; 
233 1; 234 2; 235 3; 236 5; 237 1; 
241 19; 242 15; 243 2; 248 1; 249 4; 
250 4; 251 1; 253 4; 254 1; 255 1; 
261 4; 262 5; 263 1; 264 21; 265 3; 
267 1; 278 19; 279 4; 281 4; 283 1; 
292 23; 293 6; 294 1; 306 1; 320 3; 
327 1; 331 1; 345 21; 346 4; 347 1; 
360 69; 361 17; 362 2; 
