Name: N,N-Didesmethyl AH 7921
Synon: AH 7921 didesmethyl metabolite
Synon: N-[(1-aminocyclohexyl)methyl]-3,4-dichloro-benzamide
InChIKey: LOONJCCUJYOMJH-UHFFFAOYSA-N
Formula: C14H18Cl2N2O
MW: 300
ExactMass: 300.079618
CASNO: 1580956928
ID: 4607
Comment: Provided by www.caymanchem.com/Forensic.vm / Item #20281 Batch #0493515
Num Peaks: 115
40 1; 41 26; 42 17; 43 7; 44 8; 
50 3; 51 2; 52 2; 53 9; 54 20; 
55 18; 56 54; 57 6; 58 1; 63 1; 
65 3; 66 2; 67 9; 68 8; 69 13; 
70 4; 71 11; 72 1; 73 4; 74 16; 
75 23; 76 2; 77 7; 78 1; 79 19; 
80 5; 81 64; 82 14; 83 6; 84 7; 
85 4; 86 2; 87 1; 91 3; 93 2; 
94 2; 95 2; 96 10; 97 5; 98 999; 
99 71; 100 3; 102 1; 103 1; 108 1; 
109 32; 110 17; 111 22; 112 5; 113 2; 
119 1; 123 1; 125 1; 127 4; 136 1; 
137 1; 138 4; 139 3; 140 1; 141 1; 
144 1; 145 63; 146 6; 147 41; 148 4; 
149 7; 150 1; 159 1; 168 1; 171 2; 
172 4; 173 68; 174 7; 175 46; 176 4; 
177 8; 185 6; 186 1; 187 4; 189 1; 
190 1; 191 1; 202 5; 203 1; 204 3; 
205 1; 207 2; 213 1; 225 10; 226 9; 
227 8; 228 6; 229 2; 230 1; 239 14; 
240 4; 241 9; 242 2; 243 2; 244 1; 
253 4; 254 1; 255 1; 257 3; 259 1; 
281 1; 282 6; 283 2; 284 3; 285 1; 
