Name: Thienyl fentanyl
InChIKey: JSOSWRYHPGIWGT-UHFFFAOYSA-N
Synon: NIH 10493
Synon: N-phenyl-N-[1-(2-thienylmethyl)-4-piperidinyl]-propanamide
Formula: C19H24N2OS
MW: 328
ExactMass: 328.160934
CASNO: 122861396
ID: 4609
Comment: Provided by www.caymanchem.com/Forensic.vm / Item #20785 Batch #0493665
Num Peaks: 151
41 11; 42 35; 43 5; 44 5; 45 24; 
47 2; 50 4; 51 17; 52 6; 53 36; 
54 10; 55 31; 56 24; 57 98; 58 6; 
62 1; 63 6; 64 5; 65 14; 66 7; 
67 8; 68 8; 69 34; 70 9; 71 6; 
72 1; 73 2; 74 2; 75 1; 76 3; 
77 71; 78 11; 79 8; 80 14; 81 5; 
82 842; 83 54; 84 5; 85 2; 89 1; 
90 3; 91 26; 92 10; 93 45; 94 13; 
95 10; 96 13; 97 999; 98 70; 99 46; 
100 3; 103 5; 104 22; 105 6; 106 14; 
107 2; 109 1; 110 12; 111 9; 112 13; 
113 2; 114 1; 115 4; 116 2; 117 12; 
118 51; 119 31; 120 31; 121 2; 122 1; 
123 4; 124 24; 125 34; 126 7; 127 2; 
128 1; 129 1; 130 18; 131 8; 132 37; 
133 10; 134 34; 135 5; 136 3; 137 4; 
138 48; 139 7; 140 5; 143 1; 144 6; 
145 5; 146 53; 147 8; 148 3; 149 7; 
150 48; 151 33; 152 34; 153 5; 154 2; 
158 14; 159 3; 160 2; 162 1; 164 15; 
165 2; 166 1; 167 1; 173 2; 174 2; 
175 10; 176 5; 177 2; 178 47; 179 141; 
180 35; 181 9; 182 1; 188 3; 189 3; 
190 10; 191 2; 202 2; 203 1; 204 1; 
207 2; 214 1; 216 1; 218 1; 223 1; 
231 7; 232 1; 237 1; 242 1; 243 1; 
245 2; 253 2; 255 20; 256 4; 257 1; 
269 1; 271 25; 272 5; 273 1; 281 1; 
299 4; 327 3; 328 34; 329 8; 330 2; 
331 1; 
