Name: U-49900
Synon: trans-3,4-dichloro-N-[2-(diethylamino)cyclohexyl]-N-methyl-benzamide
InChIKey: AXACJBKFKCCIOR-ZYMOGRSISA-N
Formula: C18H26Cl2N2O
MW: 356
ExactMass: 356.14222
CASNO: 67579764
ID: 4613
Comment: Provided by www.caymanchem.com/Forensic.vm / Item# 21098  Batch# 0497502
Num Peaks: 157
41 38; 42 92; 43 12; 44 49; 45 1; 
46 1; 50 4; 51 3; 52 1; 53 12; 
54 17; 55 30; 56 126; 57 18; 58 39; 
59 1; 61 1; 63 1; 65 4; 66 3; 
67 19; 68 37; 69 26; 70 78; 71 68; 
72 92; 73 15; 74 30; 75 44; 76 3; 
77 10; 78 2; 79 38; 80 13; 81 47; 
82 55; 83 33; 84 177; 85 19; 86 155; 
87 11; 89 1; 91 3; 93 3; 94 11; 
95 13; 96 33; 97 17; 98 54; 99 107; 
100 12; 101 1; 102 1; 103 3; 104 1; 
105 1; 106 1; 107 1; 108 15; 109 71; 
110 141; 111 49; 112 999; 113 85; 114 4; 
115 1; 119 1; 121 1; 122 8; 123 6; 
124 58; 125 30; 126 51; 127 10; 128 2; 
135 1; 136 3; 137 4; 138 47; 139 14; 
140 22; 141 5; 142 1; 144 3; 145 203; 
146 17; 147 133; 148 10; 149 22; 150 4; 
151 3; 152 77; 153 271; 154 40; 155 3; 
159 2; 161 1; 167 14; 168 2; 169 1; 
171 1; 172 1; 173 239; 174 18; 175 168; 
176 13; 177 27; 178 2; 180 1; 181 3; 
182 1; 183 39; 184 5; 186 6; 187 1; 
188 4; 195 2; 197 7; 198 1; 202 1; 
204 4; 206 3; 214 1; 216 2; 218 1; 
228 2; 230 1; 242 1; 254 2; 255 1; 
256 5; 257 1; 258 3; 270 1; 282 1; 
284 11; 285 2; 286 7; 287 1; 288 1; 
298 1; 309 2; 311 2; 327 17; 328 3; 
329 10; 330 2; 331 2; 341 5; 342 1; 
343 3; 355 12; 356 16; 357 10; 358 10; 
359 3; 360 1; 
