Name: 4-Hydroxy Phencyclidine
Synon: NSC 170516
Synon: PCHP
Synon: Phencyclidine-4-hydroxy analog
Synon: PHP
Synon: 1-(1-Phenylcyclohexyl)-4-hydroxypiperidine
Synon: 1-(1-phenylcyclohexyl)-4-piperidinol
InChIKey: SLUMSLWGPLFKGY-UHFFFAOYSA-N
Formula: C17H25NO
MW: 259
ExactMass: 259.193615
CASNO: 60232851
ID: 4614
Comment: Provided by www.caymanchem.com/Forensic.vm / Item# 20563 Batch# 0493295
Num Peaks: 160
41 77; 42 63; 43 46; 44 36; 45 6; 
50 11; 51 38; 52 13; 53 29; 54 25; 
55 94; 56 81; 57 44; 58 8; 59 1; 
62 3; 63 15; 64 5; 65 39; 66 8; 
67 47; 68 17; 69 7; 70 7; 71 6; 
72 9; 73 1; 74 5; 75 8; 76 17; 
77 133; 78 48; 79 56; 80 29; 81 91; 
82 51; 83 17; 84 17; 85 3; 86 2; 
87 2; 88 1; 89 19; 90 9; 91 635; 
92 52; 93 5; 94 4; 95 1; 96 4; 
97 1; 98 3; 99 3; 100 57; 101 15; 
102 42; 103 92; 104 102; 105 38; 106 10; 
107 2; 108 3; 109 1; 110 8; 111 1; 
112 1; 113 1; 114 3; 115 171; 116 40; 
117 167; 118 31; 119 5; 120 4; 122 2; 
124 2; 126 4; 127 23; 128 72; 129 112; 
130 99; 131 24; 132 16; 133 2; 134 1; 
136 2; 138 1; 139 2; 140 4; 141 15; 
142 10; 143 62; 144 32; 145 7; 146 11; 
147 1; 151 1; 152 4; 153 5; 154 5; 
155 4; 156 12; 157 15; 158 124; 159 59; 
160 22; 161 3; 162 2; 164 1; 166 1; 
167 1; 168 2; 169 3; 170 8; 171 2; 
172 25; 173 4; 174 3; 176 2; 177 1; 
178 1; 180 2; 181 1; 182 162; 183 21; 
184 26; 185 5; 186 12; 187 3; 188 24; 
189 3; 190 6; 191 1; 196 1; 198 37; 
199 6; 200 12; 201 2; 202 192; 203 32; 
204 3; 212 3; 214 12; 215 2; 216 999; 
217 158; 218 13; 219 1; 228 1; 230 18; 
231 3; 240 5; 241 1; 242 1; 244 1; 
256 2; 258 314; 259 262; 260 46; 261 4; 
