Name: U-48753E
InChIKey: YCRFSKUCDBJWLX-YSSOQSIOSA-N
Synon: Eclanamine
Synon: rel-N-(3,4-dichlorophenyl)-N-[(1R,2R)-2-(dimethylamino)cyclopentyl]-propanamide
Formula: C16H22Cl2N2O
MW: 328
ExactMass: 328.110918
CASNO: 67450446
ID: 4618
Comment: Provided by www.caymanchem.com/Forensic.vm / Item# 20734 Batch# 0495548
Num Peaks: 153
41 33; 42 142; 43 19; 44 41; 45 3; 
46 2; 50 2; 51 2; 52 1; 53 5; 
54 6; 55 19; 56 51; 57 120; 58 91; 
59 4; 61 1; 62 2; 63 4; 64 1; 
65 6; 66 4; 67 26; 68 30; 69 13; 
70 112; 71 83; 72 11; 73 4; 74 7; 
75 12; 76 1; 77 2; 78 1; 79 1; 
80 3; 81 4; 82 52; 83 8; 84 673; 
85 93; 86 5; 87 1; 88 2; 89 3; 
90 2; 91 1; 93 1; 94 9; 95 3; 
96 24; 97 10; 98 53; 99 6; 100 2; 
101 2; 102 3; 103 1; 108 3; 109 24; 
110 336; 111 999; 112 90; 113 5; 114 1; 
115 1; 116 1; 117 3; 123 2; 124 7; 
125 6; 126 3; 127 3; 128 2; 129 1; 
130 3; 131 1; 133 2; 135 2; 136 2; 
137 2; 138 2; 139 2; 140 1; 141 1; 
145 42; 146 4; 147 26; 148 2; 149 5; 
150 2; 151 7; 152 2; 153 4; 154 2; 
155 4; 156 1; 157 1; 159 5; 160 2; 
161 14; 162 3; 163 8; 164 15; 165 5; 
166 5; 167 1; 171 1; 172 20; 173 3; 
174 17; 175 3; 176 5; 177 1; 178 1; 
179 1; 185 3; 186 6; 187 10; 188 7; 
189 6; 190 3; 191 2; 192 2; 193 1; 
194 1; 198 5; 199 1; 200 10; 201 2; 
202 4; 203 1; 207 1; 212 1; 213 2; 
214 2; 215 1; 216 1; 217 2; 218 1; 
219 1; 220 1; 224 1; 226 5; 227 6; 
228 9; 229 5; 230 5; 231 2; 232 1; 
284 2; 299 2; 301 1; 
