Name: 1-Benzylpiperazine-d7
InChIKey: IQXXEPZFOOTTBA-DMCBOUTMSA-N
Synon: Benzylpiperazine-d7
Synon: BZP-d7
Synon: N-Benzylpiperazine-d7
Formula: C11H9D7N2
MW: 183
ExactMass: 183.175285
CASNO: 1141922464
ID: 4622
Comment: Provided by www.caymanchem.com/app/template/landing%2CForensic.vm / Item #9002648 Batch #0480129
Num Peaks: 98
41 21; 42 109; 43 29; 44 23; 45 6; 
46 13; 47 2; 49 1; 50 1; 52 11; 
53 5; 54 49; 55 27; 56 187; 57 34; 
58 36; 59 6; 60 1; 64 6; 65 3; 
66 21; 67 3; 68 13; 69 19; 70 180; 
71 13; 72 9; 73 6; 74 2; 76 3; 
77 1; 78 5; 79 2; 80 3; 81 10; 
82 10; 83 26; 84 10; 85 104; 86 9; 
87 2; 92 1; 93 2; 94 27; 95 7; 
96 41; 97 86; 98 999; 99 85; 100 4; 
101 11; 102 1; 105 1; 108 3; 109 14; 
110 9; 111 3; 112 3; 113 2; 120 1; 
121 1; 122 5; 123 23; 124 20; 125 18; 
126 30; 127 40; 128 9; 133 1; 135 3; 
136 2; 137 13; 138 16; 139 17; 140 43; 
141 588; 142 61; 143 2; 149 1; 150 1; 
151 15; 152 24; 153 15; 154 9; 155 1; 
163 1; 164 1; 165 3; 166 1; 167 1; 
168 2; 179 1; 180 1; 181 11; 182 26; 
183 156; 184 21; 185 1; 
