Name: 4-Bromo-.alpha.-PVP
InChIKey: RAHKQMUBMIJUFG-UHFFFAOYSA-N
Synon: 1-(4-bromophenyl)-2-(pyrrolidin-1-yl)pentan-1-one
Formula: C15H20BrNO
MW: 309
ExactMass: 309.072826
CASNO: 850352599
ID: 4624
Comment: DEA SFL1 Lot # RM-160316-01 / SWGDRUG Monograph available
Num Peaks: 43
39 7; 41 32; 42 42; 43 11; 50 12; 
51 3; 52 1; 53 4; 54 17; 55 45; 
56 15; 57 3; 67 1; 68 10; 69 27; 
70 16; 71 2; 72 2; 75 17; 76 26; 
77 6; 84 32; 90 1; 94 2; 95 1; 
96 31; 97 35; 98 12; 99 1; 104 3; 
111 1; 124 12; 126 999; 127 113; 128 4; 
130 1; 132 1; 155 22; 157 21; 171 1; 
183 9; 184 1; 185 7; 
