Name: 4-Chloro-.alpha.-PVP
InChIKey: NIGBFBTVONRYQN-UHFFFAOYSA-N
Synon: 1-(4-chlorophenyl)-2-(pyrrolidin-1-yl)pentan-1-one
Synon: 4-Chloro-.alpha.-Pyrrolidinovalerophenone
Synon: 4-Chloro-.alpha.-Pyrrolidinopentiophenone
Synon: 4Cl-PVP
Formula: C15H20ClNO
MW: 265
ExactMass: 265.123343
CASNO: 5881776
ID: 4625
Comment: DEA SFL1 Lot # RM-160311-01A / SWGDRUG Monograph available
Num Peaks: 62
39 7; 41 26; 42 38; 43 9; 44 1; 
50 7; 51 4; 52 1; 53 5; 54 16; 
55 42; 56 14; 57 3; 63 1; 67 2; 
68 11; 69 25; 70 17; 71 2; 72 2; 
74 3; 75 32; 76 8; 77 4; 80 2; 
81 2; 82 4; 83 2; 84 36; 85 5; 
87 1; 89 2; 94 4; 95 1; 96 37; 
97 32; 98 13; 99 1; 101 1; 103 1; 
104 1; 108 1; 110 8; 111 67; 112 6; 
113 20; 114 2; 115 2; 117 1; 124 17; 
125 8; 126 999; 127 105; 128 5; 130 1; 
139 35; 140 3; 141 11; 142 1; 167 1; 
186 1; 222 2; 
