Name: 3-Furanyl fentanyl
InChIKey: AEDOTOMIDAMDFC-UHFFFAOYSA-N
Synon: N-phenyl-N-[1-(2-phenylethyl)piperidin-4-yl]furan-3-carboxamide
Synon: 3-Fu-F
Formula: C24H26N2O2
MW: 374
ExactMass: 374.199429
CASNO: 101343822
ID: 4630
Comment: DEA SFL1 / Lot # ALB-288-6 / SWGDRUG Monograph available
Num Peaks: 118
30 3; 37 1; 38 3; 39 52; 40 3; 
41 28; 42 123; 43 16; 44 43; 45 1; 
50 2; 51 15; 52 4; 53 7; 54 9; 
55 21; 56 16; 57 11; 58 1; 62 1; 
63 4; 64 2; 65 23; 66 4; 67 32; 
68 21; 69 19; 70 24; 71 2; 75 1; 
76 3; 77 86; 78 16; 79 37; 80 8; 
81 4; 82 16; 83 3; 84 4; 89 4; 
90 3; 91 77; 92 10; 93 8; 94 15; 
95 999; 96 160; 97 17; 98 2; 102 3; 
103 32; 104 44; 105 134; 106 17; 107 1; 
108 1; 115 9; 116 3; 117 16; 118 24; 
119 9; 120 4; 124 1; 126 1; 127 1; 
128 3; 129 3; 130 46; 131 25; 132 46; 
133 7; 134 4; 137 1; 138 3; 139 1; 
141 1; 142 1; 143 2; 144 8; 145 4; 
146 11; 147 1; 148 1; 154 1; 156 2; 
157 2; 158 97; 159 17; 160 12; 161 1; 
168 1; 169 1; 170 32; 171 5; 172 3; 
173 1; 182 1; 184 4; 185 3; 186 16; 
187 18; 188 15; 189 3; 212 1; 238 1; 
240 284; 241 47; 242 5; 254 1; 279 3; 
280 1; 281 2; 282 5; 283 532; 284 102; 
285 11; 286 1; 372 1; 
