Name: Mexedrone
Synon: 3-methoxy-2-(methylamino)-1-(4-methylphenyl)propan-1-one
InChIKey: JHGDCSPZKQLBOP-UHFFFAOYSA-N
Formula: C12H17NO2
MW: 207
ExactMass: 207.125929
CASNO: 0
ID: 4632
Comment: DEA SFL1 Lot # RM-160203-01 / SWGDRUG Monograph available
Num Peaks: 81
31 16; 32 9; 38 3; 39 34; 40 5; 
41 29; 42 81; 43 13; 44 29; 45 66; 
46 2; 50 10; 51 20; 52 6; 53 5; 
54 15; 55 25; 56 519; 57 50; 58 78; 
59 27; 61 1; 62 8; 63 30; 64 8; 
65 98; 66 6; 70 1; 71 1; 72 9; 
73 9; 74 3; 75 3; 76 2; 77 10; 
78 3; 79 2; 85 3; 86 12; 87 9; 
88 999; 89 77; 90 18; 91 147; 92 13; 
93 2; 102 1; 103 5; 104 1; 105 13; 
106 3; 115 7; 116 2; 117 7; 118 5; 
119 104; 120 9; 121 1; 128 1; 130 2; 
131 5; 132 9; 133 1; 134 9; 135 1; 
143 1; 144 6; 145 3; 146 19; 147 24; 
148 3; 158 2; 159 1; 160 28; 161 5; 
162 63; 163 7; 173 1; 174 3; 175 10; 
176 2; 
