Name: 5-Fluoro-ADB-PINACA
Synon: N-(1-amino-3,3-dimethyl-1-oxobutan-2-yl)-1-(5-fluoropentyl)-1H-indazole-3-carboxamide
Synon: 5F-ADB-PINACA
InChIKey: SOYDDJYBRCNNIT-INIZCTEOSA-N
Formula: C19H27FN4O2
MW: 362
ExactMass: 362.211803
CASNO: 0
ID: 4641
Comment: ENFSI / NFL SI, EU project RESPONSE, confirmed by NMR
Num Peaks: 108
51 9; 52 4; 53 11; 54 4; 55 23; 
56 13; 57 71; 58 4; 59 15; 61 4; 
62 5; 63 8; 64 5; 65 4; 67 8; 
68 4; 69 63; 70 21; 71 7; 73 23; 
74 3; 75 8; 76 14; 77 27; 78 7; 
82 6; 83 7; 84 9; 85 9; 86 32; 
87 7; 88 32; 89 34; 90 89; 91 15; 
96 8; 102 39; 103 101; 104 34; 105 6; 
112 4; 113 5; 115 4; 116 8; 117 48; 
118 15; 119 6; 121 5; 128 5; 129 46; 
130 35; 131 241; 132 30; 133 7; 142 3; 
143 13; 145 456; 146 45; 147 7; 155 3; 
156 10; 157 17; 158 16; 159 8; 169 3; 
170 4; 171 33; 172 8; 173 5; 174 12; 
177 54; 178 5; 185 15; 186 9; 191 9; 
193 6; 199 3; 200 10; 201 13; 207 72; 
208 16; 209 10; 213 82; 214 18; 215 3; 
231 15; 233 999; 234 159; 235 16; 245 5; 
246 3; 250 7; 262 5; 267 3; 281 31; 
282 10; 283 7; 289 158; 290 25; 291 3; 
302 3; 306 12; 318 485; 319 105; 320 13; 
330 6; 341 4; 355 3; 
