Name: 5-Fluoro-CUMYL-P7AICA
InChIKey: MXJYOUMYJGNQEY-UHFFFAOYSA-N
Synon: 5F-CUMYL-P7AICA
Synon: CUMYL-5F-P7AICA
Synon: SGT-263
Synon: 1-(5-Fluoropentyl)-N-(2-phenylpropan-2-yl)-7-azaindole-3-carboxamide
Synon: N-cumyl-(5-f luoropentyl)-7-azaindole-3-carboxamide
Formula: C22H26FN3O
MW: 367
ExactMass: 367.20599
CASNO: 0
ID: 4648
Comment: Provided by www.caymanchem.com/app/template/landing%2CForensic.vm / Item #18370 Batch #0480316
Num Peaks: 198
41 84; 42 30; 43 17; 44 2; 45 1; 
47 11; 50 14; 51 36; 52 9; 53 8; 
54 2; 55 16; 56 2; 57 1; 58 8; 
59 9; 61 4; 62 8; 63 27; 64 8; 
65 20; 66 3; 67 7; 68 2; 69 10; 
70 1; 73 9; 74 10; 75 13; 76 29; 
77 125; 78 65; 79 33; 80 1; 85 2; 
86 1; 87 2; 88 6; 89 26; 90 50; 
91 170; 92 20; 93 2; 94 1; 95 11; 
96 1; 98 1; 100 1; 101 3; 102 35; 
103 156; 104 100; 105 44; 106 4; 107 3; 
108 1; 114 1; 115 47; 116 31; 117 235; 
118 150; 119 111; 120 50; 121 7; 124 2; 
127 1; 128 3; 129 17; 130 96; 131 69; 
132 34; 133 9; 134 13; 135 6; 139 12; 
141 1; 142 5; 143 47; 144 54; 145 745; 
146 81; 147 9; 148 1; 149 1; 153 1; 
154 3; 155 6; 156 56; 157 35; 158 25; 
159 23; 160 4; 161 137; 162 15; 163 1; 
165 1; 166 2; 168 2; 169 3; 170 6; 
171 16; 172 4; 173 3; 174 123; 175 239; 
176 26; 177 3; 178 1; 179 1; 180 1; 
181 1; 182 3; 183 2; 184 11; 185 12; 
186 4; 187 1; 188 23; 189 6; 191 2; 
192 1; 193 3; 194 4; 195 4; 196 2; 
197 3; 198 2; 199 2; 200 2; 201 3; 
202 35; 203 6; 204 3; 205 19; 206 4; 
207 17; 208 4; 209 3; 210 2; 211 5; 
212 3; 213 12; 214 4; 215 3; 216 18; 
217 2; 219 2; 220 2; 221 3; 226 1; 
228 2; 229 4; 230 2; 231 18; 233 999; 
234 147; 235 15; 236 2; 237 1; 246 1; 
248 45; 249 222; 250 35; 251 5; 253 6; 
254 2; 255 2; 262 2; 264 1; 265 1; 
272 4; 273 1; 276 2; 278 5; 279 2; 
281 2; 282 2; 292 10; 293 7; 294 1; 
306 1; 320 1; 325 1; 327 1; 331 2; 
333 1; 334 2; 341 1; 342 1; 346 1; 
347 4; 350 4; 351 1; 352 12; 353 3; 
367 146; 368 36; 369 4; 
