Name: .beta.-Methyl Fentanyl
InChIKey: UXIGUKSHASXDNI-UHFFFAOYSA-N
Synon: N-phenyl-N-[1-(2-phenylpropyl)-4-piperidinyl]-propanamide
Formula: C23H30N2O
MW: 350
ExactMass: 350.235813
CASNO: 79146568
ID: 4651
Comment: Provided by www.caymanchem.com/Forensic.vm / Item #9002860 Batch #0494309
Num Peaks: 134
40 1; 41 50; 42 153; 43 25; 44 93; 
45 3; 50 7; 51 26; 52 8; 53 9; 
54 12; 55 27; 56 26; 57 161; 58 8; 
62 2; 63 9; 64 5; 65 24; 66 9; 
67 27; 68 31; 69 30; 70 52; 71 5; 
72 1; 73 4; 74 4; 75 4; 76 7; 
77 151; 78 41; 79 61; 80 14; 81 5; 
82 34; 83 6; 84 12; 85 1; 86 1; 
88 1; 89 6; 90 5; 91 218; 92 24; 
93 61; 94 43; 95 24; 96 91; 97 21; 
98 9; 99 1; 102 7; 103 55; 104 58; 
105 180; 106 38; 107 3; 108 1; 111 1; 
115 19; 116 7; 117 43; 118 86; 119 36; 
120 10; 121 1; 127 1; 128 3; 129 5; 
130 70; 131 48; 132 103; 133 19; 134 4; 
135 2; 139 9; 140 1; 141 1; 142 1; 
143 4; 144 19; 145 11; 146 591; 147 68; 
148 10; 149 8; 150 4; 154 1; 156 3; 
157 2; 158 54; 159 14; 160 8; 161 1; 
162 1; 170 2; 172 5; 173 3; 174 7; 
175 1; 184 3; 185 1; 186 1; 187 14; 
188 13; 189 377; 190 52; 191 4; 192 1; 
198 5; 199 4; 200 12; 201 2; 202 127; 
203 19; 204 1; 207 6; 208 1; 216 4; 
227 1; 229 1; 243 2; 245 999; 246 166; 
247 17; 248 1; 253 3; 281 1; 293 1; 
327 1; 331 1; 348 2; 349 1; 
