Name: Ethylnaphthidate
Synon: HDEP-28
Synon: rel-Ethyl-(R)-2-(naphthalen-2-yl)-2-((R)-piperidin-2-yl)acetate
Synon: threo-Ethylnaphthidate
InChIKey: OTQVTBPHZRARTL-QRWMCTBCSA-N
Formula: C19H23NO2
MW: 297
ExactMass: 297.172878
CASNO: 0
ID: 4652
Comment: Provided by www.caymanchem.com/app/template/landing%2CForensic.vm / Item #17954 Batch #0481289
Num Peaks: 66
41 1; 42 1; 43 5; 44 3; 45 3; 
50 5; 51 7; 52 2; 55 2; 58 13; 
61 1; 62 6; 63 24; 64 3; 65 8; 
69 2; 70 5; 71 37; 74 8; 75 8; 
76 5; 77 4; 78 2; 82 1; 83 3; 
85 2; 86 5; 87 9; 88 7; 89 22; 
90 1; 91 9; 98 2; 99 1; 100 1; 
101 1; 102 4; 103 1; 111 1; 113 13; 
114 11; 115 245; 116 23; 117 1; 126 5; 
127 5; 128 11; 129 6; 137 2; 138 5; 
139 120; 140 38; 141 999; 142 139; 143 9; 
155 3; 156 1; 157 2; 168 4; 169 2; 
185 2; 186 3; 214 289; 215 44; 216 5; 
281 1; 
