Name: Methylnaphthidate (Not Certified by NIST)
InChIKey: DNRNSIJBSCBESJ-ZYMOGRSISA-N
Synon: HDMP-28
Synon: (.alpha.R.2R)-rel-.alpha.-2-naphthalenyl-2-piperidineacetic acid, methyl ester
Synon: threo-Methylnaphthidate
Formula: C18H21NO2
MW: 283
ExactMass: 283.157228
CASNO: 219915692
ID: 4654
Comment: Note: Spectrum not certified by NIST / Provided by www.caymanchem.com/app/template/landing%2CForensic.vm / Item #17970 Batch #0481290
Num Peaks: 67
41 1; 44 1; 50 8; 51 10; 52 2; 
53 1; 58 18; 59 25; 61 2; 62 11; 
63 32; 64 4; 65 9; 69 3; 70 10; 
71 33; 73 1; 74 12; 75 11; 76 8; 
77 5; 78 1; 85 2; 86 8; 87 15; 
88 8; 89 29; 90 2; 91 10; 92 1; 
98 4; 99 2; 100 2; 101 2; 102 7; 
103 1; 110 1; 111 2; 112 1; 113 18; 
114 13; 115 270; 116 26; 117 1; 126 6; 
127 9; 128 15; 129 4; 137 4; 138 5; 
139 136; 140 41; 141 999; 142 125; 143 7; 
155 5; 156 3; 157 3; 158 1; 168 7; 
169 2; 171 1; 185 2; 200 360; 201 51; 
202 5; 207 1; 
