Name: U-47700
Synon: rel-3,4-Dichloro-N-[(1R,2R)-2-(dimethylamino)cyclohexyl]-N-methylbenzamide
Synon: 3,4-Dichloro-N-[2-(dimethylamino)cyclohexyl]-N-methylbenzamide
InChIKey: JGPNMZWFVRQNGU-GICMACPYSA-N
Formula: C16H22Cl2N2O
MW: 328
ExactMass: 328.110918
CASNO: 0
ID: 4656
Comment: DEA SWL / SWGDRUG Monograph available
Num Peaks: 129
36 1; 38 1; 39 7; 40 1; 41 23; 
42 119; 43 18; 44 53; 45 10; 46 5; 
50 4; 51 2; 52 1; 53 10; 54 9; 
55 33; 56 72; 57 15; 58 189; 59 7; 
61 1; 63 1; 65 2; 66 2; 67 11; 
68 29; 69 11; 70 60; 71 174; 72 14; 
73 3; 74 18; 75 30; 76 2; 77 7; 
78 1; 79 25; 80 7; 81 25; 82 51; 
83 24; 84 999; 85 75; 86 5; 87 2; 
91 1; 93 2; 94 15; 95 11; 96 24; 
97 41; 98 66; 99 15; 100 2; 103 2; 
107 1; 108 10; 109 67; 110 179; 111 42; 
112 59; 113 8; 114 1; 116 1; 119 1; 
121 1; 122 5; 123 3; 124 185; 125 762; 
126 76; 127 4; 137 1; 138 8; 139 11; 
140 4; 141 3; 144 2; 145 171; 146 14; 
147 110; 148 7; 149 18; 150 1; 151 1; 
153 6; 154 1; 155 32; 156 3; 159 1; 
161 1; 167 2; 169 6; 171 1; 172 1; 
173 146; 174 11; 175 93; 176 7; 177 15; 
178 1; 186 5; 188 3; 190 1; 202 1; 
204 3; 206 1; 214 1; 216 4; 217 1; 
218 2; 228 1; 230 1; 254 1; 255 1; 
256 4; 257 1; 258 2; 282 1; 284 5; 
285 1; 286 2; 313 2; 315 1; 327 12; 
328 8; 329 9; 330 5; 331 1; 
