Name: Acrylfentanyl
InChIKey: RFQNLMWUIJJEQF-UHFFFAOYSA-N
Synon: N-Phenyl-N-[1-(2-phenylethyl)-4-piperidinyl]-2-propenamide
Synon: Acryloylfentanyl
Formula: C22H26N2O
MW: 334
ExactMass: 334.204514
CASNO: 82003756
ID: 4658
Comment: Provided by www.caymanchem.com/app/template/landing%2CForensic.vm / Item #19312 Batch #0481085
Num Peaks: 137
41 38; 42 161; 43 23; 44 65; 45 2; 
50 7; 51 28; 52 8; 53 11; 54 14; 
55 300; 56 31; 57 15; 58 3; 62 2; 
63 12; 64 7; 65 55; 66 8; 67 25; 
68 27; 69 28; 70 39; 71 4; 73 6; 
74 3; 75 4; 76 7; 77 169; 78 38; 
79 62; 80 14; 81 6; 82 22; 83 5; 
84 9; 85 1; 86 1; 89 12; 90 9; 
91 214; 92 26; 93 28; 94 26; 95 15; 
96 144; 97 17; 98 17; 99 1; 101 1; 
102 6; 103 59; 104 85; 105 195; 106 34; 
107 3; 108 1; 109 1; 110 1; 111 1; 
115 9; 116 4; 117 34; 118 64; 119 21; 
120 10; 121 1; 123 1; 127 1; 128 5; 
129 4; 130 104; 131 51; 132 103; 133 15; 
134 8; 135 4; 138 1; 139 12; 140 1; 
142 1; 143 5; 144 22; 145 11; 146 429; 
147 53; 148 12; 149 2; 154 2; 156 5; 
157 3; 158 126; 159 23; 160 24; 161 3; 
165 1; 170 3; 171 1; 172 12; 173 4; 
174 1; 178 1; 182 2; 184 11; 185 7; 
186 24; 187 21; 188 26; 189 134; 190 19; 
191 3; 193 1; 195 1; 197 1; 198 2; 
199 1; 200 398; 201 57; 202 5; 209 1; 
214 5; 215 1; 241 2; 243 999; 244 173; 
245 18; 246 1; 249 1; 253 4; 255 1; 
279 4; 281 2; 282 1; 325 1; 327 1; 
331 1; 332 3; 
