Name: NAPIE
Synon: 2-(Naphthalen-1-yl)-1-(1-pentyl-1H-indol-3-yl)ethan-1-one
InChIKey: RGVUGPTXNKZHAK-UHFFFAOYSA-N
Formula: C25H25NO
MW: 355
ExactMass: 355.193615
CASNO: 0
ID: 4659
Comment: Provided by www.caymanchem.com/Forensic.vm / Item#22632 Batch#0508177
Num Peaks: 147
41 24; 42 3; 43 43; 45 1; 50 1; 
51 1; 52 1; 53 1; 55 4; 56 1; 
62 1; 63 6; 64 1; 65 2; 69 1; 
70 1; 73 11; 74 3; 75 7; 76 5; 
77 6; 78 5; 79 1; 81 1; 86 1; 
87 2; 88 4; 89 27; 90 2; 91 3; 
96 1; 97 1; 101 6; 102 27; 103 11; 
104 1; 113 3; 114 6; 115 115; 116 71; 
117 9; 118 2; 119 1; 121 1; 126 1; 
127 1; 128 24; 129 41; 130 27; 131 3; 
133 3; 134 2; 135 2; 137 1; 138 1; 
139 31; 140 4; 141 157; 142 25; 143 25; 
144 212; 145 23; 146 1; 147 2; 148 1; 
149 1; 152 1; 153 2; 154 5; 155 3; 
156 6; 157 5; 158 3; 161 1; 163 2; 
164 1; 165 1; 166 1; 167 1; 168 2; 
170 6; 171 1; 177 2; 178 2; 179 1; 
184 2; 185 1; 186 1; 187 1; 191 2; 
192 1; 193 2; 195 2; 197 2; 198 1; 
200 4; 201 1; 203 1; 205 1; 207 17; 
208 5; 209 1; 210 1; 212 7; 213 3; 
214 999; 215 155; 216 12; 217 1; 224 1; 
226 2; 227 1; 237 1; 238 1; 239 2; 
241 1; 242 2; 249 2; 250 1; 251 1; 
252 1; 253 12; 254 9; 255 5; 256 2; 
265 2; 266 1; 267 4; 268 2; 269 2; 
281 8; 282 3; 283 1; 284 4; 298 1; 
325 3; 328 1; 331 1; 338 1; 339 3; 
340 1; 341 3; 342 1; 343 1; 346 2; 
355 17; 356 4; 
