Name: 2-Chloromethcathinone
InChIKey: UHVGPEBZWPKWNT-UHFFFAOYSA-N
Synon: 2-CMC
Synon: 1-(2-Chlorophenyl)-2-(methylamino)-1-propanone
Formula: C10H12ClNO
MW: 197
ExactMass: 197.060741
CASNO: 692720346
ID: 4663
Comment: Provided by www.caymanchem.com/Forensic.vm / Item#17744 Batch#0508017
Num Peaks: 98
40 1; 41 18; 42 72; 43 29; 44 3; 
49 3; 50 44; 51 29; 52 6; 53 3; 
54 11; 55 11; 56 150; 57 29; 58 999; 
59 41; 60 1; 61 6; 62 7; 63 13; 
64 5; 65 8; 66 1; 69 1; 72 1; 
73 10; 74 47; 75 145; 76 41; 77 56; 
78 8; 79 2; 81 3; 84 5; 85 18; 
86 6; 87 8; 88 2; 89 14; 90 7; 
91 49; 92 12; 93 1; 98 1; 99 2; 
100 1; 101 3; 102 5; 103 10; 104 10; 
105 10; 106 2; 110 3; 111 117; 112 14; 
113 39; 114 6; 115 7; 116 5; 117 14; 
118 23; 119 3; 125 7; 126 1; 127 2; 
128 1; 130 9; 131 5; 132 46; 133 10; 
134 1; 138 1; 139 59; 140 7; 141 19; 
142 2; 143 1; 144 6; 145 3; 146 13; 
147 5; 152 1; 154 3; 156 1; 158 1; 
159 3; 160 6; 161 56; 162 6; 164 1; 
166 2; 167 1; 168 2; 169 1; 170 1; 
181 2; 182 1; 195 1; 
