Name: N-Desmethyl AH 7921
Synon: AH 7921 desmethyl metabolite
Synon: 3,4-Dichloro-N-((1-(methylamino)cyclohexyl)methyl)benzamide
InChIKey: PDWWZXXRSUFEBM-UHFFFAOYSA-N
Formula: C15H20Cl2N2O
MW: 314
ExactMass: 314.095268
CASNO: 0
ID: 4670
Comment: Provided by www.caymanchem.com/Forensic.vm / Item# 20280 Batch#0500961
Num Peaks: 105
40 1; 41 19; 42 14; 43 3; 44 24; 
50 2; 51 2; 52 1; 53 6; 54 8; 
55 26; 56 16; 57 3; 58 3; 65 2; 
66 2; 67 7; 68 37; 69 8; 70 46; 
71 6; 72 1; 73 3; 74 12; 75 17; 
76 2; 77 6; 78 1; 79 13; 80 4; 
81 28; 82 23; 83 9; 84 6; 85 9; 
86 2; 87 1; 91 2; 93 2; 94 3; 
95 4; 96 9; 97 5; 98 6; 99 1; 
100 1; 103 1; 108 2; 109 26; 110 26; 
111 21; 112 999; 113 80; 114 3; 123 1; 
124 2; 125 2; 133 1; 135 1; 136 1; 
137 1; 138 3; 139 4; 140 1; 141 2; 
144 1; 145 61; 146 6; 147 39; 148 3; 
149 6; 150 1; 171 2; 172 1; 173 70; 
174 6; 175 45; 176 4; 177 7; 185 3; 
186 1; 187 2; 190 1; 191 1; 192 1; 
202 1; 204 1; 207 8; 208 1; 227 1; 
239 11; 240 2; 241 7; 242 1; 243 1; 
253 6; 254 1; 255 3; 271 3; 273 2; 
281 3; 282 1; 296 3; 298 2; 312 1; 
