Name: Caryophyllene oxide
Synon: (1R,6R,10S)-4R,12,12-trimethyl-9-methylene-5-oxatricyclo[8.2.0.04,6]dodecane
Synon: BCP oxide
InChIKey: NVEQFIOZRFFVFW-RGCMKSIDSA-N
Formula: C15H24O
MW: 220
ExactMass: 220.182715
CASNO: 1139306
ID: 4673
Comment: Provided by www.caymanchem.com/Forensic.vm / Item#21573 Batch# 0504084
Num Peaks: 145
40 46; 41 868; 42 66; 43 538; 44 33; 
45 14; 49 1; 50 17; 51 69; 52 49; 
53 245; 54 51; 55 369; 56 217; 57 61; 
58 26; 59 11; 61 1; 62 5; 63 29; 
64 10; 65 200; 66 87; 67 451; 68 127; 
69 567; 70 58; 71 162; 72 15; 73 3; 
74 2; 75 3; 76 6; 77 550; 78 158; 
79 999; 80 177; 81 389; 82 202; 83 184; 
84 46; 85 51; 86 5; 87 1; 89 10; 
90 6; 91 759; 92 149; 93 713; 94 209; 
95 457; 96 284; 97 72; 98 11; 99 7; 
101 1; 102 6; 103 46; 104 31; 105 372; 
106 299; 107 408; 108 173; 109 361; 110 212; 
111 87; 112 10; 113 2; 115 39; 116 17; 
117 73; 118 38; 119 195; 120 165; 121 309; 
122 100; 123 194; 124 40; 125 30; 126 9; 
127 22; 128 19; 129 20; 130 9; 131 140; 
132 37; 133 139; 134 89; 135 146; 136 112; 
137 71; 138 123; 139 23; 140 11; 141 6; 
142 3; 143 8; 144 7; 145 69; 146 46; 
147 100; 148 43; 149 135; 150 32; 151 42; 
152 13; 153 5; 154 1; 155 1; 156 1; 
157 4; 158 2; 159 72; 160 24; 161 133; 
162 42; 163 77; 164 71; 165 20; 166 3; 
171 1; 172 1; 173 22; 174 20; 175 17; 
176 36; 177 84; 178 18; 179 4; 187 66; 
188 10; 189 15; 190 4; 191 22; 192 17; 
193 2; 200 1; 202 25; 203 5; 204 4; 
205 33; 206 6; 207 1; 220 15; 221 2; 
