Name: Hordenine
Synon: 4-[2-(Dimethylamino)ethyl]-phenol
Synon: N,N-Dimethyl-4-Hydroxyphenylethylamine
Synon: N,N-Dimethyl Tyramine
InChIKey: KUBCEEMXQZUPDQ-UHFFFAOYSA-N
Formula: C10H15NO
MW: 165
ExactMass: 165.115364
CASNO: 539151
ID: 4675
Comment: Provided by www.caymanchem.com/Forensic.vm / Item#21626 Batch#0501532
Num Peaks: 66
40 2; 41 11; 42 101; 43 20; 44 7; 
50 7; 51 19; 52 11; 53 16; 54 3; 
55 9; 56 11; 57 18; 58 999; 59 39; 
61 1; 62 5; 63 16; 64 4; 65 22; 
66 7; 67 2; 68 1; 70 1; 71 2; 
74 3; 75 3; 76 2; 77 96; 78 26; 
79 9; 80 1; 81 4; 89 7; 90 2; 
91 31; 92 4; 93 3; 94 7; 95 1; 
101 1; 102 2; 103 7; 104 1; 105 4; 
106 2; 107 65; 108 6; 117 1; 118 2; 
119 8; 120 16; 121 18; 122 1; 132 2; 
133 2; 134 2; 146 1; 147 1; 148 2; 
149 4; 162 5; 163 2; 164 2; 165 8; 
166 1; 
