Name: 6.beta.-Hydrocodol
Synon: Dihydroisocodeine
Synon: (5.alpha.,6.beta.)-4,5-Epoxy-3-methoxy-17-methyl-morphinan-6-ol
InChIKey: RBOXVHNMENFORY-KEMUOJQUSA-N
Formula: C18H23NO3
MW: 301
ExactMass: 301.167793
CASNO: 795380
ID: 4680
Comment: Provided by www.caymanchem.com/Forensic.vm / Item#21534 Batch#0500968
Num Peaks: 242
40 4; 41 55; 42 205; 43 46; 44 106; 
45 6; 50 6; 51 20; 52 8; 53 22; 
54 11; 55 47; 56 20; 57 60; 58 30; 
59 130; 60 22; 61 2; 62 4; 63 24; 
64 10; 65 35; 66 12; 67 19; 68 27; 
69 14; 70 149; 71 18; 72 7; 73 3; 
74 5; 75 12; 76 15; 77 78; 78 30; 
79 29; 80 13; 81 19; 82 86; 83 27; 
84 17; 85 6; 86 6; 87 6; 88 7; 
89 31; 90 1; 91 73; 92 17; 93 13; 
94 41; 95 14; 96 41; 97 15; 98 18; 
99 5; 100 5; 101 11; 102 31; 103 52; 
104 17; 105 28; 106 18; 107 30; 108 27; 
109 14; 110 9; 111 2; 112 7; 113 17; 
114 34; 115 212; 116 55; 117 37; 118 22; 
119 15; 120 32; 121 25; 122 19; 123 11; 
124 8; 125 4; 126 38; 127 86; 128 147; 
129 70; 130 25; 131 58; 132 31; 133 17; 
134 28; 135 12; 136 17; 137 21; 138 11; 
139 33; 140 16; 141 80; 142 34; 143 45; 
144 75; 145 43; 146 84; 147 28; 148 16; 
149 7; 150 25; 151 29; 152 55; 153 65; 
154 30; 155 66; 156 35; 157 49; 158 39; 
159 44; 160 27; 161 37; 162 42; 163 20; 
164 153; 165 70; 166 22; 167 24; 168 45; 
169 51; 170 46; 171 63; 172 35; 173 44; 
174 40; 175 58; 176 24; 177 12; 178 18; 
179 14; 180 10; 181 55; 182 35; 183 80; 
184 53; 185 220; 186 69; 187 95; 188 95; 
189 37; 190 30; 191 10; 192 4; 193 14; 
194 15; 195 25; 196 25; 197 40; 198 62; 
199 136; 200 77; 201 75; 202 46; 203 18; 
204 10; 205 3; 206 4; 207 17; 208 10; 
209 17; 210 20; 211 52; 212 44; 213 78; 
214 79; 215 64; 216 46; 217 21; 218 11; 
219 4; 220 2; 221 3; 222 5; 223 6; 
224 31; 225 39; 226 115; 227 100; 228 70; 
229 56; 230 65; 231 15; 232 7; 233 1; 
234 1; 235 1; 236 3; 237 4; 238 11; 
239 12; 240 39; 241 21; 242 176; 243 75; 
244 416; 245 96; 246 14; 247 1; 248 1; 
250 3; 251 3; 252 8; 253 7; 254 17; 
255 9; 256 58; 257 66; 258 57; 259 9; 
260 3; 264 2; 265 1; 266 13; 267 5; 
268 24; 269 8; 270 24; 271 7; 272 55; 
273 12; 274 1; 281 4; 282 32; 283 13; 
284 109; 285 25; 286 173; 287 33; 288 4; 
298 2; 299 5; 300 175; 301 999; 302 193; 
303 23; 304 2; 
