Name: 6.beta.-Oxycodol
Synon: 4,5.alpha.-Epoxy-3-methoxy-17-methyl-morphinan-6.beta.,14-diol
InChIKey: LHTAJTFGGUDLRH-MYDSHOOGSA-N
Formula: C18H23NO4
MW: 317
ExactMass: 317.162708
CASNO: 61949733
ID: 4682
Comment: Provided by www.caymanchem.com/Forensic.vm / Item# 21540 Batch# 0500975
Num Peaks: 265
41 82; 42 358; 43 129; 44 370; 45 31; 
46 3; 47 2; 49 1; 50 7; 51 25; 
52 15; 53 31; 54 15; 55 95; 56 44; 
57 190; 58 161; 59 33; 60 10; 61 1; 
62 7; 63 34; 64 18; 65 47; 66 20; 
67 14; 68 25; 69 34; 70 679; 71 112; 
72 58; 73 46; 74 19; 75 15; 76 25; 
77 123; 78 54; 79 39; 80 17; 81 25; 
82 40; 83 27; 84 48; 85 64; 86 39; 
87 14; 88 12; 89 44; 90 25; 91 117; 
92 14; 93 17; 94 53; 95 8; 96 41; 
97 20; 98 65; 99 28; 100 32; 101 15; 
102 54; 103 93; 104 27; 105 34; 106 17; 
107 21; 108 28; 109 10; 110 16; 111 9; 
112 18; 113 21; 114 35; 115 306; 116 86; 
117 60; 118 44; 119 30; 120 12; 121 43; 
122 10; 123 10; 124 15; 125 6; 126 23; 
127 109; 128 156; 129 100; 130 44; 131 108; 
132 43; 133 33; 134 32; 135 25; 136 18; 
137 32; 138 10; 139 47; 140 21; 141 68; 
142 63; 143 59; 144 99; 145 78; 146 65; 
147 56; 148 25; 149 15; 150 13; 151 13; 
152 60; 153 52; 154 35; 155 66; 156 46; 
157 64; 158 55; 159 72; 160 65; 161 82; 
162 75; 163 18; 164 14; 165 37; 166 16; 
167 22; 168 52; 169 54; 170 44; 171 68; 
172 48; 173 68; 174 64; 175 157; 176 47; 
177 24; 178 32; 179 91; 180 29; 181 61; 
182 37; 183 49; 184 63; 185 132; 186 86; 
187 88; 188 114; 189 119; 190 56; 191 43; 
192 12; 193 16; 194 11; 195 26; 196 27; 
197 41; 198 159; 199 161; 200 86; 201 291; 
202 106; 203 98; 204 65; 205 19; 207 117; 
208 23; 209 30; 210 18; 211 42; 212 31; 
213 150; 214 150; 215 102; 216 293; 217 139; 
218 54; 219 7; 220 3; 221 4; 222 4; 
223 8; 224 11; 225 18; 226 40; 227 63; 
228 74; 229 66; 230 364; 231 83; 232 103; 
233 25; 234 4; 235 5; 236 2; 237 10; 
238 12; 239 9; 240 44; 241 37; 242 238; 
243 80; 244 40; 245 51; 246 64; 247 11; 
248 4; 249 7; 250 7; 251 3; 252 11; 
253 28; 254 21; 255 18; 256 27; 257 10; 
258 78; 259 12; 260 231; 261 79; 262 8; 
263 1; 264 1; 265 5; 266 11; 267 14; 
268 11; 269 4; 270 17; 271 9; 272 14; 
273 27; 274 55; 275 6; 276 5; 278 1; 
279 1; 280 3; 281 43; 282 25; 283 13; 
284 16; 285 4; 286 61; 287 13; 288 16; 
289 10; 290 1; 295 1; 296 1; 297 5; 
298 42; 299 18; 300 29; 301 9; 302 51; 
303 9; 312 1; 313 3; 314 3; 315 14; 
316 28; 317 999; 318 196; 319 29; 320 4; 
