Name: 6.beta.-Hydromorphol
Synon: (5.alpha.,6.beta.)-4,5-Epoxy-17-methyl-morphinan-3,6-diol
Synon: Dihydroisomorphine
InChIKey: IJVCSMSMFSCRME-NOSXKOESSA-N
Formula: C17H21NO3
MW: 287
ExactMass: 287.152143
CASNO: 26626120
ID: 4683
Comment: Provided by www.caymanchem.com/Forensic.vm / Item#21537 Batch#0500971
Num Peaks: 235
40 3; 41 50; 42 204; 43 48; 44 116; 
45 6; 46 1; 50 5; 51 20; 52 10; 
53 23; 54 12; 55 50; 56 21; 57 71; 
58 48; 59 96; 60 15; 61 1; 62 4; 
63 21; 64 9; 65 39; 66 16; 67 23; 
68 32; 69 17; 70 175; 71 25; 72 11; 
73 13; 74 6; 75 12; 76 13; 77 89; 
78 33; 79 31; 80 14; 81 23; 82 91; 
83 31; 84 20; 85 5; 86 6; 87 5; 
88 6; 89 30; 90 5; 91 80; 92 17; 
93 12; 94 45; 95 16; 96 42; 97 15; 
98 8; 99 2; 100 4; 101 12; 102 28; 
103 49; 104 17; 105 26; 106 14; 107 31; 
108 31; 109 14; 110 7; 111 1; 112 7; 
113 7; 114 22; 115 191; 116 45; 117 39; 
118 20; 119 13; 120 26; 121 19; 122 18; 
123 25; 124 12; 125 5; 126 31; 127 81; 
128 107; 129 50; 130 21; 131 85; 132 34; 
133 19; 134 22; 135 16; 136 26; 137 16; 
138 5; 139 27; 140 12; 141 52; 142 18; 
143 33; 144 65; 145 46; 146 74; 147 52; 
148 29; 149 11; 150 21; 151 16; 152 44; 
153 46; 154 21; 155 39; 156 19; 157 59; 
158 26; 159 22; 160 43; 161 62; 162 44; 
163 22; 164 189; 165 63; 166 17; 167 17; 
168 26; 169 33; 170 20; 171 104; 172 42; 
173 80; 174 76; 175 37; 176 35; 177 10; 
178 8; 179 8; 180 6; 181 36; 182 22; 
183 40; 184 48; 185 98; 186 63; 187 68; 
188 43; 189 17; 190 12; 191 8; 192 5; 
193 12; 194 11; 195 17; 196 13; 197 35; 
198 32; 199 57; 200 57; 201 51; 202 48; 
203 25; 204 11; 205 5; 206 1; 207 38; 
208 12; 209 11; 210 16; 211 45; 212 91; 
213 88; 214 67; 215 45; 216 79; 217 15; 
218 6; 219 1; 220 1; 221 2; 222 3; 
223 4; 224 7; 225 11; 226 31; 227 21; 
228 108; 229 56; 230 217; 231 61; 232 14; 
233 1; 234 1; 235 1; 236 2; 237 3; 
238 8; 239 4; 240 22; 241 8; 242 54; 
243 43; 244 39; 245 7; 249 1; 250 2; 
251 2; 252 10; 253 11; 254 20; 255 5; 
256 15; 257 2; 258 52; 259 11; 260 1; 
265 1; 266 2; 267 3; 268 38; 269 23; 
270 91; 271 19; 272 77; 273 13; 274 1; 
281 13; 282 4; 283 2; 284 3; 285 6; 
286 202; 287 999; 288 185; 289 23; 290 2; 
