Name: 6.alpha.-Oxycodol N-oxide
Synon: 14-Hydroxy Dihydrocodeine N-oxide
Synon: 4,5.alpha.-Epoxy-3-methoxy-17-methyl-morphinan-6.alpha.,14-diol 17-oxide
InChIKey: PYNMSKPCGNAJAM-KEMGKEEMSA-N
Formula: C18H23NO5
MW: 333
ExactMass: 333.157623
CASNO: 71539532
ID: 4685
Comment: Provided by www.caymanchem.com/Forensic.vm / Item# 21539 Batch# 0500974
Num Peaks: 274
40 6; 41 76; 42 459; 43 180; 44 373; 
45 23; 47 18; 50 17; 51 37; 52 18; 
53 46; 54 16; 55 137; 56 79; 57 246; 
58 288; 59 26; 60 3; 61 28; 62 2; 
63 48; 64 17; 65 43; 66 32; 67 18; 
68 37; 69 37; 70 643; 71 88; 72 86; 
73 59; 74 84; 75 27; 76 47; 77 155; 
78 58; 79 55; 80 26; 81 20; 82 61; 
83 24; 84 28; 85 61; 86 28; 87 32; 
88 11; 89 74; 90 35; 91 148; 92 37; 
93 10; 94 63; 95 21; 96 46; 97 40; 
98 68; 99 32; 100 13; 101 25; 102 38; 
103 200; 104 43; 105 79; 106 32; 107 33; 
108 22; 109 13; 110 18; 111 14; 112 31; 
113 45; 114 34; 115 447; 116 141; 117 76; 
118 38; 119 18; 120 27; 121 52; 122 35; 
123 10; 124 10; 125 29; 126 34; 127 137; 
128 258; 129 147; 130 55; 131 125; 132 65; 
133 78; 134 28; 135 24; 136 26; 137 28; 
138 14; 139 115; 140 44; 141 118; 142 46; 
143 98; 144 160; 145 65; 146 67; 147 43; 
148 28; 149 15; 150 11; 151 41; 152 41; 
153 82; 154 44; 155 73; 156 75; 157 147; 
158 39; 159 82; 160 74; 161 105; 162 121; 
163 35; 164 24; 165 36; 166 62; 167 33; 
168 62; 169 76; 170 70; 171 58; 172 36; 
173 117; 174 128; 175 214; 176 74; 177 43; 
178 83; 179 102; 180 152; 181 87; 182 42; 
183 84; 184 38; 185 187; 186 110; 187 204; 
188 135; 189 157; 190 101; 191 69; 192 24; 
193 49; 194 54; 195 83; 196 59; 197 69; 
198 137; 199 194; 200 129; 201 316; 202 146; 
203 66; 204 56; 205 25; 206 4; 207 150; 
209 42; 210 22; 211 46; 212 71; 213 80; 
214 144; 215 119; 216 313; 217 81; 218 33; 
219 9; 221 13; 222 1; 223 13; 224 16; 
225 32; 226 24; 227 66; 228 91; 229 92; 
230 361; 231 52; 232 80; 233 17; 234 4; 
235 23; 237 20; 238 14; 239 33; 240 68; 
241 53; 242 131; 243 84; 244 61; 245 66; 
246 99; 247 9; 248 6; 249 6; 250 8; 
251 51; 252 19; 253 57; 254 79; 255 55; 
256 60; 257 40; 258 101; 259 49; 260 75; 
261 54; 262 3; 263 2; 264 1; 265 4; 
266 14; 267 11; 268 12; 269 17; 270 36; 
271 10; 272 38; 273 45; 274 43; 275 5; 
276 2; 279 1; 280 11; 281 53; 282 13; 
283 4; 284 34; 285 49; 286 26; 287 29; 
288 6; 289 13; 293 5; 295 10; 296 2; 
297 2; 298 41; 299 32; 300 317; 301 78; 
302 54; 304 3; 308 2; 311 10; 312 1; 
313 8; 314 44; 315 482; 316 186; 317 999; 
318 204; 319 23; 320 2; 322 2; 324 7; 
325 9; 327 42; 328 6; 329 5; 330 7; 
331 57; 332 2; 333 1; 334 2; 
