Name: nor-6.alpha.-Oxycodol
Synon: 4,5.alpha.-Epoxy-3-methoxy-morphinan-6.alpha.,14-diol
InChIKey: KFWOOLJUSYSBAD-NZQXGWJPSA-N
Formula: C17H21NO4
MW: 303
ExactMass: 303.147058
CASNO: 116499162
ID: 4686
Comment: Provided by www.caymanchem.com/Forensic.vm / Item#21544 Batch#0500973
Num Peaks: 247
41 85; 42 80; 43 160; 44 154; 45 39; 
46 5; 47 3; 49 1; 50 11; 51 39; 
52 18; 53 44; 54 21; 55 116; 56 118; 
57 154; 58 31; 59 16; 60 8; 61 3; 
62 9; 63 51; 64 22; 65 75; 66 22; 
67 33; 68 46; 69 48; 70 34; 71 30; 
72 28; 73 51; 74 16; 75 35; 76 36; 
77 163; 78 69; 79 54; 80 43; 81 32; 
82 37; 83 27; 84 45; 85 60; 86 18; 
87 21; 88 12; 89 83; 90 35; 91 152; 
92 35; 93 31; 94 34; 95 19; 96 37; 
97 14; 98 20; 99 36; 100 12; 101 34; 
102 75; 103 116; 104 47; 105 48; 106 29; 
107 38; 108 40; 109 18; 110 19; 111 8; 
112 11; 113 24; 115 396; 116 102; 117 99; 
118 60; 119 41; 120 28; 121 41; 122 25; 
123 30; 124 13; 125 8; 126 31; 127 126; 
128 212; 129 117; 130 90; 131 126; 132 76; 
133 56; 134 22; 135 27; 136 16; 137 108; 
138 101; 139 53; 140 21; 141 95; 142 44; 
143 89; 144 117; 145 94; 146 76; 147 68; 
148 127; 149 32; 150 24; 151 28; 152 74; 
153 66; 154 50; 155 76; 156 64; 157 96; 
158 86; 159 93; 160 73; 161 122; 162 62; 
163 154; 164 44; 165 62; 166 186; 167 57; 
168 63; 169 67; 170 72; 171 101; 172 78; 
173 108; 174 98; 175 266; 176 172; 177 57; 
178 65; 179 24; 180 17; 181 66; 182 48; 
183 87; 184 98; 185 198; 186 113; 187 145; 
188 146; 189 177; 190 91; 191 58; 192 25; 
193 30; 194 8; 195 31; 196 47; 197 63; 
198 102; 199 157; 200 186; 201 274; 202 149; 
203 128; 204 98; 205 42; 206 12; 207 224; 
208 61; 209 62; 210 33; 211 73; 212 68; 
213 127; 214 198; 215 206; 216 487; 217 129; 
218 155; 219 60; 220 11; 221 6; 222 6; 
223 7; 224 27; 225 40; 226 51; 227 67; 
228 121; 229 172; 230 103; 231 76; 232 63; 
233 19; 234 8; 235 5; 236 6; 237 7; 
238 18; 239 17; 240 49; 241 56; 242 140; 
243 51; 244 65; 245 30; 246 78; 247 73; 
248 29; 249 11; 250 6; 251 8; 252 13; 
253 28; 254 13; 255 17; 256 201; 257 60; 
258 48; 259 27; 260 91; 261 32; 262 5; 
265 7; 266 14; 267 18; 268 40; 269 15; 
270 33; 271 10; 272 5; 273 2; 274 32; 
275 29; 276 5; 281 78; 282 24; 283 15; 
284 176; 285 232; 286 771; 287 153; 288 37; 
289 6; 290 1; 301 17; 303 999; 304 198; 
305 29; 306 4; 
