Name: CUMYL-PICA N-pentanoic acid metabolite
Synon: CUMYL-PICA N-(5-carboxypentyl) metabolite
Synon: 5-Fluoro-CUMYL-PICA N-(5-carboxypentyl) metabolite
Synon: 5F-CUMYL-PICA N-(5-carboxypentyl) metabolite
Synon: 5-(3-((2-phenylpropan-2-yl)carbamoyl)-1H-indol-1-yl)pentanoic acid
InChIKey: PAIZLLVUTPSHRQ-UHFFFAOYSA-N
Formula: C23H26N2O3
MW: 378
ExactMass: 378.194344
CASNO: 0
ID: 4688
Comment: Provided by www.caymanchem.com/Forensic.vm / Item#20232 Batch#0506035
Num Peaks: 117
41 27; 42 34; 43 25; 44 14; 45 1; 
46 1; 50 3; 51 6; 52 1; 53 7; 
54 2; 55 8; 56 18; 57 15; 58 42; 
59 1; 62 1; 63 4; 64 1; 65 3; 
66 1; 67 3; 68 5; 69 3; 70 25; 
71 28; 72 158; 73 11; 74 2; 75 11; 
76 6; 77 9; 78 4; 79 2; 80 2; 
81 1; 82 8; 83 2; 84 9; 85 3; 
86 2; 87 1; 88 1; 89 7; 90 1; 
91 2; 92 1; 94 1; 96 2; 97 1; 
98 24; 99 3; 100 6; 101 29; 102 27; 
103 7; 104 2; 110 1; 111 4; 112 6; 
113 6; 114 999; 115 106; 116 12; 117 1; 
125 27; 126 4; 127 22; 128 29; 129 30; 
130 12; 131 2; 136 10; 137 32; 138 11; 
139 13; 140 2; 141 5; 142 2; 143 3; 
144 3; 145 1; 149 4; 150 2; 151 3; 
152 3; 153 1; 154 2; 155 2; 156 1; 
157 1; 158 7; 159 2; 162 2; 163 2; 
164 4; 165 7; 166 2; 167 1; 171 1; 
177 3; 178 6; 179 2; 180 1; 187 1; 
191 4; 192 4; 193 2; 194 3; 207 5; 
208 2; 222 7; 223 1; 224 1; 236 1; 
281 1; 282 1; 
