Name: Phenyl-2-nitropropene
InChIKey: WGSVFWFSJDAYBM-BQYQJAHWSA-N
Synon: P2NP
Synon: .beta.-Methyl-.beta.-nitrostyrene
Synon: NSC 2014
Synon: (2-Nitro-1-propen-1-yl)-benzene
Synon: 1-Phenyl-2-nitropropene
Formula: C9H9NO2
MW: 163
ExactMass: 163.063329
CASNO: 705602
ID: 4691
Comment: Provided by www.caymanchem.com/Forensic.vm / Item#22185 Batch#0507277
Num Peaks: 80
40 5; 41 11; 42 5; 43 8; 46 20; 
49 3; 50 56; 51 98; 52 22; 53 6; 
54 1; 55 5; 58 42; 61 13; 62 49; 
63 131; 64 24; 65 104; 66 103; 67 8; 
68 3; 73 5; 74 43; 75 39; 76 45; 
77 118; 78 54; 79 70; 80 20; 81 28; 
82 3; 84 1; 85 7; 86 19; 87 29; 
88 15; 89 142; 90 34; 91 414; 92 39; 
93 16; 94 36; 95 3; 97 2; 98 3; 
99 1; 101 4; 102 60; 103 47; 104 19; 
105 333; 106 73; 107 22; 108 2; 109 2; 
110 6; 111 1; 113 12; 114 16; 115 999; 
116 298; 117 124; 118 38; 119 4; 120 11; 
121 2; 130 7; 131 8; 132 5; 133 14; 
134 10; 135 43; 136 4; 146 85; 147 11; 
148 2; 162 7; 163 91; 164 10; 165 1; 
