Name: Cyclobutyl fentanyl
Synon: N-(1-Phenethylpiperidin-4-yl)-N-phenylcyclobutanecarboxamide
InChIKey: XHRDMQWXMFOAIX-UHFFFAOYSA-N
Formula: C24H30N2O
MW: 362
ExactMass: 362.235813
CASNO: 0
ID: 4693
Comment: Provided by www.caymanchem.com/Forensic.vm / Item#22389 Batch#0507126
Num Peaks: 170
40 1; 41 37; 42 125; 43 21; 44 48; 
45 3; 50 10; 51 28; 52 12; 53 34; 
54 19; 55 499; 56 43; 57 16; 58 3; 
59 1; 61 1; 62 3; 63 14; 64 8; 
65 60; 66 13; 67 25; 68 34; 69 31; 
70 58; 71 6; 72 1; 73 13; 74 5; 
75 5; 76 8; 77 158; 78 43; 79 65; 
80 15; 81 11; 82 30; 83 88; 84 19; 
85 1; 89 11; 90 9; 91 220; 92 34; 
93 152; 94 44; 95 20; 96 180; 97 21; 
98 9; 101 1; 102 8; 103 58; 104 95; 
105 236; 106 42; 107 3; 108 2; 109 1; 
110 1; 111 1; 112 1; 113 1; 114 1; 
115 10; 116 6; 117 33; 118 62; 119 26; 
120 10; 121 1; 127 2; 128 5; 129 6; 
130 89; 131 62; 132 102; 133 19; 134 12; 
135 6; 136 1; 139 10; 140 1; 141 1; 
142 1; 143 5; 144 18; 145 12; 146 456; 
147 56; 148 10; 154 2; 155 1; 156 6; 
157 5; 158 42; 159 16; 160 31; 161 6; 
162 1; 163 1; 166 1; 167 1; 168 1; 
170 2; 171 1; 172 6; 173 5; 174 2; 
175 24; 176 6; 177 3; 179 1; 181 1; 
182 3; 183 2; 184 16; 185 14; 186 28; 
187 31; 188 47; 189 496; 190 68; 191 7; 
193 2; 194 1; 195 2; 197 1; 198 1; 
200 20; 201 3; 207 21; 208 5; 209 5; 
210 1; 214 1; 228 28; 229 5; 242 3; 
243 18; 244 3; 249 1; 251 2; 253 7; 
254 1; 255 1; 265 1; 267 2; 268 1; 
269 6; 271 999; 272 189; 273 18; 274 1; 
279 3; 281 11; 282 2; 283 1; 311 1; 
315 1; 325 1; 327 2; 328 1; 331 2; 
332 1; 341 2; 343 1; 360 5; 361 1; 
