Name: .delta.-6-Testosterone Enanthate
Synon: (10R,13S,17S)-10,13-Dimethyl-3-oxo-2,3,8,9,10,11,12,13,14,15,16,17-dodecahydro-1H-cyclopenta[a]phenanthren-17-yl heptanoate
InChIKey: MBDSQHSIHDFMSA-IXKNJLPQSA-N
Formula: C26H38O3
MW: 398
ExactMass: 398.282095
CASNO: 0
ID: 4695
Comment: Provided by www.caymanchem.com/Forensic.vm / Item#10010001 Batch#177602
Num Peaks: 253
40 1; 41 194; 42 55; 43 501; 44 29; 
45 10; 50 4; 51 8; 52 6; 53 33; 
54 10; 55 215; 56 38; 57 101; 58 6; 
59 6; 60 51; 61 4; 62 3; 63 4; 
64 2; 65 32; 66 10; 67 87; 68 26; 
69 90; 70 18; 71 12; 72 1; 73 55; 
74 6; 75 5; 76 4; 77 83; 78 35; 
79 124; 80 24; 81 100; 82 12; 83 61; 
84 19; 85 241; 86 19; 87 15; 88 2; 
89 10; 90 3; 91 220; 92 32; 93 92; 
94 32; 95 104; 96 16; 97 27; 98 2; 
99 3; 100 1; 101 8; 102 9; 103 38; 
104 39; 105 133; 106 31; 107 75; 108 26; 
109 61; 110 14; 111 14; 112 6; 113 999; 
114 78; 115 112; 116 43; 117 130; 118 51; 
119 61; 120 17; 121 46; 122 18; 123 20; 
124 38; 125 7; 126 2; 127 26; 128 89; 
129 118; 130 48; 131 172; 132 76; 133 707; 
134 92; 135 39; 136 622; 137 70; 138 10; 
139 4; 140 2; 141 61; 142 44; 143 95; 
144 79; 145 147; 146 56; 147 71; 148 15; 
149 18; 150 7; 151 9; 152 14; 153 27; 
154 21; 155 75; 156 32; 157 60; 158 42; 
159 89; 160 77; 161 109; 162 43; 163 17; 
164 5; 165 23; 166 12; 167 19; 168 12; 
169 42; 170 22; 171 45; 172 52; 173 92; 
174 129; 175 61; 176 15; 177 7; 178 7; 
179 13; 180 5; 181 23; 182 14; 183 48; 
184 18; 185 33; 186 19; 187 16; 188 11; 
189 4; 190 2; 191 9; 192 4; 193 16; 
194 5; 195 25; 196 14; 197 40; 198 24; 
199 19; 200 7; 201 8; 202 3; 203 2; 
205 1; 206 2; 207 66; 208 20; 209 43; 
210 14; 211 38; 212 17; 213 28; 214 12; 
215 8; 216 7; 217 2; 219 1; 220 2; 
221 7; 222 7; 223 9; 224 37; 225 33; 
226 28; 227 22; 228 4; 229 19; 230 6; 
231 1; 233 2; 235 31; 236 7; 237 3; 
238 1; 239 13; 240 21; 241 9; 242 12; 
243 6; 244 1; 249 7; 250 6; 251 20; 
252 4; 253 153; 254 33; 255 7; 256 2; 
257 3; 258 6; 259 1; 263 10; 264 1; 
265 1; 267 13; 268 186; 269 96; 270 20; 
271 53; 272 10; 273 1; 281 22; 282 6; 
283 4; 284 5; 286 733; 287 150; 288 20; 
289 1; 311 1; 315 1; 325 1; 326 1; 
327 6; 328 3; 329 1; 331 5; 332 1; 
333 1; 341 7; 342 2; 343 3; 344 1; 
346 2; 354 12; 355 6; 356 2; 357 1; 
370 2; 380 2; 381 1; 383 1; 398 80; 
399 23; 400 2; 401 1; 
