Name: Norcarfentanil
Synon: 4-[(1-Oxopropyl)phenylamino]-4-piperidinecarboxylic acid, methyl ester
InChIKey: HFNFODVRYCEIQL-UHFFFAOYSA-N
Formula: C16H22N2O3
MW: 290
ExactMass: 290.163042
CASNO: 61085878
ID: 4696
Comment: Provided by www.caymanchem.com/Forensic.vm / Item#19859 Batch#0491164
Num Peaks: 185
40 2; 41 32; 42 147; 43 40; 44 20; 
45 18; 49 2; 50 25; 51 67; 52 26; 
53 89; 54 26; 55 48; 56 140; 57 339; 
58 14; 59 66; 60 2; 61 3; 62 6; 
63 23; 64 29; 65 74; 66 44; 67 25; 
68 22; 69 11; 70 12; 71 4; 72 2; 
73 8; 74 7; 75 8; 76 18; 77 286; 
78 72; 79 22; 80 206; 81 63; 82 796; 
83 89; 84 5; 85 5; 86 2; 87 1; 
88 3; 89 9; 90 12; 91 95; 92 48; 
93 574; 94 98; 95 8; 96 9; 97 6; 
98 6; 99 2; 100 1; 101 2; 102 6; 
103 19; 104 58; 105 31; 106 48; 107 7; 
108 41; 109 57; 110 100; 111 15; 112 14; 
113 69; 114 17; 115 10; 116 11; 117 80; 
118 234; 119 64; 120 28; 121 3; 122 2; 
124 11; 125 3; 126 675; 127 51; 128 13; 
129 10; 130 82; 131 39; 132 109; 133 41; 
134 23; 135 3; 136 2; 137 18; 138 10; 
139 50; 140 91; 141 999; 142 172; 143 32; 
144 52; 145 22; 146 386; 147 54; 148 22; 
149 115; 150 266; 151 29; 152 2; 153 1; 
154 4; 155 2; 156 8; 157 6; 158 63; 
159 16; 160 5; 162 3; 163 1; 164 6; 
165 4; 168 1; 169 1; 170 3; 171 6; 
172 8; 173 49; 174 15; 175 106; 176 17; 
177 11; 178 197; 179 23; 180 2; 182 1; 
185 6; 186 11; 187 2; 188 5; 189 7; 
190 11; 191 2; 192 2; 193 1; 197 2; 
198 1; 199 1; 200 4; 201 2; 202 44; 
203 8; 204 3; 205 15; 206 1; 207 13; 
208 2; 209 1; 213 5; 214 1; 215 1; 
216 2; 217 32; 218 5; 219 1; 221 1; 
229 3; 230 1; 231 77; 232 13; 233 25; 
234 54; 235 8; 253 1; 258 1; 259 13; 
260 2; 261 1; 262 2; 271 1; 272 5; 
281 6; 282 1; 283 1; 290 5; 291 1; 
