Name: Cyclohexyl fentanyl
Synon: N-(1-Phenethylpiperidin-4-yl)-N-phenylcyclohexanecarboxamide
InChIKey: CWLVCTNETVWMMZ-UHFFFAOYSA-N
Formula: C26H34N2O
MW: 390
ExactMass: 390.267115
CASNO: 0
ID: 4697
Comment: Provided by www.caymanchem.com/Forensic.vm / Item#22390 Batch#0507143
Num Peaks: 187
40 4; 41 174; 42 183; 43 43; 44 81; 
45 3; 49 1; 50 11; 51 30; 52 11; 
53 30; 54 31; 55 432; 56 51; 57 25; 
58 5; 59 1; 61 1; 62 3; 63 10; 
64 5; 65 44; 66 11; 67 46; 68 38; 
69 35; 70 65; 71 7; 72 1; 73 12; 
74 3; 75 3; 76 6; 77 134; 78 37; 
79 70; 80 15; 81 32; 82 34; 83 588; 
84 63; 85 4; 87 1; 88 1; 89 9; 
90 7; 91 165; 92 27; 93 64; 94 37; 
95 25; 96 176; 97 26; 98 17; 99 1; 
101 1; 102 5; 103 51; 104 92; 105 272; 
106 41; 107 5; 108 3; 109 3; 110 4; 
111 32; 112 3; 114 1; 115 10; 116 5; 
117 34; 118 67; 119 34; 120 12; 121 3; 
122 1; 127 2; 128 5; 129 6; 130 88; 
131 71; 132 102; 133 20; 134 18; 135 8; 
136 1; 139 16; 140 2; 141 1; 142 1; 
143 5; 144 19; 145 13; 146 464; 147 56; 
148 13; 149 3; 152 1; 153 1; 154 2; 
155 1; 156 7; 157 4; 158 21; 159 15; 
160 39; 161 6; 162 1; 163 1; 165 1; 
167 1; 168 1; 170 2; 171 1; 172 6; 
173 6; 174 2; 175 1; 177 2; 178 1; 
179 1; 181 1; 182 2; 183 1; 184 19; 
185 15; 186 44; 187 41; 188 73; 189 718; 
190 98; 191 10; 192 1; 193 3; 194 2; 
195 2; 196 1; 197 2; 198 1; 200 1; 
201 1; 202 1; 203 7; 204 3; 205 1; 
207 34; 208 7; 209 5; 215 1; 221 1; 
223 1; 231 2; 239 2; 240 1; 249 1; 
251 1; 253 9; 254 2; 255 1; 256 10; 
257 2; 265 1; 267 2; 268 1; 269 1; 
270 2; 271 1; 279 4; 281 13; 282 3; 
283 3; 284 1; 297 4; 299 999; 300 213; 
301 23; 302 1; 327 2; 328 1; 331 2; 
341 2; 342 1; 343 1; 346 1; 355 1; 
388 3; 389 1; 
