Name: MEP-CHMICA
Synon: MMB-CHMICA isomer 1
Synon: Methyl (S)-2-(1-(cyclohexylmethyl)-1H-indole-3-carboxamido)pentanoate
InChIKey: FZTZPXJKGACFKJ-IBGZPJMESA-N
Formula: C22H30N2O3
MW: 370
ExactMass: 370.225643
CASNO: 0
ID: 4701
Comment: Provided by www.caymanchem.com/Forensic.vm / Item#21652 Batch#0506714
Num Peaks: 194
40 1; 41 69; 42 9; 43 26; 44 6; 
45 2; 50 1; 51 3; 52 2; 53 11; 
54 7; 55 181; 56 13; 57 3; 59 40; 
60 2; 61 1; 62 2; 63 3; 65 4; 
66 1; 67 21; 68 4; 69 12; 70 6; 
71 1; 72 4; 73 9; 74 5; 75 5; 
76 5; 77 15; 78 6; 79 7; 80 2; 
81 8; 82 4; 83 32; 84 3; 85 2; 
87 4; 88 10; 89 16; 90 4; 91 5; 
92 1; 93 2; 95 8; 96 2; 97 15; 
98 3; 99 1; 100 1; 101 10; 102 37; 
103 17; 104 3; 113 1; 114 12; 115 38; 
116 50; 117 11; 118 9; 119 2; 126 1; 
127 4; 128 40; 129 127; 130 84; 131 15; 
132 6; 133 2; 135 4; 139 1; 140 1; 
141 2; 142 7; 143 70; 144 341; 145 37; 
146 5; 147 4; 152 1; 153 2; 154 12; 
155 15; 156 24; 157 84; 158 28; 159 4; 
160 3; 161 1; 165 1; 166 1; 167 7; 
168 10; 169 4; 170 6; 171 7; 172 2; 
173 47; 174 24; 175 3; 177 1; 178 1; 
179 1; 180 3; 181 2; 182 5; 183 2; 
184 8; 185 5; 186 1; 191 2; 192 1; 
193 2; 194 2; 195 2; 196 3; 197 3; 
198 3; 199 1; 207 14; 208 4; 209 3; 
210 3; 211 5; 212 17; 213 13; 214 6; 
215 1; 221 1; 227 8; 228 8; 229 1; 
233 1; 236 2; 237 2; 238 31; 240 999; 
241 190; 242 20; 243 2; 245 80; 246 12; 
247 1; 249 1; 253 6; 254 5; 255 11; 
256 141; 257 26; 258 2; 265 1; 266 1; 
267 6; 268 47; 269 11; 270 1; 281 7; 
282 2; 283 1; 287 41; 288 8; 289 1; 
293 1; 294 1; 295 6; 296 27; 297 6; 
309 19; 310 10; 311 6; 312 1; 325 1; 
326 1; 328 125; 329 28; 330 3; 331 1; 
337 2; 338 9; 339 8; 340 1; 341 3; 
342 1; 352 4; 353 12; 354 3; 355 2; 
368 1; 370 108; 371 26; 372 4; 
