Name: MEP-FUBICA
Synon: Methyl (S)-2-(1-(4-fluorobenzyl)-1H-indole-3-carboxamido)pentanoate
Synon: MMB-FUBICA isomer 1
InChIKey: NJKBTNATMCPTGH-IBGZPJMESA-N
Formula: C22H23FN2O3
MW: 382
ExactMass: 382.169271
CASNO: 0
ID: 4708
Comment: Provided by www.caymanchem.com/Forensic.vm / Item#21653 Batch#0502952
Num Peaks: 158
41 18; 42 6; 43 13; 44 7; 45 2; 
50 2; 51 3; 52 1; 53 2; 54 2; 
55 12; 56 4; 57 7; 59 31; 60 1; 
61 1; 62 4; 63 9; 64 2; 65 2; 
68 1; 69 1; 70 4; 72 2; 73 9; 
74 6; 75 6; 76 3; 77 4; 78 1; 
81 3; 82 2; 83 68; 84 5; 85 2; 
86 1; 87 6; 88 11; 89 16; 90 1; 
91 2; 96 2; 97 1; 98 2; 99 1; 
101 6; 102 5; 103 2; 104 1; 105 1; 
107 9; 108 8; 109 999; 110 77; 111 4; 
113 1; 114 16; 115 46; 116 10; 117 2; 
119 1; 126 1; 127 1; 128 7; 129 4; 
130 4; 131 1; 133 3; 135 2; 141 1; 
142 2; 143 99; 144 20; 145 2; 146 2; 
147 1; 156 3; 157 2; 158 2; 163 1; 
165 1; 168 1; 169 2; 170 1; 171 1; 
175 2; 176 2; 177 2; 179 1; 181 1; 
185 2; 191 2; 193 2; 194 3; 195 3; 
196 3; 197 2; 198 1; 202 2; 203 1; 
204 3; 207 23; 208 5; 209 3; 210 1; 
213 1; 214 7; 220 1; 221 5; 222 26; 
223 9; 224 14; 225 11; 226 3; 235 1; 
238 1; 245 1; 250 16; 252 548; 253 108; 
254 12; 255 1; 265 1; 266 2; 267 6; 
268 73; 269 13; 270 1; 273 1; 277 1; 
279 2; 280 29; 281 14; 282 3; 283 2; 
294 1; 307 1; 308 19; 309 4; 321 8; 
322 4; 323 4; 327 1; 329 1; 331 1; 
340 73; 341 16; 342 2; 343 1; 350 3; 
351 4; 355 1; 364 3; 365 5; 366 1; 
382 47; 383 12; 384 1; 
