Name: U-51754
InChIKey: ISJUYFBACBKWBV-HOTGVXAUSA-N
Synon: trans-3,4-Dichloro-N-[2-(dimethylamino)cyclohexyl]-N-methyl-benzeneacetamide
Formula: C17H24Cl2N2O
MW: 342
ExactMass: 342.126568
CASNO: 67197926
ID: 4709
Comment: Provided by www.caymanchem.com/Forensic.vm / Item# 20285 Batch# 0505031
Num Peaks: 148
40 1; 41 22; 42 104; 43 15; 44 42; 
45 9; 46 5; 50 2; 51 2; 52 1; 
53 8; 54 7; 55 22; 56 51; 57 17; 
58 131; 59 5; 62 5; 63 16; 64 1; 
65 3; 66 3; 67 12; 68 33; 69 12; 
70 68; 71 200; 72 17; 73 15; 74 2; 
75 6; 77 9; 78 6; 79 27; 80 8; 
81 29; 82 52; 83 28; 84 999; 85 75; 
86 5; 87 4; 88 3; 89 52; 90 5; 
91 2; 93 2; 94 13; 95 8; 96 27; 
97 38; 98 53; 99 20; 100 3; 101 3; 
102 1; 103 1; 106 1; 107 2; 108 8; 
109 8; 110 92; 111 16; 112 49; 113 6; 
114 1; 115 1; 120 1; 121 1; 122 5; 
123 50; 124 129; 125 588; 126 72; 127 7; 
128 1; 131 1; 133 10; 135 8; 136 1; 
137 3; 138 3; 139 5; 140 3; 141 1; 
143 1; 144 1; 147 1; 149 1; 150 1; 
153 8; 154 2; 155 9; 156 2; 157 1; 
158 2; 159 163; 160 16; 161 104; 162 9; 
163 17; 164 2; 165 1; 167 1; 177 1; 
181 2; 183 4; 184 1; 186 3; 188 1; 
191 1; 192 1; 193 1; 194 1; 195 1; 
197 1; 200 2; 202 1; 207 10; 208 2; 
209 1; 218 2; 230 1; 231 1; 253 3; 
254 1; 255 1; 267 1; 269 1; 281 6; 
282 1; 283 1; 297 1; 298 4; 299 1; 
300 2; 301 1; 325 1; 327 3; 328 1; 
329 2; 331 1; 341 1; 342 7; 343 2; 
344 4; 345 1; 346 1; 
