Name: Cyclofenil
Synon: 4,4'-(Cyclohexylidenemethylene)bis-phenol 1,1'-diacetate
Synon: ICI 48213
Synon: NSC 86464
InChIKey: GVOUFPWUYJWQSK-UHFFFAOYSA-N
Formula: C23H24O4
MW: 364
ExactMass: 364.16746
CASNO: 2624433
ID: 4710
Comment: Provided by www.caymanchem.com/Forensic.vm / Item# 18676 Batch# 0498010
Num Peaks: 228
41 20; 42 32; 43 694; 44 16; 45 2; 
50 2; 51 6; 52 2; 53 10; 54 1; 
55 31; 56 1; 62 2; 63 10; 64 3; 
65 19; 66 5; 67 18; 68 2; 69 3; 
73 6; 74 2; 75 6; 76 7; 77 45; 
78 9; 79 33; 80 3; 81 10; 82 1; 
86 1; 87 3; 88 4; 89 17; 90 4; 
91 44; 92 4; 93 5; 94 8; 95 3; 
96 1; 97 1; 99 1; 101 5; 102 14; 
103 16; 104 2; 105 14; 106 2; 107 234; 
108 19; 109 1; 113 5; 114 7; 115 101; 
116 20; 117 19; 118 12; 119 24; 120 11; 
121 15; 122 1; 125 1; 126 7; 127 40; 
128 56; 129 39; 130 8; 131 90; 132 19; 
133 71; 134 10; 135 5; 138 1; 139 45; 
140 12; 141 54; 142 21; 143 18; 144 51; 
145 82; 146 17; 147 13; 148 1; 149 1; 
150 6; 151 30; 152 91; 153 71; 154 20; 
155 24; 156 7; 157 115; 158 90; 159 33; 
160 19; 161 4; 162 1; 163 14; 164 12; 
165 180; 166 40; 167 28; 168 31; 169 63; 
170 26; 171 28; 172 10; 173 55; 174 13; 
175 2; 176 27; 177 29; 178 60; 179 31; 
180 8; 181 87; 182 29; 183 31; 184 10; 
185 78; 186 167; 187 68; 188 10; 189 37; 
190 23; 191 35; 192 10; 193 18; 194 50; 
195 49; 196 15; 197 101; 198 35; 199 202; 
200 31; 201 15; 202 27; 203 20; 204 5; 
205 19; 206 8; 207 83; 208 25; 209 24; 
210 24; 211 162; 212 84; 213 15; 214 2; 
215 7; 216 3; 217 4; 218 16; 219 30; 
220 17; 221 27; 222 8; 223 149; 224 70; 
225 41; 226 8; 227 2; 228 1; 229 1; 
231 9; 232 4; 233 11; 234 8; 235 17; 
236 18; 237 162; 238 56; 239 12; 240 1; 
241 2; 242 1; 244 1; 245 2; 246 1; 
247 4; 248 1; 249 11; 250 8; 251 45; 
252 11; 253 8; 254 2; 255 1; 261 5; 
262 48; 263 299; 264 65; 265 14; 266 2; 
267 2; 268 1; 269 1; 276 1; 277 4; 
278 20; 279 329; 280 999; 281 212; 282 25; 
283 5; 304 11; 305 40; 306 10; 307 2; 
320 6; 322 628; 323 141; 324 19; 325 2; 
327 3; 328 1; 329 1; 331 1; 341 1; 
343 1; 346 1; 355 2; 362 4; 364 549; 
365 136; 366 20; 367 2; 
