Name: 2,2,3,3-Tetramethyl-Cyclopropyl fentanyl
Synon: 2,2,3,3-tetramethyl-N-(1-phenethylpiperidin-4-yl)-N-phenylcyclopropane-1-carboxamide
InChIKey: BYCDHAVFKDTVAM-UHFFFAOYSA-N
Formula: C27H36N2O
MW: 404
ExactMass: 404.282764
CASNO: 0
ID: 4715
Comment: Provided by www.caymanchem.com/Forensic.vm / Item#22744 Batch#0509882
Num Peaks: 167
40 1; 41 82; 42 80; 43 41; 44 18; 
45 1; 49 1; 50 8; 51 15; 52 8; 
53 21; 54 9; 55 201; 56 14; 57 87; 
58 5; 59 1; 61 2; 62 1; 63 9; 
64 3; 65 36; 66 10; 67 46; 68 29; 
69 97; 70 41; 71 3; 72 1; 73 12; 
74 4; 75 2; 76 6; 77 114; 78 35; 
79 72; 80 15; 81 41; 82 23; 83 86; 
84 24; 85 2; 87 1; 89 7; 90 6; 
91 152; 92 23; 93 29; 94 31; 95 37; 
96 136; 97 92; 98 8; 99 1; 101 1; 
102 5; 103 47; 104 70; 105 221; 106 29; 
107 6; 108 3; 109 12; 110 11; 111 2; 
114 2; 115 8; 116 4; 117 24; 118 38; 
119 25; 120 8; 121 1; 123 1; 124 2; 
125 999; 126 87; 127 7; 128 5; 129 3; 
130 57; 131 46; 132 31; 133 14; 134 28; 
135 8; 136 1; 139 5; 141 1; 142 3; 
143 2; 144 14; 145 9; 146 205; 147 28; 
148 6; 149 86; 153 1; 154 1; 156 4; 
157 4; 158 35; 159 16; 160 23; 161 4; 
165 1; 167 1; 168 1; 170 3; 172 4; 
173 4; 174 1; 175 1; 177 1; 182 4; 
183 2; 184 10; 185 7; 186 38; 187 26; 
188 49; 189 296; 190 45; 191 9; 193 4; 
194 1; 195 1; 197 1; 198 1; 199 1; 
200 4; 201 2; 202 5; 203 1; 207 19; 
208 5; 209 3; 210 1; 215 1; 217 2; 
218 2; 228 1; 229 1; 231 2; 249 1; 
251 1; 253 7; 254 1; 265 1; 267 1; 
271 1; 277 1; 279 7; 281 9; 282 2; 
283 2; 285 1; 311 2; 313 657; 314 142; 
315 10; 327 2; 331 2; 341 2; 402 4; 
403 1; 405 1; 
