Name: meta-Methylfentanyl
InChIKey: MEXMWWZFTYDPKV-UHFFFAOYSA-N
Synon: m-Methylfentanyl
Synon: N-(3-methylphenyl)-N-[1-(2-phenylethyl)-4-piperidinyl]-propanamide
Formula: C23H30N2O
MW: 350
ExactMass: 350.235813
CASNO: 47480477
ID: 4718
Comment: Provided by www.caymanchem.com/Forensic.vm / Item# 22633 Batch#0509883
Num Peaks: 155
41 27; 42 115; 43 15; 44 50; 45 1; 
50 4; 51 11; 52 6; 53 7; 54 9; 
55 24; 56 22; 57 180; 58 8; 59 1; 
61 1; 62 2; 63 11; 64 4; 65 66; 
66 6; 67 21; 68 27; 69 28; 70 51; 
71 4; 73 5; 74 2; 75 2; 76 3; 
77 65; 78 28; 79 63; 80 14; 81 6; 
82 24; 83 5; 84 8; 85 1; 86 1; 
87 1; 88 1; 89 18; 90 13; 91 313; 
92 31; 93 9; 94 17; 95 19; 96 134; 
97 17; 98 6; 99 1; 101 2; 102 6; 
103 48; 104 41; 105 203; 106 35; 107 48; 
108 19; 109 2; 110 1; 111 1; 115 8; 
116 6; 117 31; 118 49; 119 21; 120 22; 
121 2; 127 1; 128 3; 129 5; 130 49; 
131 31; 132 85; 133 23; 134 17; 135 3; 
139 8; 140 1; 141 1; 142 2; 143 7; 
144 54; 145 51; 146 99; 147 15; 148 4; 
149 1; 154 1; 155 1; 156 3; 157 3; 
158 15; 159 13; 160 635; 161 81; 162 9; 
163 9; 164 4; 165 1; 170 2; 171 3; 
172 65; 173 15; 174 7; 175 1; 177 1; 
182 1; 184 11; 185 8; 186 36; 187 10; 
188 17; 189 3; 191 2; 193 1; 198 1; 
199 1; 200 1; 201 12; 202 19; 203 373; 
204 53; 205 4; 207 14; 208 3; 209 2; 
214 1; 216 124; 217 19; 218 1; 230 5; 
241 1; 243 1; 253 3; 254 1; 257 3; 
259 999; 260 174; 261 16; 262 1; 265 1; 
267 1; 281 6; 282 1; 283 1; 293 1; 
327 1; 331 1; 341 1; 348 3; 349 1; 
