Name: NAMIE
Synon: Ethanone Bridged JWH-070
Synon: 1-(1-Methyl-1H-indol-3-yl)-2-(1-naphthalenyl)-ethanone
InChIKey: DJRHIBBPWJWKGK-UHFFFAOYSA-N
Formula: C21H17NO
MW: 299
ExactMass: 299.131014
CASNO: 1638677492
ID: 4719
Comment: Provided by www.caymanchem.com/Forensic.vm / Item#22631 Batch#0508176
Num Peaks: 87
42 2; 50 2; 51 5; 52 2; 62 5; 
63 19; 64 2; 65 4; 73 7; 74 5; 
75 11; 76 8; 77 85; 78 8; 79 2; 
86 2; 87 5; 88 7; 89 27; 90 2; 
91 4; 99 1; 100 1; 101 12; 102 34; 
103 81; 104 9; 113 7; 114 13; 115 103; 
116 9; 117 1; 119 1; 126 3; 127 4; 
128 26; 129 15; 130 74; 131 10; 133 1; 
134 1; 135 2; 137 1; 138 1; 139 40; 
140 9; 141 82; 142 13; 143 7; 144 1; 
147 2; 150 3; 151 1; 152 1; 154 1; 
157 6; 158 999; 159 109; 160 6; 163 1; 
191 1; 193 1; 207 8; 208 2; 209 1; 
224 1; 226 2; 228 1; 239 1; 240 1; 
249 1; 251 1; 252 1; 253 6; 254 5; 
255 2; 266 1; 267 2; 268 2; 269 1; 
270 1; 281 5; 282 5; 283 4; 284 1; 
299 25; 300 5; 
