Name: N-Desmethylflunitrazepam
InChIKey: KNGIGRDYBQPXKQ-UHFFFAOYSA-N
Synon: Norflunitrazepam
Synon: Fonazepam
Synon: 5-(2-fluoro-phenyl)-7-nitro-1,3-dihydrobenzo[e][1,4]diazepin-2-one
Synon: Desmethylflunitrazepam
Synon: Demethylflunitrazepam
Synon: Ro 5-4435
Formula: C15H10FN3O3
MW: 299
ExactMass: 299.07062
CASNO: 2558307
ID: 4721
Comment: Provided by www.caymanchem.com/Forensic.vm / Item# 9002548 Batch# 0505027
Num Peaks: 238
41 13; 42 21; 43 5; 44 4; 45 3; 
46 19; 47 1; 48 1; 49 2; 50 45; 
51 86; 52 56; 53 18; 54 8; 55 4; 
56 6; 57 28; 58 2; 59 5; 61 13; 
62 56; 63 116; 64 34; 65 41; 66 10; 
67 4; 68 17; 69 22; 70 23; 71 2; 
72 15; 73 28; 74 77; 75 196; 76 111; 
77 160; 78 70; 79 18; 80 32; 81 47; 
82 14; 83 39; 84 19; 85 67; 86 40; 
87 39; 88 41; 89 66; 90 30; 91 32; 
92 26; 93 25; 94 62; 95 81; 96 38; 
97 6; 98 51; 99 78; 100 31; 101 29; 
102 136; 103 73; 104 60; 105 36; 106 34; 
107 102; 108 32; 109 106; 110 24; 111 28; 
112 66; 113 1; 114 10; 115 10; 116 15; 
117 28; 118 24; 119 21; 120 67; 121 64; 
122 74; 123 41; 124 15; 125 31; 126 58; 
127 3; 128 11; 129 37; 130 40; 131 52; 
132 43; 133 63; 134 76; 135 51; 136 22; 
137 10; 138 10; 139 16; 140 14; 141 16; 
142 8; 143 11; 144 103; 145 41; 146 36; 
147 20; 148 9; 149 59; 150 62; 151 74; 
152 34; 153 11; 154 6; 155 17; 156 19; 
157 72; 158 49; 159 16; 160 7; 161 11; 
162 11; 163 16; 164 24; 165 14; 166 19; 
167 21; 168 68; 169 111; 170 160; 171 49; 
172 14; 173 5; 174 5; 175 29; 176 96; 
177 95; 178 55; 179 47; 180 16; 181 46; 
182 42; 183 44; 184 49; 185 61; 186 19; 
187 4; 188 4; 189 4; 190 20; 191 22; 
192 18; 193 25; 194 24; 195 101; 196 123; 
197 255; 198 92; 199 16; 200 3; 201 1; 
202 8; 203 49; 204 39; 205 90; 206 32; 
207 102; 208 45; 209 30; 210 27; 211 57; 
212 78; 213 34; 214 3; 215 1; 218 1; 
219 2; 220 7; 221 14; 222 27; 223 368; 
224 724; 225 268; 226 53; 227 13; 228 2; 
232 1; 233 27; 234 140; 235 27; 236 7; 
237 5; 238 9; 239 16; 240 91; 241 47; 
242 13; 243 40; 244 7; 245 1; 249 4; 
250 10; 251 32; 252 432; 253 115; 254 43; 
255 18; 256 3; 257 8; 258 1; 262 1; 
263 1; 264 1; 265 4; 266 3; 267 10; 
268 16; 269 70; 270 628; 271 808; 272 726; 
273 108; 274 11; 275 1; 278 1; 279 9; 
280 299; 281 102; 282 64; 283 27; 284 5; 
285 1; 294 1; 295 2; 298 999; 299 626; 
300 98; 301 10; 302 1; 
