Name: N-Desmethylflunitrazepam-d4
Synon: Norflunitrazepam-d4
InChIKey: KNGIGRDYBQPXKQ-RHQRLBAQSA-N
Formula: C15H6D4FN3O3
MW: 303
ExactMass: 303.095726
CASNO: 1397234193
ID: 4722
Comment: Provided by www.caymanchem.com/Forensic.vm / Item#21936 Batch#0506083
Num Peaks: 255
40 10; 41 22; 42 47; 43 11; 44 15; 
45 4; 46 29; 47 3; 48 1; 49 5; 
50 41; 51 104; 52 94; 53 39; 54 30; 
55 7; 56 5; 57 3; 58 11; 59 33; 
60 3; 61 15; 62 56; 63 135; 64 63; 
65 73; 66 34; 67 10; 68 5; 69 17; 
70 7; 71 29; 72 14; 73 65; 74 59; 
75 113; 76 149; 77 256; 78 226; 79 39; 
80 54; 81 23; 82 23; 83 40; 84 12; 
85 15; 86 69; 87 97; 88 53; 89 53; 
90 69; 91 51; 92 39; 93 36; 94 18; 
95 17; 96 33; 97 70; 98 34; 99 128; 
100 86; 101 77; 102 81; 103 91; 104 129; 
105 42; 106 88; 107 28; 108 27; 109 38; 
110 61; 111 93; 112 59; 113 153; 114 88; 
115 2; 116 17; 117 18; 118 22; 119 32; 
120 29; 121 17; 122 12; 123 28; 124 83; 
125 96; 126 85; 127 40; 128 40; 129 70; 
130 71; 131 27; 132 10; 133 25; 134 37; 
135 43; 136 54; 137 71; 138 85; 139 39; 
140 28; 141 14; 142 13; 143 34; 144 29; 
145 15; 146 23; 147 43; 148 114; 149 65; 
150 45; 151 28; 152 47; 153 65; 154 75; 
155 62; 156 31; 157 23; 158 24; 159 24; 
160 50; 161 76; 162 29; 163 16; 164 3; 
165 14; 166 21; 167 23; 168 19; 169 17; 
170 37; 171 73; 172 110; 173 138; 174 137; 
175 51; 176 20; 177 18; 178 32; 179 71; 
180 85; 181 82; 182 58; 183 66; 184 45; 
185 45; 186 41; 187 59; 188 61; 189 55; 
190 16; 191 15; 192 5; 193 16; 194 15; 
195 21; 196 25; 197 36; 198 80; 199 112; 
200 209; 201 182; 202 76; 203 21; 204 9; 
205 13; 206 32; 207 107; 208 64; 209 114; 
210 42; 211 22; 212 22; 213 22; 214 25; 
215 64; 216 81; 217 33; 218 9; 219 2; 
220 2; 221 1; 222 3; 223 7; 224 9; 
225 34; 226 249; 227 315; 228 746; 229 295; 
230 57; 231 14; 232 2; 235 2; 236 19; 
237 29; 238 181; 239 35; 240 7; 241 3; 
242 12; 243 43; 244 46; 245 31; 246 39; 
247 16; 248 3; 249 3; 250 3; 251 1; 
252 2; 253 31; 254 33; 255 383; 256 128; 
257 48; 258 28; 259 20; 260 2; 261 11; 
262 1; 265 1; 266 1; 267 7; 268 4; 
269 4; 270 5; 271 11; 272 5; 273 95; 
274 749; 275 939; 276 826; 277 119; 278 11; 
279 1; 281 31; 282 15; 283 55; 284 456; 
285 92; 286 29; 287 19; 288 1; 293 2; 
294 1; 295 1; 297 1; 299 3; 300 3; 
301 999; 302 215; 303 489; 304 83; 305 13; 
