Name: Butalbital-d5
InChIKey: UZVHFVZFNXBMQJ-MZTCHHLRSA-N
Formula: C11H11D5N2O3
MW: 229
ExactMass: 229.147476
CASNO: 145243965
ID: 4724
Comment: Provided by www.caymanchem.com/Forensic.vm / Item#15800 Batch#0494828
Num Peaks: 138
41 180; 42 133; 43 129; 44 75; 45 62; 
46 216; 47 11; 48 1; 50 3; 51 9; 
52 16; 53 38; 54 41; 55 44; 56 47; 
57 50; 58 28; 59 9; 60 6; 61 3; 
62 2; 63 3; 64 3; 65 9; 66 13; 
67 24; 68 32; 69 45; 70 87; 71 39; 
72 75; 73 22; 74 11; 75 2; 76 1; 
77 4; 78 10; 79 15; 80 51; 81 26; 
82 34; 83 23; 84 24; 85 21; 86 16; 
87 12; 88 5; 89 5; 91 1; 92 3; 
93 5; 94 13; 95 15; 96 40; 97 34; 
98 93; 99 44; 100 89; 101 58; 102 148; 
103 11; 104 2; 106 4; 107 2; 108 5; 
109 13; 110 36; 111 38; 112 33; 113 15; 
114 12; 115 14; 116 5; 117 7; 118 1; 
120 1; 121 3; 122 17; 123 22; 124 19; 
125 10; 126 10; 127 10; 128 41; 129 138; 
130 18; 131 4; 136 1; 137 1; 138 9; 
139 6; 140 9; 141 102; 142 65; 143 56; 
144 21; 145 7; 146 1; 150 1; 151 3; 
152 3; 153 15; 154 16; 155 78; 156 84; 
157 21; 158 25; 159 3; 164 1; 165 9; 
166 6; 167 34; 168 15; 169 9; 170 10; 
171 86; 172 662; 173 999; 174 107; 175 11; 
176 1; 181 48; 182 29; 183 24; 184 13; 
185 20; 186 170; 187 20; 188 2; 195 2; 
196 2; 197 2; 201 1; 204 3; 212 1; 
213 2; 214 18; 215 2; 
