Name: Cannabichromevarin
Synon: CBCV
InChIKey: AAXZFUQLLRMVOG-UHFFFAOYSA-N
Formula: C19H26O2
MW: 286
ExactMass: 286.19328
CASNO: 41408199
ID: 4727
Comment: Provided by www.caymanchem.com/Forensic.vm / Batch# 21730 Batch# 0502640
Num Peaks: 166
40 5; 41 126; 42 7; 43 31; 44 1; 
50 2; 51 9; 52 5; 53 26; 54 4; 
55 51; 56 3; 57 1; 62 1; 63 6; 
64 2; 65 19; 66 6; 67 36; 68 13; 
69 69; 70 4; 74 1; 75 2; 76 3; 
77 36; 78 12; 79 21; 80 3; 81 9; 
82 5; 83 4; 87 1; 88 1; 89 7; 
90 2; 91 47; 92 6; 93 7; 94 2; 
95 3; 101 1; 102 6; 103 16; 104 4; 
105 16; 106 4; 107 17; 108 4; 109 2; 
114 1; 115 44; 116 13; 117 16; 118 3; 
119 9; 120 2; 121 6; 122 2; 123 3; 
124 1; 126 1; 127 12; 128 22; 129 14; 
130 3; 131 26; 132 6; 133 7; 134 3; 
135 3; 136 3; 137 4; 139 2; 141 8; 
142 3; 143 4; 144 7; 145 29; 146 6; 
147 32; 148 5; 149 4; 150 1; 151 1; 
152 4; 153 4; 154 1; 155 3; 156 1; 
157 10; 158 5; 159 14; 160 20; 161 14; 
162 2; 163 3; 164 1; 165 26; 166 4; 
167 1; 168 1; 169 2; 170 1; 171 6; 
172 3; 173 76; 174 380; 175 59; 176 7; 
177 1; 178 2; 179 2; 181 2; 182 1; 
183 3; 184 1; 185 4; 186 8; 187 66; 
188 14; 189 22; 190 3; 191 2; 193 1; 
195 1; 197 2; 198 1; 199 4; 200 3; 
201 20; 202 22; 203 999; 204 309; 205 35; 
206 3; 207 4; 208 1; 209 1; 211 1; 
213 2; 214 2; 215 11; 216 5; 217 10; 
218 3; 227 1; 228 1; 229 6; 230 3; 
231 2; 241 1; 242 2; 243 21; 244 3; 
255 1; 257 1; 258 1; 269 1; 271 55; 
272 11; 273 1; 281 1; 286 78; 287 15; 
288 2; 
