Name: Taurohyocholate
Synon: Taurohyocholic acid
Synon: N-(3.alpha.,6.alpha.,7.alpha.-Trihydroxy-5.beta.-cholan-24-oyl)-taurine
InChIKey: XSOLDPYUICCHJX-QZWOQUDZSA-N
Formula: C26H45NO7S
MW: 515
ExactMass: 515.291676
CASNO: 32747072
ID: 4728
Comment: Provided by www.caymanchem.com/Forensic.vm / Item#22669 Batch#0509661
Num Peaks: 146
40 3; 41 130; 42 130; 43 153; 44 63; 
45 2; 50 6; 51 18; 52 6; 53 9; 
54 11; 55 40; 56 19; 57 14; 58 3; 
62 2; 63 10; 64 6; 65 46; 66 9; 
67 23; 68 35; 69 106; 70 62; 71 97; 
72 4; 73 5; 74 2; 75 3; 76 6; 
77 141; 78 34; 79 58; 80 12; 81 6; 
82 28; 83 6; 84 13; 85 2; 89 11; 
90 9; 91 208; 92 30; 93 50; 94 30; 
95 20; 96 134; 97 26; 98 13; 99 69; 
100 4; 101 3; 102 5; 103 48; 104 71; 
105 229; 106 37; 107 7; 108 2; 111 1; 
113 1; 114 1; 115 9; 116 5; 117 30; 
118 56; 119 27; 120 13; 121 2; 122 4; 
127 1; 128 6; 129 4; 130 67; 131 53; 
132 90; 133 16; 134 11; 135 2; 137 1; 
138 1; 139 12; 141 1; 142 1; 143 3; 
144 18; 145 12; 146 468; 147 54; 148 12; 
154 2; 156 3; 157 2; 158 22; 159 10; 
160 22; 161 5; 162 1; 163 2; 170 1; 
172 4; 173 4; 174 6; 175 1; 180 1; 
182 1; 184 12; 185 9; 186 28; 187 22; 
188 46; 189 377; 190 54; 191 8; 192 1; 
193 1; 200 1; 207 4; 208 1; 209 1; 
214 1; 217 1; 231 6; 232 1; 244 64; 
245 10; 246 1; 251 1; 253 2; 257 2; 
258 3; 259 3; 279 2; 281 3; 282 2; 
283 1; 285 4; 287 999; 288 186; 289 21; 
290 1; 335 4; 336 1; 341 1; 376 2; 
377 1; 
