Name: 5-MAPDI
InChIKey: MHBKJTHGGWQKSG-UHFFFAOYSA-N
Synon: [1-(2,3-dihydro-1H-inden-5-yl)propan-2-yl](methyl)amine
Synon: Indanylmethylaminopropane
Synon: 1-(2,3 -dihydro-1H-inden-5-yl)-N-methylpropan-2-amine
Synon: IMA
Synon: IMP
Synon: Indanylmethylaminopropane
Synon: N-Methyl-3,4-trimethyleneamphetamine
Synon: N-Methyl-5-indanyl-2-aminopropane
Formula: C13H19N
MW: 189
ExactMass: 189.15175
CASNO: 1310153275
ID: 4734
Comment: ENFSI / NFL Slovenija (RESPONSE project AG JUST/2013/ISEC/DRUGS/AG/6413); confirmed by NMR
Num Peaks: 73
30 28; 32 24; 39 11; 40 4; 41 9; 
42 23; 43 10; 44 5; 50 3; 51 11; 
52 3; 53 6; 54 2; 55 1; 56 50; 
57 15; 58 999; 59 39; 62 2; 63 9; 
64 3; 65 10; 66 1; 70 1; 71 1; 
74 2; 75 3; 76 3; 77 18; 78 6; 
79 3; 87 1; 88 1; 89 6; 90 1; 
91 35; 92 3; 101 1; 102 6; 103 7; 
104 2; 105 2; 113 1; 115 53; 116 25; 
117 20; 118 2; 126 2; 127 12; 128 32; 
129 26; 130 12; 131 31; 132 6; 139 1; 
141 4; 142 2; 143 3; 144 3; 145 1; 
152 1; 153 1; 154 1; 156 1; 157 1; 
158 3; 159 2; 172 4; 173 2; 174 5; 
186 1; 187 1; 188 2; 
