Name: 4-Fluoroethylphenidate
InChIKey: RKXQYWFDJDYSEN-UHFFFAOYSA-N
Synon: 4F-EPH
Synon: 4-Fluoro-EPH
Synon: Ethyl 2-(4-fluorophenyl)-2-(piperidin-2-yl)acetate
Synon: p-Fluoroethylphenidate
Synon: para-Fluoroethylphenidate
Formula: C15H20FNO2
MW: 265
ExactMass: 265.147806
CASNO: 0
ID: 4737
Comment: ENFSI / NFL Slovenija (RESPONSE project AG JUST/2013/ISEC/DRUGS/AG/6413); confirmed by NMR
Num Peaks: 110
30 17; 31 3; 32 1; 37 1; 38 2; 
39 19; 40 3; 41 27; 42 18; 43 8; 
44 3; 45 2; 49 1; 50 5; 51 7; 
52 3; 53 6; 54 21; 55 75; 56 79; 
57 23; 58 1; 59 4; 61 1; 62 5; 
63 13; 64 2; 65 3; 67 9; 68 10; 
69 4; 70 3; 74 3; 75 8; 76 1; 
77 7; 78 1; 79 1; 80 6; 81 9; 
82 34; 83 77; 84 999; 85 67; 86 3; 
87 1; 88 1; 89 8; 90 1; 91 1; 
94 2; 95 7; 96 6; 97 12; 98 1; 
99 1; 100 1; 101 12; 102 1; 103 2; 
105 1; 107 35; 108 38; 109 394; 110 37; 
111 1; 115 11; 116 2; 117 1; 120 6; 
121 5; 122 5; 123 5; 124 1; 125 8; 
127 2; 128 1; 130 1; 133 25; 134 13; 
135 28; 136 24; 137 8; 138 1; 145 1; 
146 6; 147 9; 148 17; 149 5; 150 5; 
151 1; 153 2; 154 6; 159 1; 160 1; 
161 2; 162 6; 163 2; 164 1; 174 1; 
176 1; 182 44; 183 5; 188 1; 190 10; 
191 4; 192 7; 193 1; 263 1; 264 1; 
