Name: 5-Methyl-2-phenylmorpholine
InChIKey: LQHGEOIBMBXJGV-UHFFFAOYSA-N
Synon: Phenmetrazine Analogue
Formula: C11H15NO
MW: 177
ExactMass: 177.115364
CASNO: 0
ID: 4742
Comment: ENFSI / NFL Slovenija (RESPONSE project AG JUST/2013/ISEC/DRUGS/AG/6413); confirmed by NMR
Num Peaks: 80
31 4; 32 1; 37 1; 38 5; 39 45; 
40 11; 41 63; 42 138; 43 29; 44 13; 
50 24; 51 68; 52 23; 53 5; 54 11; 
56 127; 57 11; 58 6; 60 1; 61 1; 
62 8; 63 27; 64 8; 65 22; 66 3; 
67 1; 68 4; 69 12; 70 68; 71 117; 
72 8; 74 11; 75 8; 77 167; 78 105; 
79 42; 80 3; 84 1; 86 1; 87 1; 
89 33; 90 16; 91 54; 92 6; 93 1; 
99 5; 101 1; 102 19; 103 92; 104 999; 
105 203; 106 18; 107 14; 108 1; 115 4; 
116 2; 117 9; 118 8; 119 8; 120 2; 
121 8; 127 1; 128 3; 129 3; 130 10; 
131 3; 132 2; 133 1; 134 5; 143 1; 
144 4; 145 2; 147 345; 148 42; 149 2; 
162 7; 163 1; 175 2; 176 2; 177 68; 
