Name: 5-Methylphenmetrazine
InChIKey: YKCSYIYQRSVLAK-UHFFFAOYSA-N
Synon: PDM-35
Synon: 2-Phenyl-3,5-dimethylmorpholine
Formula: C12H17NO
MW: 191
ExactMass: 191.131014
CASNO: 0
ID: 4743
Comment: ENFSI / NFL Slovenija (RESPONSE project AG JUST/2013/ISEC/DRUGS/AG/6413); confirmed by NMR
Num Peaks: 96
30 14; 31 2; 32 1; 37 1; 38 5; 
39 64; 40 15; 41 99; 42 355; 43 172; 
44 436; 45 12; 49 1; 50 22; 51 77; 
52 22; 53 9; 54 13; 55 6; 56 221; 
57 113; 58 10; 61 1; 62 9; 63 36; 
64 11; 65 37; 67 5; 68 31; 69 11; 
70 999; 71 55; 72 4; 73 2; 74 8; 
75 8; 76 13; 77 193; 78 51; 79 49; 
80 6; 82 6; 83 30; 84 61; 85 757; 
86 48; 87 3; 88 2; 89 56; 90 27; 
91 136; 92 14; 93 1; 96 5; 101 1; 
102 14; 103 27; 104 11; 105 142; 106 22; 
107 20; 108 2; 113 1; 114 2; 115 101; 
116 24; 117 203; 118 150; 119 18; 120 2; 
121 1; 127 1; 128 4; 129 2; 130 9; 
131 5; 132 5; 133 3; 134 1; 143 2; 
144 7; 145 1; 146 2; 147 1; 148 3; 
158 2; 159 1; 160 1; 161 6; 162 1; 
176 2; 189 1; 190 5; 191 103; 192 14; 
193 1; 
