Name: Phenmetetrazine
InChIKey: ZOMTUQAEMGCZPK-UHFFFAOYSA-N
Synon: 4-Ethyl-3-methyl-2-phenylmorpholine
Synon: 4-Ethylphenmetrazine
Synon: 4-EPM
Formula: C13H19NO
MW: 205
ExactMass: 205.146665
CASNO: 0
ID: 4744
Comment: ENFSI / NFL Slovenija (RESPONSE project AG JUST/2013/ISEC/DRUGS/AG/6413); confirmed by NMR
Num Peaks: 74
30 14; 32 7; 38 3; 39 38; 40 8; 
41 45; 42 148; 43 24; 44 18; 45 3; 
50 18; 51 64; 52 21; 53 8; 54 41; 
55 31; 56 999; 57 44; 58 10; 62 7; 
63 27; 64 6; 65 28; 66 3; 68 17; 
69 24; 70 312; 71 802; 72 45; 73 3; 
74 6; 75 6; 76 12; 77 154; 78 42; 
79 22; 84 131; 85 11; 86 5; 87 5; 
89 31; 90 13; 91 116; 92 12; 97 4; 
98 11; 99 645; 100 54; 101 4; 102 9; 
103 26; 104 12; 105 115; 106 24; 114 13; 
115 88; 116 23; 117 155; 118 101; 119 12; 
130 10; 131 5; 133 3; 144 5; 160 4; 
174 3; 190 12; 191 3; 203 9; 204 4; 
205 48; 206 9; 207 12; 208 4; 
