Name: 3-Methylphenmetrazine
InChIKey: QEDQZYNGDXULGO-UHFFFAOYSA-N
Synon: 3-Methyl-2-(3-methylphenyl)morpholine
Synon: 3-MPM
Synon: 3-MPH
Synon: 3-Methyl-2-(m-tolyl)morpholin
Formula: C12H17NO
MW: 191
ExactMass: 191.131014
CASNO: 0
ID: 4745
Comment: ENFSI / NFL Slovenija (RESPONSE project AG JUST/2013/ISEC/DRUGS/AG/6413); confirmed by NMR
Num Peaks: 59
32 13; 36 5; 38 7; 39 50; 40 10; 
41 34; 42 464; 43 290; 44 52; 50 9; 
51 31; 52 10; 53 12; 54 24; 55 9; 
56 441; 57 22; 62 10; 63 42; 64 14; 
65 80; 66 6; 68 10; 69 45; 70 72; 
71 999; 72 64; 75 6; 76 7; 77 57; 
78 27; 79 19; 84 5; 89 26; 90 11; 
91 199; 92 27; 93 12; 96 5; 102 10; 
103 25; 104 10; 105 35; 115 57; 116 24; 
117 83; 118 18; 119 103; 120 20; 127 5; 
128 11; 129 9; 130 10; 131 15; 132 24; 
133 6; 144 7; 191 55; 192 7; 
