Name: 4-Bromomethamphetamine
InChIKey: RHHFGACRACGCQS-UHFFFAOYSA-N
Synon: 1-(4-Bromophenyl)-n-methylpropan-2-amine
Synon: p-Bromomethamphetamine
Synon: para-Bromomethamphetamine
Formula: C10H14BrN
MW: 227
ExactMass: 227.030962
CASNO: 4302856
ID: 4748
Comment: ENFSI / NFL Slovenija (RESPONSE project AG JUST/2013/ISEC/DRUGS/AG/6413); confirmed by NMR
Num Peaks: 78
32 2; 38 4; 39 18; 40 3; 41 12; 
42 37; 43 15; 44 3; 50 12; 51 14; 
52 3; 53 1; 54 3; 56 55; 58 999; 
59 37; 62 10; 63 30; 64 11; 65 12; 
67 8; 70 2; 73 1; 74 6; 75 8; 
76 6; 77 11; 78 4; 79 2; 80 2; 
81 1; 82 1; 85 1; 86 2; 87 3; 
89 56; 90 56; 91 25; 92 2; 101 1; 
102 6; 103 5; 104 4; 105 1; 106 1; 
107 1; 115 21; 116 10; 117 18; 118 8; 
119 2; 130 5; 131 2; 132 6; 133 10; 
134 1; 143 1; 144 1; 145 1; 146 1; 
147 1; 169 28; 170 2; 171 27; 172 2; 
182 1; 184 1; 196 1; 197 1; 198 1; 
199 1; 210 1; 211 1; 212 7; 213 2; 
214 6; 226 2; 228 2; 
