Name: 7-MeO-DiPT
InChIKey: CYDOUMFFIKOFBJ-UHFFFAOYSA-N
Synon: [2-(7-methoxy-1H-indol-3-yl)ethyl]bis(propan-2-yl)amine
Synon: 7-Methoxy-N,N-Diisopropyltryptamine
Synon: N-isopropyl-N-(2-(7-methoxy-1H-indol-3-yl)ethyl)propan-2-amine
Formula: C17H26N2O
MW: 274
ExactMass: 274.204514
CASNO: 0
ID: 4753
Comment: ENFSI / NFL Slovenija (RESPONSE project AG JUST/2013/ISEC/DRUGS/AG/6413); confirmed by NMR
Num Peaks: 87
50 1; 51 5; 52 2; 53 1; 54 3; 
55 4; 56 47; 57 6; 58 7; 62 1; 
63 5; 64 2; 65 2; 68 2; 70 23; 
71 8; 72 236; 73 12; 74 1; 75 3; 
76 4; 77 11; 78 3; 82 1; 84 7; 
85 1; 86 6; 87 3; 88 1; 89 14; 
90 13; 91 3; 92 1; 98 6; 99 1; 
100 5; 101 5; 102 7; 103 8; 104 5; 
105 1; 109 3; 112 7; 113 5; 114 999; 
115 95; 116 9; 117 28; 118 6; 127 1; 
128 6; 129 6; 130 29; 131 9; 132 2; 
133 1; 140 1; 141 1; 142 4; 143 6; 
144 4; 145 50; 146 9; 147 3; 155 1; 
156 1; 158 9; 159 13; 160 72; 161 13; 
162 2; 171 1; 172 2; 173 8; 174 33; 
175 4; 185 1; 187 1; 188 2; 189 1; 
199 1; 207 4; 208 1; 229 1; 243 1; 
257 1; 272 1; 
