Name: 4-AcO-MET
InChIKey: OMDKHOOGGJRLLX-UHFFFAOYSA-N
Synon: 3-(2-Ethyl(methyl)aminoethyl)-1H-indol-4-yl acetate
Synon: 4-Acetoxy-N-ethyl-N-methyl-tryptamine
Synon: 4-Acetoxy-MET
Synon: Metacetin
Formula: C15H20N2O2
MW: 260
ExactMass: 260.152477
CASNO: 0
ID: 4754
Comment: ENFSI / NFL Slovenija (RESPONSE project AG JUST/2013/ISEC/DRUGS/AG/6413); confirmed by NMR
Num Peaks: 78
51 5; 52 2; 53 1; 54 1; 55 1; 
56 7; 57 3; 58 4; 62 1; 63 7; 
64 2; 65 5; 70 9; 72 999; 73 51; 
74 2; 75 2; 76 3; 77 10; 78 4; 
79 1; 87 1; 88 1; 89 11; 90 8; 
91 8; 92 1; 101 2; 102 6; 103 6; 
104 4; 105 2; 113 2; 114 2; 115 12; 
116 5; 117 16; 118 10; 119 1; 128 3; 
129 2; 130 19; 131 7; 132 2; 133 2; 
140 2; 141 1; 142 2; 143 1; 144 2; 
145 5; 146 36; 147 6; 155 1; 156 1; 
157 2; 158 5; 159 16; 160 23; 161 3; 
170 1; 171 1; 172 1; 173 1; 185 2; 
186 1; 187 1; 188 4; 199 2; 201 5; 
202 3; 207 2; 215 1; 216 1; 217 1; 
258 2; 260 7; 261 1; 
