Name: 25T2-NBOMe-TFA
InChIKey: RLNKXBWZAAVMHV-UHFFFAOYSA-N
Synon: 25T2-NB2OMe-TFA
Synon: 2C-T-2-NB2OMe-TFA
Synon: 2C-T-2-NBOMe-TFA
Formula: C22H26F3NO4S
MW: 457
ExactMass: 457.153463
CASNO: 0
ID: 4757
Comment: ENFSI / NFL Slovenija (RESPONSE project AG JUST/2013/ISEC/DRUGS/AG/6413); TFA derivative; confirmed by NMR
Num Peaks: 179
51 17; 52 9; 53 11; 54 1; 55 5; 
56 6; 57 3; 58 2; 59 27; 60 1; 
61 3; 62 1; 63 10; 64 5; 65 70; 
66 10; 67 9; 68 1; 69 24; 70 2; 
71 5; 72 1; 73 10; 74 1; 75 10; 
76 5; 77 60; 78 52; 79 33; 80 4; 
81 4; 82 3; 83 3; 84 2; 85 14; 
86 1; 87 2; 89 17; 90 14; 91 529; 
92 52; 93 44; 94 8; 95 8; 96 12; 
97 16; 98 2; 99 2; 101 1; 102 3; 
103 7; 104 10; 105 26; 106 11; 107 65; 
108 17; 109 29; 110 21; 111 11; 112 2; 
113 2; 115 4; 116 2; 117 6; 118 7; 
119 18; 120 14; 121 389; 122 63; 123 23; 
124 9; 125 13; 126 5; 127 2; 128 1; 
130 1; 131 3; 132 14; 133 19; 134 24; 
135 25; 136 12; 137 25; 138 30; 139 10; 
140 14; 141 2; 142 1; 145 2; 146 2; 
147 11; 148 30; 149 26; 150 16; 151 29; 
152 26; 153 91; 154 14; 155 7; 156 2; 
157 1; 158 1; 159 1; 160 1; 161 4; 
162 6; 163 6; 164 15; 165 13; 166 12; 
167 28; 168 6; 169 3; 173 1; 175 5; 
176 5; 177 4; 178 2; 179 5; 180 11; 
181 106; 182 20; 183 17; 184 2; 185 1; 
186 1; 190 1; 191 3; 192 1; 193 4; 
194 9; 195 17; 196 10; 197 5; 198 2; 
206 1; 207 24; 208 7; 209 48; 210 14; 
211 999; 212 135; 213 58; 214 7; 215 1; 
216 1; 220 1; 221 1; 222 2; 223 2; 
224 800; 225 127; 226 47; 227 5; 228 1; 
232 3; 233 1; 239 1; 251 1; 252 1; 
267 1; 275 2; 279 1; 281 8; 282 2; 
283 1; 287 1; 305 1; 327 1; 329 1; 
341 2; 342 1; 355 1; 397 1; 429 1; 
457 193; 458 48; 459 15; 460 3; 
