Name: 25T4-NBOMe-TFA
InChIKey: MSRSYSDCGUOJEJ-UHFFFAOYSA-N
Synon: 25T4-NB2OMe-TFA
Synon: 2C-T-4-NB2OMe-TFA
Synon: 2C-T-4-NBOMe-TFA
Formula: C23H28F3NO4S
MW: 471
ExactMass: 471.169113
CASNO: 0
ID: 4760
Comment: ENFSI / NFL Slovenija (RESPONSE project AG JUST/2013/ISEC/DRUGS/AG/6413); TFA derivative; confirmed by NMR
Num Peaks: 192
51 22; 52 12; 53 17; 54 1; 55 6; 
56 8; 57 5; 58 3; 59 19; 61 4; 
62 2; 63 14; 64 8; 65 109; 66 15; 
67 10; 68 2; 69 30; 70 4; 71 10; 
72 1; 73 28; 74 4; 75 14; 76 7; 
77 91; 78 79; 79 50; 80 6; 81 6; 
82 3; 83 6; 84 4; 85 23; 86 2; 
87 4; 89 24; 90 23; 91 928; 92 87; 
93 82; 94 14; 95 10; 96 21; 97 26; 
98 2; 99 4; 101 1; 102 6; 103 11; 
104 14; 105 32; 106 17; 107 94; 108 26; 
109 40; 110 43; 111 15; 112 4; 113 2; 
115 5; 116 4; 117 8; 118 10; 119 22; 
120 17; 121 784; 122 119; 123 37; 124 10; 
125 17; 126 5; 127 3; 128 1; 130 2; 
131 3; 132 8; 133 20; 134 34; 135 29; 
136 14; 137 20; 138 67; 139 19; 140 21; 
141 4; 142 4; 145 2; 146 3; 147 16; 
148 31; 149 37; 150 17; 151 26; 152 18; 
153 214; 154 25; 155 18; 156 3; 157 3; 
158 3; 160 1; 161 4; 162 6; 163 8; 
164 25; 165 15; 166 11; 167 29; 168 8; 
169 8; 170 1; 171 1; 175 1; 176 2; 
177 6; 178 3; 179 8; 180 12; 181 110; 
182 34; 183 674; 184 75; 185 36; 186 4; 
189 1; 190 2; 191 9; 192 3; 193 8; 
194 11; 195 28; 196 255; 197 58; 198 18; 
199 4; 203 2; 204 2; 205 2; 206 2; 
207 66; 208 16; 209 10; 210 3; 211 3; 
221 2; 222 1; 223 17; 224 6; 225 999; 
226 142; 227 59; 228 7; 232 5; 236 3; 
237 2; 238 923; 239 155; 240 58; 241 7; 
242 1; 246 1; 251 1; 255 1; 259 1; 
260 2; 265 2; 267 2; 268 1; 275 4; 
279 5; 281 22; 282 6; 283 4; 287 2; 
288 1; 289 1; 307 2; 308 1; 316 1; 
319 1; 325 2; 327 2; 341 7; 342 3; 
343 3; 355 2; 429 4; 471 267; 472 69; 
473 23; 474 4; 
