Name: Methylnaphthidate-TFA
InChIKey: AYORSOIJKRRTKI-ZYMOGRSISA-N
Synon: HDMP-28-TFA
Formula: C20H20F3NO3
MW: 379
ExactMass: 379.139528
CASNO: 0
ID: 4761
Comment: ENFSI / NFL Slovenija (RESPONSE project AG JUST/2013/ISEC/DRUGS/AG/6413); confirmed by NMR; TFA derivative
Num Peaks: 145
50 1; 51 3; 53 4; 54 7; 55 81; 
56 8; 57 7; 59 6; 62 1; 63 5; 
64 1; 65 10; 66 2; 67 105; 68 10; 
69 42; 70 2; 71 1; 74 1; 75 3; 
76 3; 77 6; 78 6; 79 1; 80 3; 
81 2; 82 19; 83 16; 84 6; 85 6; 
86 1; 87 2; 88 2; 89 7; 90 2; 
91 2; 92 1; 93 1; 94 1; 95 1; 
96 13; 97 6; 98 4; 99 1; 101 2; 
102 3; 103 1; 104 2; 105 1; 106 1; 
110 21; 111 2; 112 1; 113 4; 114 9; 
115 26; 116 3; 122 1; 123 1; 124 1; 
125 2; 126 65; 127 24; 128 31; 129 9; 
130 1; 132 4; 135 1; 137 1; 138 5; 
139 62; 140 55; 141 55; 142 16; 143 2; 
150 3; 151 9; 152 69; 153 18; 154 7; 
155 21; 156 14; 157 4; 160 1; 161 2; 
162 3; 163 4; 164 8; 165 50; 166 25; 
167 24; 168 45; 169 6; 170 1; 171 33; 
172 4; 176 2; 177 2; 178 21; 180 999; 
181 117; 182 7; 183 1; 184 1; 185 4; 
189 2; 190 2; 191 3; 192 4; 193 4; 
194 3; 195 3; 199 9; 200 219; 201 30; 
202 3; 203 1; 204 1; 205 4; 206 2; 
207 4; 208 2; 220 2; 221 2; 222 9; 
223 8; 224 1; 234 1; 248 1; 250 6; 
251 3; 277 1; 281 1; 294 4; 295 1; 
310 1; 318 1; 319 1; 320 17; 321 3; 
347 20; 348 7; 349 1; 379 16; 380 3; 
