Name: Metizolam
InChIKey: NQSSWDKQLVBUQN-UHFFFAOYSA-N
Synon: 7-(2-Chlorophenyl)-4-ethyl-3-thia-1,8,11,12-tetraazatricyclo[8.3.0.02,6]trideca-2(6),4,7, 10,12-pentaene
Synon: Desmethyletizolam
Synon: 4-(2-Chlorophenyl)-2-ethyl-6H-thieno[3,2-f][1,2,4]triazolo[4,3-a] [1,4]diazepine
Formula: C16H13ClN4S
MW: 328
ExactMass: 328.054945
CASNO: 40054680
ID: 4765
Comment: ENFSI / NFL Slovenija (RESPONSE project AG JUST/2013/ISEC/DRUGS/AG/6413); confirmed by NMR
Num Peaks: 246
51 57; 52 26; 53 39; 54 8; 55 6; 
57 5; 58 21; 59 22; 60 6; 61 10; 
62 24; 63 66; 64 32; 65 50; 66 23; 
67 11; 69 62; 70 34; 71 44; 72 17; 
73 85; 74 33; 75 107; 76 66; 77 78; 
78 26; 79 20; 80 12; 81 13; 82 21; 
83 22; 84 20; 85 54; 86 20; 87 33; 
88 23; 89 69; 90 35; 91 29; 92 21; 
93 23; 94 37; 95 43; 96 43; 97 48; 
98 30; 99 43; 100 19; 101 26; 102 97; 
103 36; 104 21; 105 27; 106 21; 107 12; 
108 23; 109 42; 110 35; 111 68; 112 65; 
113 59; 114 35; 115 23; 116 25; 117 15; 
118 22; 119 21; 120 11; 121 50; 122 85; 
123 32; 124 27; 125 106; 126 77; 127 44; 
128 20; 129 13; 130 9; 131 11; 132 10; 
133 25; 134 13; 135 38; 136 66; 137 213; 
138 108; 139 142; 140 63; 141 18; 142 9; 
143 41; 144 24; 145 5; 146 13; 147 28; 
148 47; 149 52; 150 32; 151 44; 152 86; 
153 58; 154 19; 155 12; 156 8; 157 11; 
158 10; 159 6; 160 8; 161 12; 162 46; 
163 55; 164 64; 165 52; 166 35; 167 22; 
168 9; 169 7; 170 12; 171 16; 172 9; 
173 17; 174 29; 175 14; 176 48; 177 37; 
178 29; 179 41; 180 21; 181 14; 182 10; 
183 17; 184 16; 185 10; 186 7; 187 5; 
188 9; 189 12; 190 24; 191 38; 192 30; 
193 22; 194 12; 195 11; 196 43; 197 26; 
198 29; 199 16; 200 9; 201 9; 202 9; 
203 12; 204 13; 205 34; 206 21; 207 121; 
208 34; 209 59; 210 37; 211 36; 212 14; 
213 9; 214 14; 215 6; 216 6; 217 27; 
218 10; 219 10; 220 7; 221 11; 222 30; 
223 100; 224 211; 225 55; 226 20; 227 7; 
228 7; 231 10; 232 68; 233 21; 234 28; 
235 10; 236 16; 237 32; 238 77; 239 91; 
240 23; 241 18; 242 5; 243 8; 244 19; 
245 98; 246 25; 247 41; 248 20; 249 29; 
250 69; 251 66; 252 18; 253 9; 257 9; 
258 49; 259 76; 260 34; 261 35; 262 10; 
263 8; 264 20; 265 74; 266 106; 267 27; 
268 10; 271 12; 272 36; 273 116; 274 51; 
275 47; 276 17; 277 13; 278 12; 281 37; 
282 10; 284 8; 285 30; 286 55; 287 25; 
288 25; 292 11; 293 188; 294 38; 295 18; 
296 5; 299 500; 300 107; 301 217; 302 45; 
303 15; 313 93; 314 17; 315 42; 316 7; 
327 141; 328 999; 329 261; 330 375; 331 70; 
332 20; 
