Name: 1-Pentylindole
InChIKey: QWLCOOAYMQWDPR-UHFFFAOYSA-N
Synon: 1-Pentyl-1H-indole
Synon: 1H-indole, 1-pentyl-
Formula: C13H17N
MW: 187
ExactMass: 187.1361
CASNO: 59529214
ID: 4768
Comment: ENFSI / NFL Slovenija (RESPONSE project AG JUST/2013/ISEC/DRUGS/AG/6413); confirmed by NMR
Num Peaks: 68
38 1; 39 16; 40 2; 41 19; 42 1; 
43 5; 50 5; 51 12; 52 3; 53 2; 
55 2; 62 6; 63 21; 64 5; 65 5; 
69 1; 74 3; 75 8; 76 8; 77 72; 
78 7; 79 1; 86 1; 87 2; 88 4; 
89 57; 90 32; 91 9; 101 8; 102 28; 
103 69; 104 11; 114 3; 115 15; 116 31; 
117 70; 118 12; 119 1; 127 3; 128 34; 
129 25; 130 999; 131 196; 132 31; 133 2; 
140 1; 141 1; 142 6; 143 12; 144 21; 
145 8; 154 5; 155 1; 156 11; 157 5; 
158 33; 159 5; 167 1; 168 1; 170 2; 
171 1; 172 23; 173 3; 185 1; 186 58; 
187 355; 188 49; 189 3; 
