Name: Meclonazepam
InChIKey: LMUVYJCAFWGNSY-UHFFFAOYSA-N
Synon: 5-(2-Chlorophenyl)-3-methyl-7-nitro-1,3-dihydro-1,4-benzodiazepin-2-one
Synon: 3-Methylclonazepam
Formula: C16H12ClN3O3
MW: 329
ExactMass: 329.056719
CASNO: 0
ID: 4770
Comment: ENFSI / NFL Slovenija (RESPONSE project AG JUST/2013/ISEC/DRUGS/AG/6413); confirmed by NMR
Num Peaks: 240
50 69; 51 127; 52 78; 53 28; 54 17; 
55 46; 56 11; 59 4; 61 18; 62 76; 
63 151; 64 48; 65 62; 66 12; 67 11; 
68 11; 70 15; 71 7; 73 62; 74 95; 
75 291; 76 166; 77 118; 78 53; 79 23; 
80 31; 81 36; 82 38; 84 29; 85 17; 
86 40; 87 68; 88 84; 89 150; 90 77; 
91 78; 92 21; 93 18; 94 10; 96 52; 
97 29; 98 36; 99 68; 100 54; 101 75; 
102 275; 103 106; 104 32; 105 25; 106 12; 
107 12; 110 96; 111 62; 112 25; 113 70; 
114 37; 115 43; 116 51; 117 98; 118 35; 
119 24; 120 22; 121 14; 122 16; 123 38; 
124 38; 125 75; 126 71; 127 55; 128 39; 
129 13; 130 11; 131 18; 132 14; 133 24; 
134 25; 135 16; 136 33; 137 84; 138 152; 
139 105; 140 84; 141 25; 142 15; 143 21; 
144 45; 145 19; 146 7; 147 27; 148 13; 
149 82; 150 156; 151 236; 152 118; 153 35; 
154 12; 155 5; 156 9; 159 5; 160 28; 
161 24; 162 35; 163 73; 164 99; 165 57; 
166 76; 167 48; 168 7; 171 5; 173 18; 
174 17; 175 49; 176 120; 177 282; 178 174; 
179 112; 180 25; 181 8; 185 6; 186 28; 
187 10; 188 22; 189 11; 190 43; 191 69; 
192 60; 193 66; 194 29; 195 23; 197 5; 
198 9; 199 12; 200 18; 201 21; 202 21; 
203 55; 204 66; 205 173; 206 72; 207 200; 
208 46; 209 25; 210 6; 211 13; 212 25; 
213 86; 214 26; 215 31; 216 16; 217 24; 
218 45; 219 53; 220 54; 221 68; 222 19; 
223 7; 224 7; 225 20; 226 7; 227 8; 
228 23; 229 22; 230 13; 231 8; 232 6; 
233 27; 234 16; 235 13; 236 24; 237 14; 
238 13; 239 208; 240 654; 241 193; 242 236; 
243 56; 244 10; 246 7; 247 31; 248 313; 
249 76; 250 14; 251 10; 252 65; 253 103; 
254 77; 255 33; 256 96; 257 52; 258 50; 
259 36; 260 7; 261 5; 263 4; 264 26; 
265 11; 266 13; 267 10; 268 25; 269 11; 
270 37; 271 19; 272 16; 273 6; 274 4; 
276 8; 279 47; 280 11; 281 57; 282 74; 
283 28; 284 25; 285 14; 286 634; 287 183; 
288 838; 289 154; 290 217; 291 32; 292 5; 
293 11; 294 999; 295 183; 296 25; 297 4; 
298 9; 299 41; 300 30; 301 18; 302 17; 
311 5; 312 6; 313 20; 314 18; 315 7; 
316 6; 327 5; 328 310; 329 87; 330 115; 
