Name: 3-MeO-PCMMo
InChIKey: KVDDTOKOCUZIFC-UHFFFAOYSA-N
Synon: 4-((1-(3-Methoxyphenyl)cyclohexyl)methyl)morpholine
Formula: C18H27NO2
MW: 289
ExactMass: 289.20418
CASNO: 0
ID: 4771
Comment: ENFSI / NFL Slovenija (RESPONSE project AG JUST/2013/ISEC/DRUGS/AG/6413); confirmed by NMR
Num Peaks: 81
51 3; 52 1; 53 5; 54 3; 55 9; 
56 61; 57 4; 58 1; 63 3; 64 2; 
65 7; 66 1; 67 5; 68 2; 69 1; 
70 20; 71 5; 72 8; 75 1; 76 1; 
77 15; 78 9; 79 9; 80 2; 81 11; 
82 1; 86 4; 89 5; 90 4; 91 26; 
92 4; 93 1; 94 1; 95 1; 96 1; 
98 25; 99 3; 100 999; 101 67; 102 8; 
103 7; 104 3; 105 3; 106 1; 107 2; 
108 3; 109 1; 115 15; 116 4; 117 6; 
118 3; 119 1; 120 1; 121 45; 122 5; 
127 3; 128 7; 129 8; 130 3; 131 5; 
132 2; 133 1; 134 4; 135 2; 141 2; 
142 1; 143 1; 144 3; 145 4; 146 2; 
147 3; 148 1; 157 1; 158 2; 159 6; 
160 3; 161 1; 173 2; 174 1; 188 3; 
189 1; 
