Name: 3,4-Trimethylenepentedrone
InChIKey: ZCTUUSNQUQURDL-UHFFFAOYSA-N
Synon: 1-(2,3-dihydro-1H-inden-5-yl)-2-(methylamino)pentan-1-one
Synon: 3',4'-trimethylene-.alpha.-methylamino-valerophenone
Synon: Indanylpentedrone
Formula: C15H21NO
MW: 231
ExactMass: 231.162314
CASNO: 0
ID: 4772
Comment: ENFSI / NFL Slovenija (I-SEE project JUST/2013/ISEC/DRUGS/AG/6426); confirmed by NMR
Num Peaks: 76
51 6; 52 2; 53 3; 54 2; 55 17; 
56 23; 57 35; 58 19; 62 2; 63 12; 
64 2; 65 11; 66 1; 68 4; 69 1; 
70 18; 71 4; 74 1; 75 2; 76 2; 
77 6; 78 2; 82 1; 84 25; 85 4; 
86 999; 87 58; 88 3; 89 13; 90 3; 
91 48; 92 3; 101 1; 102 7; 103 2; 
113 2; 114 2; 115 121; 116 31; 117 36; 
118 5; 127 2; 128 6; 129 4; 130 1; 
131 6; 132 1; 141 2; 142 1; 143 3; 
144 2; 145 43; 146 6; 152 1; 153 1; 
154 1; 155 1; 156 1; 157 2; 158 3; 
160 18; 161 2; 170 2; 171 1; 172 2; 
173 2; 184 4; 185 1; 186 3; 187 1; 
188 11; 189 2; 200 1; 202 1; 213 1; 
215 1; 
