Name: 4-Methyl-PV8
InChIKey: ARMHZEVLKNFPAJ-UHFFFAOYSA-N
Synon: 4-Methyl-PV8
Synon: 1-(4-Methylphenyl)-2-(pyrrolidin-1-yl)heptan-1-one
Synon: p-Methyl-PV8
Synon: para-Methyl-PV8
Synon: PV8 4-methyl analog
Formula: C18H27NO
MW: 273
ExactMass: 273.209265
CASNO: 0
ID: 4773
Comment: ENFSI / NFL Slovenija (RESPONSE project AG JUST/2013/ISEC/DRUGS/AG/6413); confirmed by NMR
Num Peaks: 79
51 3; 52 1; 53 5; 54 15; 55 41; 
56 18; 57 4; 62 1; 63 5; 64 1; 
65 30; 66 2; 67 3; 68 12; 69 31; 
70 17; 71 1; 72 2; 77 4; 78 1; 
79 2; 80 3; 81 3; 82 6; 83 3; 
84 43; 85 2; 89 7; 90 5; 91 67; 
92 6; 93 1; 94 4; 95 2; 96 42; 
97 28; 98 16; 99 1; 103 2; 104 1; 
105 9; 106 1; 108 2; 110 26; 111 2; 
112 1; 115 4; 116 2; 117 2; 118 2; 
119 44; 120 4; 124 2; 126 1; 127 1; 
128 2; 129 2; 130 1; 131 2; 132 1; 
134 4; 143 1; 144 1; 145 1; 147 2; 
150 2; 152 15; 153 3; 154 999; 155 125; 
156 6; 173 1; 174 11; 175 1; 186 1; 
198 1; 200 2; 202 7; 203 1; 
