Name: .alpha.-PHiP
InChIKey: UOZWZANRCOALQL-UHFFFAOYSA-N
Synon: 4-Methyl-1-phenyl-2-(pyrrolidin-1-yl)pentan-1-one
Formula: C16H23NO
MW: 245
ExactMass: 245.177964
CASNO: 0
ID: 4776
Comment: ENFSI / NFL Slovenija (RESPONSE project AG JUST/2013/ISEC/DRUGS/AG/6413); confirmed by NMR
Num Peaks: 88
30 6; 38 1; 39 15; 40 3; 41 53; 
42 28; 43 29; 44 7; 50 6; 51 30; 
52 3; 53 8; 54 21; 55 40; 56 51; 
57 4; 63 1; 65 3; 66 1; 67 5; 
68 14; 69 33; 70 20; 71 2; 72 1; 
74 1; 75 1; 76 4; 77 106; 78 11; 
79 3; 80 4; 81 3; 82 6; 83 2; 
84 63; 85 4; 89 2; 90 1; 91 13; 
92 1; 93 1; 94 8; 95 3; 96 49; 
97 27; 98 155; 99 10; 102 1; 103 2; 
104 2; 105 59; 106 5; 108 2; 110 5; 
112 1; 115 5; 116 1; 117 3; 118 1; 
120 4; 122 1; 124 13; 125 1; 128 2; 
129 1; 130 2; 131 2; 132 1; 133 2; 
136 1; 138 16; 139 3; 140 999; 141 108; 
142 5; 143 1; 146 1; 159 1; 160 8; 
161 1; 170 1; 184 1; 186 3; 188 15; 
189 2; 200 1; 228 1; 
