Name: Indane
InChIKey: PQNFLJBBNBOBRQ-UHFFFAOYSA-N
Synon: 2,3-Dihydro-1H-indene
Synon: 1,2-Hydrindene
Synon: Hydrindonaphthene
Synon: Hydrindene
Synon: Benzocyclopentane
Formula: C9H10
MW: 118
ExactMass: 118.0782504
CASNO: 496117
ID: 4777
Comment: ENFSI / NFL Slovenija (RESPONSE project AG JUST/2013/ISEC/DRUGS/AG/6413); confirmed by NMR
Num Peaks: 56
32 33; 35 4; 37 8; 38 15; 39 85; 
40 12; 41 14; 42 3; 43 3; 44 3; 
47 8; 48 5; 49 40; 50 39; 51 75; 
52 19; 53 10; 55 4; 58 65; 61 11; 
62 38; 63 96; 64 16; 65 73; 66 5; 
73 3; 74 18; 75 16; 76 13; 77 40; 
78 28; 79 6; 81 2; 83 3; 84 34; 
85 6; 86 29; 87 15; 88 10; 89 77; 
90 16; 91 178; 92 17; 93 2; 102 21; 
103 43; 104 4; 105 26; 106 2; 113 4; 
114 6; 115 349; 116 82; 117 999; 118 539; 
119 69; 
