Name: Methylmorphenate
InChIKey: FTSNQYGFVFQKHY-UHFFFAOYSA-N
Synon: Methyl 2-(morpholin-3-yl)-2-phenylacetate
Formula: C13H17NO3
MW: 235
ExactMass: 235.120843
CASNO: 0
ID: 4782
Comment: ENFSI / NFL Slovenija (RESPONSE project AG JUST/2013/ISEC/DRUGS/AG/6413); confirmed by NMR
Num Peaks: 98
30 23; 31 5; 32 2; 36 1; 37 1; 
38 4; 39 26; 40 4; 41 13; 42 11; 
43 6; 44 7; 45 4; 49 1; 50 10; 
51 24; 52 8; 53 3; 54 24; 55 49; 
56 50; 57 9; 58 55; 59 25; 60 1; 
61 2; 62 10; 63 31; 64 10; 65 52; 
67 1; 68 8; 69 1; 70 3; 72 5; 
73 5; 74 3; 75 4; 76 4; 77 47; 
78 12; 79 15; 80 1; 84 8; 85 34; 
86 999; 87 54; 88 5; 89 57; 90 59; 
91 310; 92 27; 93 1; 101 1; 102 10; 
103 18; 104 7; 105 12; 106 2; 107 7; 
108 1; 114 1; 115 45; 116 19; 117 59; 
118 121; 119 17; 120 1; 121 10; 122 1; 
127 2; 128 4; 129 6; 130 16; 131 9; 
132 2; 133 1; 134 1; 135 8; 136 1; 
143 2; 144 14; 145 5; 146 7; 147 1; 
148 1; 149 2; 150 110; 151 12; 152 1; 
158 1; 162 1; 172 1; 174 5; 175 1; 
176 2; 204 1; 233 1; 
