Name: N-Ethyl-nor-LSD
InChIKey: MYNOUXJLOHVSMQ-UHFFFAOYSA-N
Synon: ETH-LAD
Synon: N,N,6-triethyl-6,11-diazatetracyclo[7.6.1.02,7.012,16]hexadeca-1(16),2,9,12,14-pentaene-4-carboxamide
Formula: C21H27N3O
MW: 337
ExactMass: 337.215412
CASNO: 65527620
ID: 4787
Comment: ENFSI / NFL Slovenija (RESPONSE project AG JUST/2013/ISEC/DRUGS/AG/6413); confirmed by NMR
Num Peaks: 131
51 14; 52 10; 53 11; 54 23; 55 32; 
56 101; 57 49; 58 116; 59 2; 63 14; 
68 12; 70 20; 71 10; 72 529; 73 47; 
74 49; 75 15; 76 24; 77 34; 81 6; 
82 15; 83 15; 86 24; 87 7; 89 21; 
90 34; 91 10; 96 27; 98 31; 99 9; 
100 142; 101 20; 102 14; 103 41; 104 46; 
108 6; 110 7; 111 7; 112 12; 113 7; 
114 12; 115 31; 116 11; 117 18; 118 36; 
119 4; 125 17; 126 34; 127 102; 128 165; 
129 20; 130 15; 131 7; 133 3; 138 9; 
139 41; 140 37; 141 15; 142 7; 147 2; 
150 37; 151 124; 152 178; 153 130; 154 229; 
155 51; 156 14; 163 20; 164 37; 165 74; 
166 60; 167 237; 168 68; 169 12; 176 13; 
177 33; 178 190; 179 182; 180 305; 181 868; 
182 157; 183 17; 190 24; 191 103; 192 228; 
193 135; 194 111; 195 53; 196 14; 197 8; 
203 7; 204 13; 205 210; 206 271; 207 209; 
208 223; 209 86; 210 190; 211 34; 218 10; 
219 23; 220 28; 221 151; 222 57; 223 24; 
233 33; 234 74; 235 999; 236 308; 237 267; 
238 48; 249 8; 250 6; 251 13; 263 20; 
264 11; 265 51; 266 11; 267 3; 279 11; 
280 38; 281 10; 283 3; 308 12; 335 7; 
336 7; 337 561; 338 124; 339 20; 341 5; 
355 4; 
