Name: JWH-308
InChIKey: PJNACIYIFHTDCK-UHFFFAOYSA-N
Synon: 2-(4-Fluorophenyl)-4-(naphthalene-1-carbonyl)-1-pentyl-1H-pyrrole
Synon: 1-Pentyl-3-(1-naphthoyl )-5-(4-fluorophenyl)-pyrrole
Synon: (5-(4-Fluorophenyl)-1-pentyl-1H-pyrrol-3-yl)(naphthalen-1-yl)methanone
Formula: C26H24FNO
MW: 385
ExactMass: 385.184193
CASNO: 914458392
ID: 4788
Comment: ENFSI / NFL Slovenija (RESPONSE project AG JUST/2013/ISEC/DRUGS/AG/6413); confirmed by NMR
Num Peaks: 222
51 22; 52 29; 53 28; 54 7; 55 67; 
56 6; 57 9; 62 5; 63 15; 65 9; 
67 4; 69 10; 71 11; 73 15; 74 10; 
75 39; 76 15; 77 83; 78 10; 81 5; 
83 12; 84 3; 86 22; 87 10; 88 3; 
89 6; 91 3; 94 6; 95 31; 96 15; 
97 3; 98 3; 99 7; 100 6; 101 49; 
102 9; 103 6; 105 3; 106 10; 107 15; 
108 4; 109 33; 110 5; 113 11; 114 3; 
115 14; 116 3; 118 5; 119 6; 120 16; 
121 26; 122 119; 123 21; 124 3; 125 41; 
126 113; 127 802; 128 132; 129 36; 130 4; 
131 19; 132 50; 133 242; 134 34; 135 29; 
136 12; 137 4; 138 4; 139 26; 140 12; 
141 29; 142 8; 143 7; 144 18; 145 49; 
146 46; 147 24; 148 17; 149 9; 150 20; 
151 15; 152 22; 153 8; 154 15; 155 999; 
156 123; 157 20; 158 35; 159 78; 160 64; 
161 27; 162 12; 163 45; 164 52; 165 104; 
166 22; 167 14; 168 5; 169 4; 170 4; 
171 6; 172 46; 173 40; 174 73; 175 13; 
176 12; 177 7; 178 13; 179 11; 180 7; 
181 6; 184 3; 185 12; 186 7; 187 38; 
188 256; 189 34; 190 34; 191 17; 192 22; 
193 22; 194 24; 195 3; 198 6; 199 3; 
200 38; 201 10; 202 11; 203 4; 204 9; 
205 15; 206 12; 207 59; 208 12; 209 5; 
212 5; 214 14; 215 5; 216 5; 218 5; 
219 14; 220 24; 221 6; 226 6; 228 7; 
229 4; 230 31; 231 10; 232 5; 233 10; 
234 6; 235 3; 237 6; 239 11; 240 3; 
244 6; 249 3; 250 3; 252 4; 253 3; 
255 10; 256 8; 257 58; 258 224; 259 45; 
260 8; 264 3; 265 7; 266 4; 267 4; 
268 13; 269 5; 270 33; 271 22; 272 6; 
273 3; 276 6; 281 16; 282 9; 283 20; 
284 20; 285 41; 286 26; 287 11; 288 6; 
290 31; 291 10; 293 5; 294 6; 295 8; 
296 7; 297 5; 298 26; 299 61; 300 92; 
301 28; 302 5; 310 9; 311 14; 312 25; 
313 26; 314 307; 315 71; 316 11; 326 6; 
327 6; 328 208; 329 72; 330 14; 340 4; 
342 14; 343 4; 355 3; 356 8; 357 3; 
368 27; 369 10; 383 3; 384 240; 385 492; 
386 137; 387 21; 
