Name: 1-Cyclohexylmethylindole
InChIKey: HIOJKWCIURECFH-UHFFFAOYSA-N
Synon: 1-(Cyclohexylmethyl)-1H-indole
Formula: C15H19N
MW: 213
ExactMass: 213.15175
CASNO: 0
ID: 4792
Comment: ENFSI / NFL Slovenija (RESPONSE project AG JUST/2013/ISEC/DRUGS/AG/6413); confirmed by NMR
Num Peaks: 56
51 17; 52 5; 53 18; 54 5; 55 48; 
56 3; 62 6; 63 21; 64 5; 65 9; 
67 17; 68 3; 75 8; 76 11; 77 95; 
78 12; 79 7; 81 6; 83 6; 87 3; 
88 3; 89 48; 90 28; 91 8; 93 2; 
95 5; 101 9; 102 29; 103 64; 104 12; 
115 6; 116 25; 117 71; 118 24; 127 3; 
128 32; 129 25; 130 999; 131 232; 132 31; 
133 4; 142 2; 143 4; 144 3; 154 9; 
155 3; 156 13; 157 2; 167 5; 168 8; 
170 5; 211 5; 212 33; 213 201; 214 34; 
215 3; 
