Name: N-(2,6-Dimethylphenyl)-1-piperidineacetamide
InChIKey: OVECJQXXUIVZBI-UHFFFAOYSA-N
Formula: C15H22N2O
MW: 246
ExactMass: 246.173213
CASNO: 0
ID: 4796
Comment: ENFSI / NFL Slovenija (RESPONSE project AG JUST/2013/ISEC/DRUGS/AG/6413); confirmed by NMR
Num Peaks: 67
51 11; 52 7; 53 9; 54 8; 55 47; 
56 14; 57 5; 58 1; 62 2; 63 7; 
64 2; 65 12; 66 2; 67 7; 68 12; 
69 20; 70 24; 75 2; 76 3; 77 30; 
78 10; 79 10; 80 4; 81 2; 82 6; 
83 5; 84 75; 85 6; 86 1; 89 5; 
90 3; 91 32; 92 10; 93 4; 94 3; 
95 1; 96 35; 97 14; 98 999; 99 79; 
100 2; 102 4; 103 13; 104 6; 105 13; 
106 6; 107 1; 115 2; 116 12; 117 5; 
118 17; 119 15; 120 26; 121 5; 130 17; 
131 8; 132 14; 133 2; 134 3; 144 2; 
145 1; 146 4; 147 23; 148 6; 160 1; 
207 3; 246 4; 
