Name: NDTDI
InChIKey: JECGWOMOCPQHDH-UHFFFAOYSA-N
Synon: 3-({2-azatricyclo[6.3.1.0(4,12)]dodeca-1(11),3,8(12),9-tetraen-6-yl}(methyl)amino)-N,N-diethylpropanamide
Synon: N,N-diethyl-3-(methyl(1,3,4,5-tetrahydrobenzo[cd]indol-4-yl)amino)propanamide
Formula: C19H27N3O
MW: 313
ExactMass: 313.215412
CASNO: 0
ID: 4797
Comment: ENFSI / NFL Slovenija (RESPONSE project AG JUST/2013/ISEC/DRUGS/AG/6413); confirmed by NMR
Num Peaks: 145
51 50; 52 24; 53 22; 54 39; 55 722; 
56 131; 57 36; 58 637; 59 30; 61 4; 
62 19; 63 63; 64 22; 65 26; 66 5; 
67 6; 68 16; 69 11; 70 49; 72 256; 
73 38; 74 69; 75 46; 76 36; 77 120; 
78 33; 79 6; 80 9; 81 4; 82 22; 
84 89; 85 48; 86 38; 87 21; 88 13; 
89 46; 90 20; 91 61; 92 55; 93 43; 
94 4; 96 12; 97 5; 98 42; 99 72; 
100 271; 101 55; 102 52; 103 30; 104 12; 
105 3; 106 2; 110 5; 111 5; 112 284; 
113 44; 114 35; 115 313; 116 152; 117 54; 
118 14; 119 6; 120 2; 123 2; 125 15; 
126 152; 127 481; 128 359; 129 237; 130 194; 
131 37; 132 14; 133 8; 139 7; 140 28; 
141 38; 142 97; 143 196; 144 999; 145 416; 
146 42; 147 8; 149 2; 151 3; 152 16; 
153 51; 154 800; 155 644; 156 520; 157 240; 
158 88; 159 801; 160 76; 161 5; 165 2; 
166 9; 167 50; 168 85; 169 117; 170 106; 
171 86; 172 19; 173 2; 177 4; 179 4; 
180 7; 181 32; 182 55; 183 188; 184 162; 
185 238; 186 686; 187 96; 188 7; 191 9; 
192 2; 193 6; 195 17; 196 16; 197 243; 
198 97; 199 364; 200 88; 201 8; 207 70; 
208 15; 209 10; 210 3; 211 14; 212 8; 
213 22; 214 6; 221 3; 225 3; 239 2; 
241 4; 249 2; 265 2; 267 3; 281 31; 
282 8; 283 5; 298 5; 313 44; 314 11; 
