Name: Dichloropane
InChIKey: AMIHUYQKNJHXPT-UHFFFAOYSA-N
Synon: Methyl 3-(3,4-dichlorophenyl)-8-methyl-8-azabicyclo[3.2.1]octane-2-carboxylate
Synon: Dichloropropane, 2b-Carbomethoxy-3b-(3,4-dichlorophenyl)tropane
Synon: O-401
Synon: RTI-111
Formula: C16H19Cl2NO2
MW: 327
ExactMass: 327.079285
CASNO: 146725340
ID: 4798
Comment: ENFSI / NFL Slovenija (RESPONSE project AG JUST/2013/ISEC/DRUGS/AG/6413); confirmed by NMR
Num Peaks: 118
50 7; 51 16; 52 7; 53 20; 54 29; 
55 98; 56 54; 57 54; 59 30; 62 5; 
63 12; 65 18; 66 12; 67 41; 68 74; 
69 18; 70 34; 71 7; 73 20; 74 12; 
75 24; 76 8; 77 14; 78 7; 79 11; 
80 27; 81 45; 82 999; 83 856; 84 85; 
85 13; 86 7; 87 7; 89 11; 91 9; 
93 8; 94 96; 95 23; 96 528; 97 346; 
98 28; 99 16; 100 7; 101 18; 102 20; 
103 8; 108 10; 109 14; 110 13; 111 13; 
113 9; 114 10; 115 39; 116 7; 120 8; 
122 15; 123 9; 124 8; 125 7; 126 10; 
127 18; 128 18; 133 7; 134 7; 135 14; 
136 29; 137 19; 138 11; 139 13; 140 14; 
141 23; 142 9; 147 7; 149 21; 150 11; 
151 13; 152 16; 153 7; 154 17; 155 44; 
159 26; 161 19; 162 11; 163 11; 164 7; 
165 8; 171 11; 172 10; 173 11; 174 7; 
175 10; 176 11; 177 6; 183 11; 185 9; 
191 9; 199 16; 201 12; 203 6; 207 47; 
208 11; 209 6; 226 6; 227 9; 228 5; 
229 9; 238 17; 240 35; 242 21; 268 26; 
269 5; 270 18; 281 19; 282 6; 296 15; 
298 9; 327 17; 329 14; 
