Name: Ru-28306
InChIKey: BQOANWOQEHVATQ-UHFFFAOYSA-N
Synon: N,N-dimethyl-2-azatricyclo[6.3.1.0(4,12)]dodeca-1(12),3,8,10-tetraen-6-amine
Synon: N,N-dimethyl -1,3,4,5-tetrahydrobenzo[cd]indol-4-amine
Formula: C13H16N2
MW: 200
ExactMass: 200.131349
CASNO: 73625113
ID: 4799
Comment: ENFSI / NFL Slovenija (RESPONSE project AG JUST/2013/ISEC/DRUGS/AG/6413); confirmed by NMR
Num Peaks: 115
50 15; 51 34; 52 13; 53 4; 54 5; 
55 6; 56 25; 57 21; 58 14; 61 2; 
62 12; 63 44; 64 13; 65 19; 66 3; 
67 1; 68 11; 69 2; 70 17; 71 11; 
73 2; 74 20; 75 35; 76 30; 77 81; 
78 22; 79 4; 80 2; 81 3; 82 3; 
84 4; 85 12; 86 9; 87 13; 88 11; 
89 31; 90 15; 91 43; 92 65; 94 13; 
95 1; 97 1; 98 27; 99 58; 100 62; 
101 35; 102 39; 103 20; 104 6; 105 2; 
106 1; 107 1; 111 1; 112 1; 113 13; 
114 23; 115 194; 116 47; 117 31; 118 13; 
119 8; 120 1; 122 1; 124 1; 125 9; 
126 68; 127 260; 128 162; 129 134; 130 62; 
131 18; 132 7; 133 1; 139 4; 140 24; 
141 30; 142 80; 143 158; 144 773; 145 89; 
146 5; 151 2; 152 10; 153 26; 154 528; 
155 206; 156 239; 157 109; 158 139; 159 30; 
160 2; 166 3; 167 16; 168 72; 169 106; 
170 190; 171 30; 172 6; 173 5; 180 1; 
181 8; 182 15; 183 90; 184 59; 185 198; 
186 28; 187 2; 195 2; 196 2; 197 37; 
198 18; 199 114; 200 999; 201 158; 202 10; 
