Name: GTS-21
InChIKey: RPYWXZCFYPVCNQ-RVDMUPIBSA-N
Synon: (3E)-3-[(2,4-dimethoxyphenyl)methylidene]-3,4,5,6-tetrahydro-2,3'-bipyridine
Synon: 3-(2,4-Dimethoxybenzylidene)anabaseine
Formula: C19H20N2O2
MW: 308
ExactMass: 308.152477
CASNO: 0
ID: 4800
Comment: ENFSI / NFL Slovenija (RESPONSE project AG JUST/2013/ISEC/DRUGS/AG/6413); confirmed by NMR
Num Peaks: 225
51 81; 52 27; 53 27; 54 5; 55 21; 
56 5; 57 4; 59 10; 61 2; 62 15; 
63 62; 64 31; 65 66; 66 12; 67 10; 
68 3; 69 39; 71 5; 73 9; 74 16; 
75 38; 76 60; 77 161; 78 139; 79 43; 
80 11; 81 4; 83 8; 84 18; 86 7; 
87 16; 88 20; 89 91; 90 47; 91 96; 
92 37; 93 13; 94 8; 96 24; 98 7; 
99 9; 100 7; 101 41; 102 77; 103 99; 
104 105; 105 175; 106 24; 107 13; 108 12; 
109 25; 110 26; 111 19; 112 6; 113 14; 
114 16; 115 123; 116 114; 117 72; 118 126; 
119 77; 120 14; 121 91; 122 20; 123 13; 
124 19; 125 26; 126 18; 127 44; 128 73; 
129 45; 130 47; 131 93; 132 41; 133 43; 
134 9; 135 6; 136 2; 137 20; 138 37; 
139 46; 140 33; 141 24; 142 29; 143 32; 
144 43; 145 44; 146 51; 147 25; 148 13; 
149 22; 150 17; 151 80; 152 38; 153 19; 
154 34; 155 32; 156 36; 157 48; 158 37; 
159 46; 160 16; 161 116; 162 22; 163 12; 
164 16; 165 17; 166 29; 167 28; 168 34; 
169 204; 170 116; 171 119; 172 29; 173 40; 
174 25; 175 26; 176 17; 177 22; 178 27; 
179 24; 180 23; 181 20; 182 10; 183 11; 
184 8; 185 12; 186 6; 187 12; 188 19; 
189 31; 190 18; 191 37; 192 32; 193 33; 
194 34; 195 22; 196 7; 197 4; 198 3; 
199 2; 200 4; 201 6; 202 5; 203 29; 
204 28; 205 42; 206 36; 207 101; 208 39; 
209 36; 210 14; 211 5; 212 3; 214 5; 
215 5; 216 10; 217 10; 218 17; 219 24; 
220 28; 221 42; 222 53; 223 19; 224 8; 
225 3; 226 3; 228 2; 229 4; 230 11; 
231 15; 232 19; 233 57; 234 78; 235 44; 
236 34; 237 35; 238 24; 239 6; 240 3; 
243 2; 244 4; 245 6; 246 8; 247 25; 
248 25; 249 78; 250 93; 251 40; 252 28; 
253 9; 254 2; 259 5; 260 9; 261 36; 
262 39; 263 45; 264 44; 265 185; 266 44; 
267 14; 268 2; 275 30; 276 22; 277 382; 
278 110; 279 68; 280 61; 281 36; 282 9; 
283 5; 289 11; 290 5; 291 43; 292 40; 
293 671; 294 139; 295 17; 305 7; 306 8; 
307 193; 308 999; 309 219; 310 36; 311 4; 
