Name: G-130
InChIKey: KJUOROGOOZJYAI-UHFFFAOYSA-N
Synon: 5,5-Dimethyl-2-phenylmorpholine
Synon: 2-Phenyl-5,5-dimethyltetrahydro-1,4-oxazine
Formula: C12H17NO
MW: 191
ExactMass: 191.131014
CASNO: 42013489
ID: 4802
Comment: ENFSI / NFL Slovenija (RESPONSE project AG JUST/2013/ISEC/DRUGS/AG/6413); confirmed by NMR
Num Peaks: 87
30 99; 31 2; 32 4; 36 1; 38 4; 
39 40; 40 9; 41 75; 42 56; 43 8; 
44 4; 49 1; 50 13; 51 39; 52 12; 
53 7; 54 6; 55 31; 56 130; 57 12; 
58 16; 59 1; 62 4; 63 17; 64 6; 
65 16; 66 2; 67 1; 68 4; 69 3; 
70 59; 71 8; 72 1; 74 4; 75 4; 
76 9; 77 98; 78 69; 79 37; 81 11; 
82 3; 83 1; 84 6; 85 2; 86 2; 
87 1; 89 20; 90 11; 91 39; 92 4; 
93 1; 102 14; 103 69; 104 999; 105 162; 
106 10; 107 19; 108 1; 115 3; 116 2; 
117 7; 118 9; 119 9; 120 3; 121 3; 
128 5; 129 1; 130 2; 131 2; 132 2; 
134 5; 143 2; 144 10; 145 1; 146 2; 
148 6; 158 1; 159 4; 161 304; 162 42; 
163 2; 174 1; 176 6; 189 4; 190 1; 
191 10; 192 1; 
