Name: PRE-084
InChIKey: RQHKZUBCUZVZEF-UHFFFAOYSA-N
Synon: 2-(Morpholin-4-yl)ethyl 1-phenylcyclohexane-1-carboxylate
Synon: CHEMBL305881
Synon: 2-Morpholin-4-ylethyl 1-phenylcyclohexane-1-carboxylate
Synon: Tocris-0589
Synon: Lopac-P-2607
Formula: C19H27NO3
MW: 317
ExactMass: 317.199093
CASNO: 138847855
ID: 4803
Comment: ENFSI / NFL Slovenija (RESPONSE project AG JUST/2013/ISEC/DRUGS/AG/6413); confirmed by NMR
Num Peaks: 79
51 7; 52 2; 53 8; 54 15; 55 51; 
56 64; 57 11; 58 2; 59 1; 63 2; 
64 1; 65 9; 66 1; 67 10; 68 5; 
69 5; 70 32; 71 4; 72 8; 73 5; 
74 1; 75 1; 76 2; 77 21; 78 7; 
79 11; 80 2; 81 23; 82 6; 83 14; 
84 11; 85 5; 86 6; 87 1; 89 4; 
91 205; 92 16; 93 1; 96 1; 98 36; 
99 7; 100 999; 101 67; 102 10; 103 24; 
104 7; 105 9; 106 1; 109 1; 111 8; 
112 9; 113 367; 114 43; 115 37; 116 9; 
117 26; 118 5; 127 4; 128 13; 129 20; 
130 9; 131 2; 141 2; 142 1; 143 5; 
144 1; 149 2; 152 1; 153 1; 154 1; 
157 2; 158 6; 159 25; 160 4; 207 5; 
208 1; 231 1; 281 2; 315 1; 
