Name: 25I-NBOMe metabolite
InChIKey: SOVZUKWDXFGFTI-UHFFFAOYSA-N
Synon: 2C-I-NBOMe-M1
Synon: 25I-NB2OMe metabolite
Synon: 2C-I-NB2OMe-M1
Formula: C18H22INO4
MW: 443
ExactMass: 443.059357
CASNO: 0
ID: 4804
Comment: ENFSI / NFL Slovenija (RESPONSE project AG JUST/2013/ISEC/DRUGS/AG/6413); confirmed by NMR
Num Peaks: 143
51 19; 52 7; 53 20; 54 4; 55 36; 
56 8; 57 471; 58 26; 59 7; 60 4; 
61 5; 62 3; 63 12; 64 10; 65 29; 
66 10; 67 10; 69 17; 71 3; 72 3; 
73 73; 74 11; 75 12; 76 7; 77 81; 
78 20; 79 35; 80 6; 81 9; 87 5; 
88 4; 89 23; 90 23; 91 69; 92 16; 
93 19; 94 10; 95 6; 96 32; 102 5; 
103 22; 104 11; 105 54; 106 23; 107 116; 
108 37; 109 9; 115 17; 116 8; 117 20; 
118 10; 119 38; 120 16; 121 20; 122 8; 
123 16; 124 3; 125 5; 127 18; 128 27; 
129 9; 131 22; 132 11; 133 51; 134 20; 
135 21; 136 32; 137 999; 138 102; 139 9; 
141 4; 143 5; 144 3; 145 7; 146 4; 
147 133; 148 42; 149 31; 150 16; 151 9; 
152 27; 153 4; 158 5; 159 16; 160 4; 
161 15; 162 5; 163 20; 164 40; 165 20; 
166 3; 173 4; 175 18; 176 4; 177 19; 
178 6; 179 303; 180 32; 181 4; 189 8; 
190 4; 191 91; 192 15; 193 25; 194 8; 
195 12; 201 4; 203 3; 205 6; 206 7; 
207 234; 208 55; 209 28; 210 4; 219 7; 
221 9; 232 8; 235 3; 237 14; 247 18; 
249 8; 250 9; 251 6; 261 8; 265 6; 
267 10; 275 17; 276 18; 277 18; 281 68; 
282 16; 283 13; 284 4; 290 404; 291 62; 
292 8; 308 21; 341 7; 355 8; 427 4; 
441 182; 442 61; 443 8; 
