Name: 25C-NBOH-2TMS
InChIKey: NTOMMXBHTRGYND-UHFFFAOYSA-N
Synon: 2-((4-Chloro-2,5-dimethoxyphenethylamino)methyl)phenol-2TMS derivative
Synon: NBOH-2CC-2TMS
Synon: 2C-C-NBOH-2TMS
Formula: C23H36ClNO3Si2
MW: 465
ExactMass: 465.192225
CASNO: 0
ID: 4806
Comment: ENFSI / NFL Slovenija (RESPONSE project AG JUST/2013/ISEC/DRUGS/AG/6413); TMS derivative; confirmed by NMR
Num Peaks: 157
50 1; 51 5; 52 1; 53 4; 55 2; 
57 3; 58 2; 59 35; 60 3; 61 2; 
63 3; 64 1; 65 5; 67 2; 69 2; 
71 2; 73 294; 74 27; 75 45; 76 3; 
77 30; 78 9; 79 7; 80 1; 81 1; 
82 2; 83 1; 84 1; 85 2; 86 7; 
87 2; 88 1; 89 12; 90 5; 91 37; 
92 4; 93 4; 95 1; 96 3; 97 2; 
99 6; 100 5; 101 2; 102 5; 103 8; 
104 5; 105 34; 106 5; 107 14; 108 2; 
109 1; 111 2; 112 5; 113 3; 114 2; 
115 3; 116 2; 117 4; 118 4; 119 4; 
120 3; 121 7; 122 3; 123 2; 124 1; 
125 8; 126 1; 127 6; 128 2; 129 1; 
130 1; 131 4; 132 3; 133 10; 134 9; 
135 41; 136 6; 137 6; 138 1; 139 1; 
140 2; 141 3; 142 6; 143 1; 144 2; 
145 2; 146 1; 147 12; 148 7; 149 37; 
150 7; 151 33; 152 4; 153 2; 155 24; 
156 3; 157 9; 161 21; 162 6; 163 130; 
164 26; 165 18; 166 3; 167 1; 168 1; 
169 10; 170 4; 171 6; 172 2; 175 1; 
176 4; 177 43; 179 999; 180 160; 181 46; 
182 6; 183 4; 184 15; 185 24; 186 12; 
187 7; 188 2; 189 1; 190 4; 191 4; 
192 17; 193 7; 194 3; 196 2; 198 3; 
199 16; 200 2; 201 5; 206 16; 207 32; 
208 157; 209 30; 210 8; 211 1; 213 2; 
221 1; 227 1; 228 2; 236 1; 237 2; 
250 2; 257 1; 264 1; 265 1; 266 1; 
267 2; 278 8; 280 345; 281 96; 282 39; 
283 7; 284 2; 
