Name: 4-Hydroxy-3-methoxyamphetamine
InChIKey: GPBOYXOSSQEJBH-UHFFFAOYSA-N
Synon: HMA
Synon: 4-(2-Aminopropyl)-2-methoxyphenol
Synon: NSC 172191
Formula: C10H15NO2
MW: 181
ExactMass: 181.110279
CASNO: 13062618
ID: 4809
Comment: ENFSI / NFL Slovenija (RESPONSE project AG JUST/2013/ISEC/DRUGS/AG/6413); confirmed by NMR
Num Peaks: 69
31 5; 32 9; 36 4; 38 7; 39 26; 
40 10; 41 12; 42 34; 43 15; 44 999; 
45 26; 47 2; 50 10; 51 29; 52 15; 
53 15; 54 4; 55 17; 56 2; 62 8; 
63 10; 64 4; 65 30; 66 27; 67 9; 
68 4; 74 2; 75 4; 77 38; 78 16; 
79 9; 80 4; 81 4; 83 4; 89 3; 
90 2; 91 10; 92 2; 93 4; 94 54; 
95 14; 96 2; 103 5; 104 3; 105 10; 
106 11; 107 10; 109 3; 118 2; 120 3; 
121 3; 122 42; 123 46; 124 6; 131 2; 
133 2; 134 5; 135 2; 137 78; 138 235; 
139 24; 140 2; 149 2; 150 2; 151 2; 
164 2; 165 2; 166 4; 181 5; 
