Name: 2-Ethylhexyl salicylate
InChIKey: FMRHJJZUHUTGKE-UHFFFAOYSA-N
Synon: 2-Ethylhexyl 2-hydroxybenzoate
Synon: Octisalate
Synon: Benzoic acid, 2-hydroxy-, 2-ethylhexyl ester
Synon: Salicylic acid, 2-ethylhexyl ester
Formula: C15H22O3
MW: 250
ExactMass: 250.156895
CASNO: 118605
ID: 4812
Comment: DEA SWL
Num Peaks: 67
37 2; 38 10; 39 130; 40 12; 41 253; 
42 34; 43 197; 44 8; 45 2; 50 5; 
51 8; 52 3; 53 45; 54 11; 55 158; 
56 55; 57 236; 58 10; 59 1; 61 1; 
62 7; 63 44; 64 49; 65 196; 66 18; 
67 15; 68 6; 69 59; 70 183; 71 152; 
72 8; 74 2; 75 4; 76 5; 77 6; 
78 1; 79 4; 80 1; 81 15; 82 13; 
83 126; 84 48; 85 4; 91 6; 92 200; 
93 123; 94 11; 95 2; 97 7; 104 1; 
105 1; 107 1; 109 3; 112 127; 113 13; 
120 999; 121 523; 122 42; 123 4; 134 1; 
138 662; 139 113; 140 10; 141 1; 250 66; 
251 11; 252 1; 
