Name: Benzyl benzoate
InChIKey: SESFRYSPDFLNCH-UHFFFAOYSA-N
Synon: Benzoic acid, phenylmethyl ester
Synon: Benzoic acid benzyl ester
Synon: Phenylmethyl benzoate
Formula: C14H12O2
MW: 212
ExactMass: 212.08373
CASNO: 120514
ID: 4814
Comment: DEA SWL
Num Peaks: 51
37 3; 38 12; 39 63; 40 4; 41 11; 
49 4; 50 86; 51 246; 52 29; 53 8; 
61 3; 62 15; 63 47; 64 16; 65 159; 
66 9; 73 3; 74 26; 75 19; 76 30; 
77 487; 78 60; 79 82; 80 5; 86 2; 
87 2; 89 75; 90 81; 91 611; 92 50; 
93 1; 105 999; 106 92; 107 66; 108 5; 
115 1; 122 1; 128 1; 151 1; 152 8; 
153 5; 165 18; 166 8; 167 59; 168 10; 
194 71; 195 11; 196 1; 212 154; 213 24; 
214 2; 
