Name: 2-Propenoic acid, 3-phenyl-, methyl ester
InChIKey: CCRCUPLGCSFEDV-BQYQJAHWSA-N
Synon: 3-Phenyl-2-propenoic acid methyl ester
Synon: Methyl ester of Cinnamic acid
Formula: C10H10O2
MW: 162
ExactMass: 162.06808
CASNO: 103264
ID: 4815
Comment: DEA SWL / breakdown from cinnamoyl chloride
Num Peaks: 73
37 3; 38 11; 39 26; 40 2; 41 1; 
45 2; 49 5; 50 84; 51 206; 52 33; 
53 13; 54 1; 55 1; 59 11; 61 8; 
62 25; 63 60; 64 8; 65 16; 67 1; 
69 4; 73 7; 74 61; 75 59; 76 89; 
77 440; 78 48; 79 4; 85 13; 86 4; 
87 9; 88 1; 89 14; 90 10; 91 62; 
92 12; 93 1; 97 2; 98 7; 99 2; 
100 1; 101 20; 102 216; 103 718; 104 93; 
105 14; 106 1; 107 3; 108 1; 115 16; 
116 15; 117 35; 118 15; 119 12; 120 1; 
121 15; 122 1; 129 6; 130 28; 131 999; 
132 97; 133 10; 134 10; 135 1; 144 13; 
145 2; 146 3; 147 18; 148 2; 161 213; 
162 402; 163 42; 164 3; 
