Name: Cyclohexylamine
InChIKey: PAFZNILMFXTMIY-UHFFFAOYSA-N
Synon: Cyclohexanamine
Synon: Aminocyclohexane
Synon: Hexahydroaniline
Synon: Hexahydrobenzenamine
Synon: 1-Aminocyclohexane
Synon: 1-Cyclohexylamine
Formula: C6H13N
MW: 99
ExactMass: 99.1047993
CASNO: 108918
ID: 4816
Comment: DEA SWL
Num Peaks: 40
37 3; 38 9; 39 81; 40 15; 41 78; 
42 102; 43 316; 44 17; 45 1; 50 8; 
51 13; 52 9; 53 25; 54 36; 55 28; 
56 999; 57 62; 58 2; 62 1; 63 2; 
65 5; 66 4; 67 21; 68 11; 69 10; 
70 97; 71 5; 77 7; 78 1; 79 12; 
80 5; 81 13; 82 11; 83 1; 84 1; 
94 1; 96 1; 98 18; 99 168; 100 16; 
