Name: Methyl Phenylacetate
InChIKey: CRZQGDNQQAALAY-UHFFFAOYSA-N
Synon: Methyl 2-phenylacetate
Synon: Benzeneacetic acid, methyl ester
Synon: Methyl benzeneacetate
Synon: Methyl alpha-toluate
Synon: Phenylacetic Acid Methyl Ester
Synon: Methyl benzeneethanoate
Formula: C9H10O2
MW: 150
ExactMass: 150.06808
CASNO: 101417
ID: 4820
Comment: DEA SWL / breakdown from phenylacetyl chloride
Num Peaks: 50
37 5; 38 17; 39 88; 40 6; 41 16; 
42 4; 43 1; 44 1; 46 8; 49 2; 
50 30; 51 51; 52 17; 53 4; 59 69; 
60 2; 61 9; 62 31; 63 89; 64 25; 
65 209; 66 12; 73 1; 74 8; 75 6; 
76 5; 77 21; 78 13; 79 10; 85 2; 
86 6; 87 5; 89 95; 90 56; 91 999; 
92 110; 93 4; 103 1; 105 19; 106 4; 
107 3; 108 3; 118 17; 119 24; 120 2; 
121 3; 135 2; 150 324; 151 33; 152 3; 
