Name: 1-Iodo-3-phenylpropane
InChIKey: RGCKJSPKMTWLLX-UHFFFAOYSA-N
Synon: (3-Iodopropyl)benzene
Synon: Benzene, (3-iodopropyl)-
Synon: 3-Phenylpropyl iodide
Formula: C9H11I
MW: 246
ExactMass: 245.990548
CASNO: 4119419
ID: 4823
Comment: DEA SWL
Num Peaks: 58
37 3; 38 11; 39 79; 40 7; 41 53; 
42 2; 49 2; 50 32; 51 64; 52 20; 
53 5; 58 5; 61 5; 62 20; 63 59; 
64 17; 65 169; 66 10; 73 1; 74 12; 
75 9; 76 10; 77 43; 78 24; 79 12; 
85 2; 86 5; 87 5; 88 2; 89 61; 
90 12; 91 999; 92 103; 93 4; 101 1; 
102 9; 103 22; 104 8; 105 3; 113 1; 
115 64; 116 14; 117 73; 118 16; 119 154; 
120 16; 123 1; 127 74; 128 26; 129 3; 
141 7; 154 1; 155 17; 217 1; 218 1; 
246 256; 247 26; 248 1; 
