Name: 1-Phenyl-1-propanol
InChIKey: DYUQAZSOFZSPHD-UHFFFAOYSA-N
Synon: 1-Phenylpropan-1-ol
Synon: Ethyl phenyl carbinol
Synon: 1-Phenylpropyl alcohol
Synon: .alpha.-Ethylbenzenemethanol
Formula: C9H12O
MW: 136
ExactMass: 136.088815
CASNO: 93549
ID: 4824
Comment: DEA SWL
Num Peaks: 65
37 3; 38 10; 39 54; 40 5; 41 12; 
42 2; 43 19; 44 1; 49 3; 50 57; 
51 150; 52 41; 53 30; 54 2; 55 9; 
56 1; 57 29; 58 1; 59 4; 61 3; 
62 13; 63 34; 64 6; 65 26; 66 4; 
67 1; 73 3; 74 21; 75 14; 76 19; 
77 511; 78 118; 79 855; 80 62; 81 2; 
85 1; 86 3; 87 4; 88 1; 89 18; 
90 4; 91 60; 92 5; 93 2; 94 1; 
101 1; 102 7; 103 18; 104 9; 105 96; 
106 6; 107 999; 108 89; 109 5; 115 26; 
116 5; 117 22; 118 8; 119 7; 120 1; 
133 1; 134 1; 135 4; 136 132; 137 13; 
