Name: Benzoic acid, 3,5-dichloro-, methyl ester
InChIKey: WFPHSUSTKMYQDI-UHFFFAOYSA-N
Synon: Methyl 3,5-dichloro-2-hydroxybenzoate
Synon: 3,5-Dichlorosalicylic acid, methyl ester
Synon: Methyl 3,5-dichlorosalicylate
Formula: C8H6Cl2O3
MW: 220
ExactMass: 219.969399
CASNO: 7606873
ID: 4828
Comment: DEA SWL / breakdown from 3,4-Dichlorobenzoyl Chloride
Num Peaks: 118
35 3; 36 3; 37 27; 38 16; 39 4; 
45 3; 47 7; 48 4; 49 28; 50 70; 
51 14; 52 1; 53 17; 54 1; 55 6; 
56 1; 59 22; 60 11; 61 26; 62 22; 
63 31; 64 2; 66 1; 71 3; 72 22; 
73 100; 74 377; 75 317; 76 22; 77 13; 
78 2; 82 1; 83 5; 84 110; 85 51; 
86 39; 87 19; 89 5; 90 2; 93 2; 
94 3; 95 3; 96 6; 97 13; 98 6; 
99 6; 100 2; 101 3; 102 1; 103 12; 
104 1; 105 1; 106 1; 107 7; 108 29; 
109 371; 110 149; 111 141; 112 46; 113 8; 
118 2; 119 13; 120 2; 121 8; 122 1; 
123 3; 124 1; 125 7; 126 9; 127 3; 
128 3; 132 1; 133 7; 134 1; 135 4; 
137 11; 138 17; 139 8; 140 6; 141 2; 
144 9; 145 488; 146 45; 147 312; 148 24; 
149 52; 150 4; 153 25; 154 28; 155 10; 
156 8; 159 5; 160 3; 161 6; 162 1; 
163 3; 169 29; 170 4; 171 12; 173 999; 
174 87; 175 641; 176 53; 177 106; 178 7; 
186 2; 187 1; 188 2; 189 1; 190 1; 
202 1; 203 26; 204 234; 205 37; 206 149; 
207 15; 208 24; 209 2; 
