Name: N-heneicosane
InChIKey: FNAZRRHPUDJQCJ-UHFFFAOYSA-N
Synon: Eicosane, methyl-
Synon: Henicosane
Formula: C21H44
MW: 296
ExactMass: 296.344301
CASNO: 629947
ID: 4830
Comment: DEA SWL
Num Peaks: 83
39 41; 40 9; 41 354; 42 84; 43 706; 
44 24; 51 2; 52 2; 53 21; 54 26; 
55 293; 56 154; 57 999; 58 46; 65 4; 
66 3; 67 35; 68 28; 69 160; 70 128; 
71 748; 72 40; 73 1; 77 2; 79 6; 
81 15; 82 31; 83 125; 84 85; 85 601; 
86 39; 87 1; 91 1; 95 5; 96 17; 
97 103; 98 68; 99 205; 100 15; 109 2; 
110 11; 111 55; 112 52; 113 122; 114 10; 
124 6; 125 25; 126 43; 127 84; 128 9; 
138 3; 139 8; 140 34; 141 59; 142 6; 
153 3; 154 23; 155 41; 156 4; 166 1; 
167 2; 168 20; 169 28; 170 2; 182 7; 
183 18; 184 2; 196 11; 197 14; 198 2; 
210 6; 211 11; 212 1; 224 7; 225 9; 
226 1; 238 4; 239 7; 252 2; 253 2; 
267 1; 296 13; 297 2; 
