Name: 1-Aminoindane
InChIKey: XJEVHMGJSYVQBQ-UHFFFAOYSA-N
Synon: 1-AI
Formula: C9H11N
MW: 133
ExactMass: 133.089149
CASNO: 0
ID: 4831
Comment: HSA IDL MS Library
Num Peaks: 63
37 1; 38 5; 39 25; 40 3; 41 5; 
42 10; 43 1; 49 1; 50 20; 51 41; 
52 16; 53 10; 54 11; 55 2; 56 7; 
58 2; 59 4; 61 3; 62 12; 63 34; 
65 41; 67 2; 73 1; 74 12; 75 12; 
76 15; 77 75; 78 33; 79 23; 80 3; 
85 1; 86 4; 87 4; 88 3; 89 37; 
90 24; 91 75; 92 7; 93 1; 98 1; 
99 1; 100 1; 101 3; 102 15; 103 36; 
104 87; 105 33; 106 17; 107 1; 113 2; 
114 4; 115 247; 116 319; 117 277; 118 31; 
119 1; 128 3; 129 1; 130 67; 131 28; 
132 999; 133 163; 134 11; 
