Name: 4-Fluoro-UR-144
InChIKey: ROEZBBZNFJXHOC-UHFFFAOYSA-N
Synon: 4F-UR-144
Formula: C21H28FNO
MW: 329
ExactMass: 329.215492
CASNO: 0
ID: 4832
Comment: HSA IDL MS Library
Num Peaks: 199
39 13; 40 2; 41 58; 42 3; 43 20; 
47 21; 51 3; 52 1; 53 10; 54 1; 
55 40; 56 2; 57 7; 59 5; 61 3; 
62 1; 63 4; 64 1; 65 4; 66 1; 
67 10; 68 1; 69 34; 70 2; 73 1; 
74 1; 75 4; 76 4; 77 12; 78 3; 
79 9; 80 1; 81 23; 82 2; 83 30; 
84 2; 87 3; 88 5; 89 22; 90 5; 
91 4; 93 1; 95 2; 96 2; 97 5; 
101 10; 102 23; 103 11; 104 2; 105 1; 
109 27; 110 3; 112 3; 113 4; 114 7; 
115 33; 116 58; 117 14; 118 6; 119 1; 
120 3; 122 3; 125 10; 126 3; 127 7; 
128 27; 129 37; 130 56; 131 8; 132 1; 
139 3; 140 4; 141 5; 142 6; 143 32; 
144 168; 145 17; 146 1; 148 1; 151 1; 
152 5; 153 4; 154 16; 155 6; 156 11; 
157 12; 158 8; 159 1; 165 3; 166 6; 
167 30; 168 24; 169 7; 170 16; 171 3; 
172 7; 173 1; 176 3; 177 1; 178 2; 
179 3; 180 47; 181 23; 182 23; 183 8; 
184 12; 185 5; 186 3; 188 1; 191 1; 
192 2; 193 3; 194 29; 195 9; 196 41; 
197 11; 198 6; 199 1; 203 2; 204 3; 
205 25; 206 16; 207 3; 208 5; 209 2; 
210 26; 211 6; 212 134; 213 21; 214 2; 
216 1; 217 1; 218 4; 219 1; 220 1; 
222 2; 223 1; 224 15; 225 4; 226 5; 
227 4; 228 1; 230 4; 231 4; 232 999; 
233 158; 234 16; 235 1; 236 4; 237 1; 
238 3; 239 3; 240 1; 246 14; 247 68; 
248 11; 249 1; 250 3; 251 2; 252 3; 
254 12; 255 3; 256 26; 257 5; 258 2; 
259 1; 261 2; 266 3; 267 1; 268 3; 
269 1; 270 67; 271 48; 272 11; 273 1; 
284 1; 285 1; 286 26; 287 5; 288 18; 
289 3; 292 1; 294 21; 295 5; 296 1; 
298 1; 299 8; 300 2; 309 20; 310 5; 
312 8; 313 2; 314 137; 315 31; 316 3; 
328 2; 329 145; 330 34; 331 4; 
