Name: 4-Phenyl-2-Pyrrolidinone-TMS
InChIKey: RNXOMPPBOBGVLG-UHFFFAOYSA-N
Formula: C13H19NOSi
MW: 233
ExactMass: 233.12359
CASNO: 0
ID: 4834
Comment: HSA IDL MS Library
Num Peaks: 136
39 9; 40 1; 41 3; 42 3; 43 21; 
44 8; 45 39; 46 2; 47 7; 50 5; 
51 17; 52 6; 53 3; 54 2; 55 5; 
56 12; 57 6; 58 11; 59 56; 60 6; 
61 10; 62 2; 63 7; 64 1; 65 13; 
66 2; 67 1; 68 1; 69 1; 70 8; 
71 4; 72 16; 73 160; 74 20; 75 73; 
76 10; 77 46; 78 40; 79 5; 80 1; 
81 1; 82 1; 83 1; 84 5; 85 3; 
86 63; 87 7; 88 5; 89 10; 90 3; 
91 84; 92 7; 93 1; 95 1; 98 6; 
99 4; 100 19; 101 29; 102 40; 103 61; 
104 73; 105 13; 106 1; 107 2; 109 16; 
112 3; 113 1; 114 1; 115 85; 116 29; 
117 160; 118 64; 119 8; 120 1; 121 15; 
122 2; 127 1; 128 3; 129 4; 130 3; 
131 7; 132 2; 133 3; 134 1; 135 8; 
136 1; 140 11; 141 2; 142 7; 143 9; 
144 21; 145 7; 146 3; 147 2; 148 4; 
149 18; 150 2; 151 1; 154 1; 155 4; 
156 63; 157 8; 158 3; 159 3; 160 4; 
161 7; 162 1; 173 1; 174 1; 175 2; 
176 36; 177 8; 178 2; 184 1; 188 3; 
189 2; 190 1; 200 2; 201 1; 202 3; 
203 1; 204 1; 205 1; 216 14; 217 4; 
218 999; 219 187; 220 51; 221 5; 230 1; 
231 1; 232 68; 233 322; 234 64; 235 16; 
236 2; 
