Name: AB-FUBINACA-TMS
InChIKey: NBUVWXUIWGHSAP-UHFFFAOYSA-N
Formula: C23H29FN4O2Si
MW: 440
ExactMass: 440.20438
CASNO: 0
ID: 4835
Comment: HSA IDL MS Library
Num Peaks: 182
39 6; 41 7; 42 3; 43 11; 44 6; 
45 19; 46 2; 47 5; 50 1; 51 4; 
52 1; 53 1; 54 2; 55 21; 56 12; 
57 8; 58 4; 59 8; 60 2; 61 5; 
62 3; 63 7; 64 1; 65 1; 68 2; 
69 1; 70 13; 71 112; 72 686; 73 172; 
74 20; 75 68; 76 10; 77 11; 78 3; 
81 2; 82 2; 83 49; 84 9; 85 2; 
86 2; 87 3; 88 16; 89 17; 90 18; 
91 4; 92 1; 95 4; 96 5; 97 1; 
98 1; 99 2; 100 19; 101 4; 102 20; 
103 10; 104 14; 105 19; 106 2; 107 10; 
108 8; 109 999; 110 76; 111 2; 112 1; 
113 1; 114 1; 115 2; 116 15; 117 8; 
118 5; 119 2; 121 1; 122 4; 123 1; 
127 1; 128 3; 129 19; 130 6; 131 28; 
132 3; 133 1; 134 1; 135 1; 140 1; 
142 6; 143 3; 144 8; 145 94; 146 10; 
147 2; 148 1; 151 1; 156 4; 157 5; 
158 2; 159 1; 160 1; 161 1; 169 2; 
170 3; 171 3; 172 7; 173 12; 174 4; 
175 2; 176 2; 177 3; 178 1; 180 1; 
183 1; 184 1; 186 1; 194 1; 195 2; 
196 6; 197 6; 198 7; 199 3; 200 2; 
205 3; 206 1; 214 2; 215 1; 216 51; 
217 9; 218 1; 219 1; 223 14; 224 8; 
225 31; 226 23; 227 4; 238 2; 239 1; 
241 1; 251 4; 252 6; 253 670; 254 120; 
255 12; 256 1; 265 1; 267 1; 268 1; 
269 13; 270 2; 281 1; 282 20; 283 6; 
284 1; 288 2; 292 2; 301 1; 306 2; 
307 3; 308 2; 310 5; 311 1; 316 1; 
323 2; 324 342; 325 381; 326 77; 327 8; 
328 1; 350 3; 351 1; 380 2; 381 1; 
396 2; 397 2; 398 1; 407 5; 408 1; 
422 4; 423 1; 425 18; 426 5; 427 1; 
429 1; 440 1; 
