Name: delta-9-Tetrahydrocannabinol-TMS
InChIKey: JFPSLJJGWCHYOE-UHFFFAOYSA-N
Synon: THC-TMS
Synon: .delta.-9-Tetrahydrocannabinol-TMS
Formula: C24H38O2Si
MW: 386
ExactMass: 386.264107
CASNO: 0
ID: 4839
Comment: HSA IDL MS Library
Num Peaks: 308
39 10; 40 1; 41 74; 42 3; 43 87; 
44 7; 45 51; 46 3; 47 4; 51 2; 
52 1; 53 12; 54 1; 55 34; 56 2; 
57 6; 58 2; 59 17; 60 1; 61 5; 
63 2; 65 9; 66 2; 67 32; 68 3; 
69 35; 70 3; 71 7; 72 5; 73 561; 
74 48; 75 64; 76 5; 77 28; 78 7; 
79 24; 80 3; 81 83; 82 6; 83 8; 
85 3; 87 1; 89 3; 90 1; 91 49; 
92 7; 93 30; 94 4; 95 45; 96 4; 
97 4; 99 4; 100 1; 101 2; 102 3; 
103 8; 104 3; 105 34; 106 6; 107 27; 
108 5; 109 18; 110 1; 111 2; 112 1; 
113 1; 114 2; 115 31; 116 8; 117 13; 
118 4; 119 31; 120 6; 121 15; 122 7; 
123 6; 124 1; 125 1; 126 2; 127 11; 
128 30; 129 25; 130 5; 131 13; 132 3; 
133 19; 134 9; 135 18; 136 5; 137 5; 
139 4; 140 2; 141 22; 142 12; 143 13; 
144 6; 145 14; 146 3; 147 11; 148 3; 
149 10; 150 2; 151 8; 152 17; 153 20; 
154 10; 155 16; 156 5; 157 13; 158 7; 
159 11; 160 6; 161 17; 162 4; 163 10; 
164 4; 165 41; 166 14; 167 17; 168 7; 
169 13; 170 5; 171 14; 172 7; 173 12; 
174 10; 175 14; 176 5; 177 27; 178 16; 
179 23; 180 9; 181 20; 182 9; 183 16; 
184 7; 185 21; 186 7; 187 15; 188 5; 
189 10; 190 7; 191 16; 192 7; 193 28; 
194 8; 195 23; 196 22; 197 19; 198 10; 
199 23; 200 10; 201 22; 202 6; 203 13; 
204 4; 205 12; 206 5; 207 11; 208 11; 
209 16; 210 10; 211 18; 212 8; 213 26; 
214 13; 215 21; 216 9; 217 28; 218 7; 
219 29; 220 8; 221 13; 222 7; 223 11; 
224 7; 225 19; 226 8; 227 20; 228 19; 
229 20; 230 12; 231 43; 232 14; 233 21; 
234 9; 235 10; 236 4; 237 7; 238 4; 
239 13; 240 8; 241 21; 242 13; 243 18; 
244 11; 245 28; 246 53; 247 38; 248 13; 
249 21; 250 7; 251 7; 252 5; 253 17; 
254 6; 255 17; 256 11; 257 26; 258 10; 
259 35; 260 16; 261 13; 262 6; 263 17; 
264 4; 265 52; 266 12; 267 8; 268 3; 
269 15; 270 8; 271 28; 272 23; 273 40; 
274 12; 275 8; 276 2; 277 4; 278 2; 
279 9; 280 3; 281 10; 282 4; 283 20; 
284 6; 285 21; 286 11; 287 24; 288 7; 
289 42; 290 11; 291 11; 292 2; 293 33; 
294 8; 295 5; 296 4; 297 38; 298 12; 
299 14; 300 7; 301 26; 302 12; 303 446; 
304 118; 305 51; 306 10; 307 2; 311 2; 
312 3; 313 44; 314 18; 315 521; 316 141; 
317 59; 318 18; 319 4; 325 2; 326 1; 
327 11; 328 8; 329 67; 330 164; 331 49; 
332 13; 333 2; 339 1; 341 8; 342 7; 
343 288; 344 93; 345 25; 346 4; 353 1; 
354 1; 355 7; 356 2; 357 12; 358 19; 
359 5; 360 1; 367 3; 368 1; 369 41; 
370 15; 371 999; 372 305; 373 80; 374 13; 
375 1; 384 3; 385 33; 386 972; 387 304; 
388 81; 389 14; 390 1; 
