Name: Ethylphenethyl-FUBICA
InChIKey: HLWRZWWDBCHQNU-UHFFFAOYSA-N
Synon: 1-(4-Fluorobenzyl)-N-(1-phenylbutan-2-yl)-1H-indole-3-carboxamide
Formula: C26H25FN2O
MW: 400
ExactMass: 400.195091
CASNO: 0
ID: 4841
Comment: Provided by www.caymanchem.com/app/template/landing%2CForensic.vm / Item#23764 Batch#0517826
Num Peaks: 352
40 1; 41 4; 42 1; 43 1; 44 1; 
45 1; 46 1; 47 1; 48 1; 49 1; 
50 3; 51 7; 52 2; 53 1; 54 1; 
55 1; 56 5; 57 4; 58 2; 59 4; 
60 1; 61 1; 62 4; 63 12; 64 3; 
65 35; 66 2; 67 1; 68 1; 69 1; 
70 1; 71 1; 72 1; 73 4; 74 2; 
75 5; 76 3; 77 9; 78 5; 79 1; 
80 1; 81 1; 82 1; 83 61; 84 4; 
85 1; 86 1; 87 3; 88 8; 89 22; 
90 7; 91 205; 92 23; 93 2; 94 1; 
95 1; 96 2; 97 1; 98 1; 99 1; 
100 1; 101 5; 102 3; 103 4; 104 2; 
105 2; 106 1; 107 10; 108 7; 109 999; 
110 76; 111 4; 112 1; 113 1; 114 8; 
115 41; 116 11; 117 32; 118 6; 119 1; 
120 1; 121 1; 122 1; 123 1; 124 1; 
125 1; 126 1; 127 1; 128 8; 129 5; 
130 3; 131 4; 132 14; 133 3; 134 1; 
135 2; 136 1; 137 1; 138 1; 139 1; 
140 1; 141 1; 142 1; 143 39; 144 11; 
145 1; 146 1; 147 1; 148 1; 149 1; 
150 1; 151 1; 152 1; 153 1; 154 1; 
155 1; 156 2; 157 1; 158 1; 159 1; 
160 1; 161 1; 162 1; 163 1; 164 1; 
165 1; 166 1; 167 1; 168 1; 169 1; 
170 1; 171 1; 172 1; 173 1; 174 1; 
175 2; 176 2; 177 1; 178 1; 179 1; 
180 1; 181 1; 182 1; 183 1; 184 1; 
185 1; 186 1; 187 1; 188 1; 189 1; 
190 1; 191 2; 192 1; 193 1; 194 3; 
195 2; 196 4; 197 1; 198 1; 199 1; 
200 1; 201 1; 202 2; 203 1; 204 3; 
205 1; 206 1; 207 5; 208 1; 209 2; 
210 1; 211 1; 212 1; 213 1; 214 1; 
215 1; 216 1; 217 1; 218 1; 219 1; 
220 1; 221 4; 222 23; 223 8; 224 13; 
225 5; 226 1; 227 1; 228 1; 229 1; 
230 1; 231 1; 232 1; 233 1; 234 1; 
235 1; 236 1; 237 1; 238 1; 239 1; 
240 1; 241 1; 242 1; 243 1; 244 1; 
245 1; 246 1; 247 1; 248 1; 249 1; 
250 9; 251 1; 252 828; 253 147; 254 14; 
255 1; 256 1; 257 1; 258 1; 259 1; 
260 1; 261 1; 262 1; 263 1; 264 1; 
265 1; 266 1; 267 2; 268 93; 269 19; 
270 2; 271 1; 272 1; 273 1; 274 1; 
275 1; 276 1; 277 1; 278 1; 279 1; 
281 2; 282 1; 283 1; 284 1; 285 1; 
286 1; 287 1; 289 1; 290 1; 291 1; 
292 1; 293 2; 294 1; 295 1; 296 1; 
297 1; 298 1; 299 1; 300 1; 301 1; 
302 1; 303 1; 304 1; 305 1; 306 1; 
307 1; 308 1; 309 103; 310 22; 311 3; 
312 1; 313 1; 314 1; 315 1; 316 1; 
317 1; 318 1; 321 1; 323 1; 324 1; 
325 1; 326 1; 327 1; 328 1; 329 1; 
330 1; 331 1; 332 1; 333 1; 334 1; 
336 1; 337 1; 338 1; 339 1; 340 1; 
341 1; 342 1; 343 1; 344 1; 345 1; 
346 1; 347 1; 348 1; 349 1; 351 1; 
352 1; 353 1; 354 1; 355 1; 356 1; 
357 1; 358 1; 359 1; 360 1; 361 1; 
362 1; 363 1; 364 1; 366 1; 367 1; 
368 1; 369 1; 370 1; 371 1; 372 1; 
373 1; 374 1; 376 1; 377 1; 378 1; 
379 1; 380 1; 381 1; 382 1; 383 1; 
384 1; 385 1; 386 1; 387 1; 388 1; 
389 1; 390 1; 391 1; 392 1; 393 1; 
396 1; 397 1; 398 1; 399 1; 400 10; 
401 3; 402 1; 
