Name: (S)-Methamphetamine p-toluenesulfonamide
InChIKey: FSONJJCLDHBBJA-HNNXBMFYSA-N
Synon: (S)-Methamphetamine para-toluenesulfonamide
Synon: Tosyl-Methamphetamine
Synon: TS-Methamphetamine
Synon: N,4-dimethyl-N-[(1S)-1-methyl-2-phenylethyl]-benzenesulfonamide
Formula: C17H21NO2S
MW: 303
ExactMass: 303.1293
CASNO: 74810234
ID: 4843
Comment: Provided by www.caymanchem.com/app/template/landing%2CForensic.vm / Item#23605 Batch#0516950
Num Peaks: 246
40 2; 41 16; 42 79; 43 3; 44 1; 
45 1; 46 1; 47 1; 48 2; 49 1; 
50 7; 51 18; 52 6; 53 3; 54 4; 
55 4; 56 78; 57 22; 58 18; 59 1; 
60 1; 61 1; 62 6; 63 32; 64 13; 
65 186; 66 11; 67 3; 68 1; 69 1; 
70 1; 71 1; 72 1; 73 1; 74 2; 
75 3; 76 3; 77 22; 78 10; 79 7; 
80 1; 81 1; 82 1; 83 1; 84 1; 
85 1; 86 1; 87 1; 88 1; 89 53; 
90 32; 91 903; 92 74; 93 3; 94 1; 
95 1; 96 1; 97 1; 98 1; 99 1; 
100 1; 101 1; 102 2; 103 7; 104 4; 
105 6; 106 3; 107 2; 108 1; 109 1; 
110 1; 111 2; 112 1; 113 1; 114 1; 
115 11; 116 4; 117 15; 118 10; 119 3; 
120 1; 121 2; 122 1; 123 1; 124 1; 
125 1; 126 1; 127 1; 128 1; 129 1; 
130 3; 131 3; 132 18; 133 6; 134 1; 
135 1; 136 1; 137 1; 138 1; 139 18; 
140 2; 141 1; 142 1; 143 1; 144 1; 
145 1; 146 4; 147 5; 148 2; 149 1; 
150 1; 151 1; 152 2; 153 1; 154 1; 
155 450; 156 36; 157 22; 158 1; 159 1; 
160 1; 161 1; 162 1; 163 1; 164 1; 
165 5; 166 2; 167 1; 168 1; 169 1; 
170 1; 171 1; 172 1; 174 1; 175 1; 
176 1; 177 1; 178 1; 179 1; 180 1; 
181 2; 182 1; 183 1; 184 1; 185 1; 
186 1; 187 1; 188 1; 189 1; 190 1; 
191 1; 192 1; 193 1; 194 1; 195 1; 
196 1; 197 1; 198 1; 199 1; 200 1; 
201 1; 202 1; 203 1; 204 1; 205 1; 
206 1; 207 1; 208 1; 209 1; 210 1; 
211 1; 212 999; 213 140; 214 60; 215 6; 
216 1; 217 1; 219 1; 220 1; 221 1; 
222 1; 223 1; 224 1; 225 1; 226 1; 
227 1; 229 1; 231 1; 232 1; 234 1; 
235 1; 236 1; 237 1; 238 1; 239 1; 
240 1; 242 1; 244 1; 245 1; 246 1; 
247 1; 249 1; 250 1; 251 1; 252 1; 
253 1; 254 1; 255 1; 257 1; 259 1; 
262 1; 263 1; 265 1; 266 1; 267 1; 
268 1; 269 1; 271 1; 272 1; 273 1; 
274 1; 275 1; 276 1; 277 1; 278 1; 
279 1; 281 1; 282 1; 283 1; 284 1; 
285 1; 286 1; 287 1; 288 3; 289 1; 
290 1; 291 1; 293 1; 295 1; 296 1; 
297 1; 300 1; 302 1; 303 1; 304 1; 
305 1; 
