Name: CUMYL-PeGACLONE
InChIKey: AWHWTKXMUJLSRM-UHFFFAOYSA-N
Synon: SGT-151
Synon: 2,5-Dihydro-2-(1-methyl-1-phenylethyl)-5-pentyl-1H-pyrido[4,3-b]indol-1-one
Formula: C25H28N2O
MW: 372
ExactMass: 372.220163
CASNO: 0
ID: 4844
Comment: Provided by www.caymanchem.com/app/template/landing%2CForensic.vm / Item#22696 Batch#0519069
Num Peaks: 298
41 83; 42 7; 43 25; 45 7; 46 1; 
47 1; 48 1; 49 2; 50 20; 51 69; 
52 17; 53 8; 54 1; 55 4; 56 2; 
57 1; 58 21; 59 3; 60 1; 61 4; 
62 12; 63 46; 64 8; 65 38; 66 4; 
67 3; 68 2; 69 1; 70 1; 71 1; 
72 1; 73 27; 74 13; 75 22; 76 27; 
77 161; 78 148; 79 57; 80 5; 81 1; 
82 1; 83 1; 84 1; 85 3; 86 4; 
87 6; 88 4; 89 33; 90 12; 91 331; 
92 25; 93 1; 94 1; 95 1; 96 1; 
97 1; 98 2; 99 2; 100 4; 101 12; 
102 47; 103 245; 104 32; 105 84; 106 6; 
107 1; 108 1; 109 1; 110 1; 111 1; 
112 1; 113 12; 114 19; 115 161; 116 34; 
117 317; 118 371; 119 176; 120 41; 121 5; 
122 1; 123 1; 124 1; 125 1; 126 6; 
127 19; 128 42; 129 21; 130 5; 131 2; 
132 2; 133 3; 134 3; 135 11; 136 2; 
137 1; 138 1; 139 3; 140 31; 141 20; 
142 12; 143 2; 144 1; 145 1; 146 3; 
147 6; 148 2; 149 3; 150 1; 151 1; 
152 11; 153 7; 154 12; 155 53; 156 8; 
157 4; 158 3; 159 1; 161 1; 163 3; 
164 1; 165 1; 166 7; 167 21; 168 46; 
169 45; 170 17; 171 4; 172 1; 175 1; 
176 1; 177 3; 178 1; 179 95; 180 10; 
181 7; 182 7; 183 11; 184 23; 185 7; 
186 1; 187 2; 188 1; 189 1; 190 1; 
191 7; 192 4; 193 6; 194 4; 195 20; 
196 8; 197 468; 198 72; 199 4; 200 1; 
201 1; 202 1; 203 1; 204 1; 205 1; 
206 1; 207 27; 208 3; 209 13; 210 5; 
211 4; 212 3; 213 1; 214 1; 215 1; 
216 1; 217 1; 218 1; 219 1; 220 1; 
221 3; 222 1; 223 5; 224 2; 225 34; 
226 7; 227 1; 229 1; 230 1; 231 1; 
232 1; 233 1; 234 1; 235 1; 236 1; 
237 2; 238 1; 239 3; 240 1; 241 1; 
242 1; 243 1; 244 1; 245 1; 246 1; 
247 1; 248 1; 249 4; 250 1; 251 3; 
252 2; 253 34; 254 999; 255 185; 256 17; 
257 2; 258 1; 259 1; 262 1; 264 1; 
265 2; 266 1; 267 2; 268 2; 269 2; 
270 1; 271 1; 272 1; 273 1; 274 1; 
277 1; 279 1; 280 1; 281 9; 282 4; 
283 2; 284 2; 285 1; 288 1; 292 1; 
293 1; 294 1; 295 1; 297 1; 298 1; 
299 1; 301 1; 302 1; 304 1; 305 1; 
307 1; 309 1; 311 1; 312 1; 313 1; 
314 1; 315 2; 316 1; 317 1; 318 1; 
319 1; 325 3; 326 2; 327 5; 328 1; 
329 1; 330 1; 331 2; 332 1; 333 1; 
335 1; 336 1; 337 1; 338 1; 339 1; 
340 1; 341 7; 342 1; 343 3; 344 1; 
345 1; 346 3; 347 1; 348 1; 351 1; 
354 1; 355 4; 356 1; 357 1; 358 1; 
359 1; 360 1; 362 1; 363 1; 366 1; 
367 1; 368 1; 369 1; 370 1; 371 1; 
372 26; 373 14; 374 2; 
