Name: ortho-Methyl Acetyl fentanyl
InChIKey: GRDWUDZBHWHLSH-UHFFFAOYSA-N
Synon: 2-Methyl Acetyl fentanyl
Synon: o-Methyl Acetyl fentanyl
Synon: N-(2-methylphenyl)-N-[1-(2-phenylethyl)-4-piperidinyl]-acetamide
Formula: C22H28N2O
MW: 336
ExactMass: 336.220163
CASNO: 0
ID: 4845
Comment: Provided by www.caymanchem.com/app/template/landing%2CForensic.vm / Item#23548 Batch#0516520
Num Peaks: 282
40 1; 41 39; 42 174; 43 211; 44 97; 
45 3; 46 1; 47 1; 48 1; 49 1; 
50 6; 51 17; 52 8; 53 11; 54 13; 
55 24; 56 22; 57 13; 58 2; 59 1; 
60 1; 61 1; 62 3; 63 12; 64 4; 
65 84; 66 8; 67 28; 68 27; 69 27; 
70 44; 71 5; 72 2; 73 1; 74 2; 
75 2; 76 5; 77 82; 78 33; 79 68; 
80 16; 81 6; 82 28; 83 4; 84 6; 
85 1; 86 1; 87 1; 88 1; 89 23; 
90 16; 91 324; 92 31; 93 9; 94 19; 
95 23; 96 141; 97 18; 98 5; 99 1; 
100 1; 101 1; 102 7; 103 52; 104 43; 
105 198; 106 49; 107 34; 108 19; 109 2; 
110 1; 111 1; 112 1; 113 1; 114 1; 
115 11; 116 6; 117 49; 118 94; 119 14; 
120 17; 121 2; 122 1; 123 1; 124 1; 
125 1; 126 1; 127 2; 128 5; 129 6; 
130 67; 131 34; 132 80; 133 12; 134 14; 
135 2; 136 1; 137 1; 138 1; 139 5; 
140 1; 141 1; 142 2; 143 8; 144 58; 
145 44; 146 66; 147 8; 148 3; 149 7; 
150 6; 151 1; 152 1; 153 1; 154 1; 
155 1; 156 4; 157 2; 158 13; 159 7; 
160 646; 161 79; 162 7; 163 1; 164 1; 
165 1; 166 1; 167 1; 168 1; 169 1; 
170 2; 171 2; 172 110; 173 22; 174 5; 
175 1; 176 1; 177 1; 178 1; 179 1; 
180 1; 181 1; 182 1; 183 1; 184 8; 
185 7; 186 25; 187 8; 188 10; 189 1; 
190 1; 191 1; 192 1; 193 1; 194 1; 
195 1; 196 1; 197 1; 198 1; 199 1; 
200 1; 201 1; 202 432; 203 176; 204 22; 
205 2; 206 1; 207 1; 208 1; 209 1; 
210 1; 211 1; 212 1; 213 1; 214 1; 
215 1; 216 7; 217 1; 218 1; 219 1; 
220 1; 221 1; 222 1; 223 1; 224 1; 
225 1; 226 1; 227 1; 228 1; 229 1; 
230 1; 231 1; 232 1; 233 1; 234 1; 
235 1; 236 1; 237 1; 238 1; 239 1; 
240 1; 241 1; 242 1; 243 1; 244 1; 
245 999; 246 163; 247 14; 248 1; 249 1; 
250 1; 251 1; 252 1; 253 1; 254 1; 
255 1; 256 1; 257 1; 258 1; 259 1; 
260 1; 262 1; 263 1; 264 1; 265 1; 
266 1; 267 1; 268 1; 269 1; 270 1; 
272 1; 273 1; 274 1; 275 1; 277 1; 
278 1; 281 1; 282 1; 283 1; 284 1; 
285 1; 287 1; 288 1; 289 1; 290 1; 
291 1; 292 1; 293 1; 294 1; 295 1; 
297 1; 301 1; 302 1; 305 1; 307 1; 
308 1; 311 1; 312 1; 313 1; 314 1; 
315 1; 316 1; 317 1; 318 1; 319 1; 
320 1; 321 1; 323 1; 324 1; 325 1; 
326 1; 327 1; 328 1; 329 1; 330 1; 
331 1; 332 1; 333 1; 334 4; 335 1; 
336 1; 337 1; 
