Name: para-Fluoro Crotonyl fentanyl
InChIKey: AXNCZLWDQLHJBM-QHHAFSJGSA-N
Synon: 4-Fluoro Crotonyl fentanyl
Synon: p-Fluoro Crotonyl fentanyl
Synon: (E)-N-(4-fluorophenyl)-N-(1-phenethylpiperidin-4-yl)but-2-enamide
Formula: C23H27FN2O
MW: 366
ExactMass: 366.210741
CASNO: 0
ID: 4846
Comment: Provided by www.caymanchem.com/app/template/landing%2CForensic.vm / Item#23544 Batch#0518813
Num Peaks: 311
40 8; 41 148; 42 130; 43 22; 44 57; 
45 2; 46 1; 47 1; 48 1; 49 1; 
50 4; 51 9; 52 4; 53 8; 54 10; 
55 21; 56 20; 57 17; 58 2; 59 1; 
60 1; 61 1; 62 2; 63 7; 64 2; 
65 33; 66 4; 67 20; 68 31; 69 666; 
70 74; 71 6; 72 1; 73 1; 74 2; 
75 17; 76 3; 77 45; 78 16; 79 47; 
80 10; 81 5; 82 23; 83 13; 84 11; 
85 1; 86 1; 87 1; 88 1; 89 9; 
90 5; 91 142; 92 15; 93 3; 94 15; 
95 79; 96 133; 97 16; 98 5; 99 1; 
100 2; 101 2; 102 4; 103 40; 104 24; 
105 157; 106 14; 107 3; 108 5; 109 22; 
110 8; 111 19; 112 6; 113 1; 114 1; 
115 5; 116 2; 117 8; 118 2; 119 1; 
120 1; 121 6; 122 50; 123 17; 124 10; 
125 1; 126 1; 127 1; 128 2; 129 2; 
130 15; 131 5; 132 8; 133 5; 134 8; 
135 20; 136 39; 137 15; 138 5; 139 8; 
140 1; 141 1; 142 1; 143 1; 144 3; 
145 1; 146 4; 147 2; 148 53; 149 41; 
150 57; 151 10; 152 3; 153 1; 154 1; 
155 1; 156 1; 157 1; 158 3; 159 1; 
160 17; 161 4; 162 17; 163 10; 164 310; 
165 35; 166 3; 167 1; 168 1; 169 1; 
170 1; 171 1; 172 1; 173 1; 174 1; 
175 1; 176 50; 177 13; 178 5; 179 5; 
180 4; 181 1; 182 1; 183 1; 184 6; 
185 4; 186 23; 187 4; 188 10; 189 2; 
190 2; 191 3; 192 1; 193 1; 194 1; 
195 1; 196 1; 197 1; 198 1; 199 1; 
200 1; 201 1; 202 1; 203 1; 204 1; 
205 15; 207 425; 208 56; 209 4; 210 1; 
211 1; 212 1; 213 1; 214 1; 215 1; 
216 1; 217 1; 218 1; 219 1; 220 1; 
221 1; 222 1; 223 1; 224 1; 225 1; 
226 1; 227 1; 228 1; 229 1; 230 1; 
232 90; 233 14; 234 1; 235 1; 236 1; 
237 1; 238 1; 239 1; 240 1; 241 1; 
242 1; 243 1; 244 1; 245 1; 246 4; 
247 1; 248 1; 249 1; 250 1; 251 1; 
252 1; 253 1; 254 1; 255 1; 256 1; 
257 1; 258 1; 259 1; 260 1; 261 1; 
262 1; 263 1; 264 1; 265 1; 266 1; 
267 1; 268 1; 269 1; 270 1; 271 1; 
272 1; 273 1; 275 999; 276 172; 277 16; 
278 1; 279 1; 280 1; 281 1; 282 1; 
283 1; 284 1; 285 1; 287 1; 288 1; 
289 1; 290 1; 291 1; 292 1; 293 1; 
294 1; 295 1; 297 8; 298 2; 299 1; 
300 1; 301 1; 302 1; 304 1; 307 1; 
308 1; 309 1; 310 1; 311 1; 312 1; 
313 1; 314 1; 315 1; 316 1; 317 1; 
319 1; 320 1; 322 1; 323 1; 324 1; 
325 1; 326 1; 327 1; 328 1; 329 1; 
330 1; 331 1; 332 1; 333 1; 334 1; 
335 1; 337 1; 339 1; 340 1; 341 1; 
342 1; 343 1; 344 1; 346 1; 347 1; 
348 1; 349 1; 350 1; 351 1; 352 1; 
353 1; 355 1; 356 1; 357 1; 358 1; 
360 1; 363 1; 364 2; 365 1; 366 1; 
367 1; 
