Name: Cannabigerorcinic Acid
InChIKey: IWEPIJRDQIRPIT-XYOKQWHBSA-N
Synon: Cannabigerorcinolic Acid
Synon: Cannabiorcogerolic Acid
Synon: CBGOA
Synon: 3-[(2E)-3,7-dimethyl-2,6-octadien-1-yl]-2,4-dihydroxy-6-methyl-benzoic acid
Formula: C18H24O4
MW: 304
ExactMass: 304.16746
CASNO: 69734834
ID: 4847
Comment: Provided by www.caymanchem.com/app/template/landing%2CForensic.vm / Item#23258 Batch#0518755
Num Peaks: 223
40 6; 41 313; 42 15; 43 90; 44 2; 
45 1; 46 1; 47 1; 48 1; 49 1; 
50 6; 51 23; 52 12; 53 79; 54 12; 
55 56; 56 5; 57 5; 58 1; 59 1; 
60 1; 61 1; 62 3; 63 12; 64 5; 
65 51; 66 17; 67 88; 68 12; 69 262; 
70 15; 71 2; 72 1; 73 1; 74 2; 
75 4; 76 4; 77 114; 78 27; 79 118; 
80 36; 81 72; 82 11; 83 12; 84 1; 
85 1; 86 1; 87 2; 88 1; 89 10; 
90 6; 91 114; 92 18; 93 44; 94 16; 
95 21; 96 3; 97 2; 98 1; 99 1; 
100 1; 101 2; 102 6; 103 25; 104 7; 
105 40; 106 6; 107 71; 108 62; 109 62; 
110 7; 111 2; 112 1; 113 1; 114 1; 
115 50; 116 13; 117 22; 118 5; 119 15; 
120 5; 121 235; 122 195; 123 203; 124 43; 
125 9; 126 2; 127 15; 128 38; 129 32; 
130 16; 131 33; 132 13; 133 11; 134 6; 
135 59; 136 66; 137 999; 138 178; 139 22; 
140 3; 141 10; 142 3; 143 5; 144 7; 
145 47; 146 9; 147 35; 148 25; 149 178; 
150 35; 151 38; 152 7; 153 4; 154 2; 
155 9; 156 2; 157 16; 158 33; 159 13; 
160 9; 161 59; 162 30; 163 232; 164 33; 
165 6; 166 1; 167 1; 168 1; 169 1; 
170 1; 171 3; 172 3; 173 36; 174 14; 
175 328; 176 60; 177 113; 178 22; 179 3; 
180 1; 181 1; 182 1; 183 1; 184 1; 
185 1; 186 1; 187 5; 188 2; 189 37; 
190 17; 191 88; 192 14; 193 2; 194 1; 
195 1; 196 1; 197 1; 198 1; 199 1; 
200 1; 201 1; 203 26; 204 11; 205 3; 
206 1; 207 1; 208 1; 209 1; 210 1; 
211 1; 212 1; 213 1; 214 1; 215 1; 
216 1; 217 40; 218 7; 219 1; 220 1; 
221 1; 222 1; 223 1; 225 1; 227 1; 
228 1; 229 1; 231 1; 232 1; 239 1; 
240 1; 241 1; 242 1; 243 1; 244 1; 
245 10; 246 2; 247 1; 248 1; 249 1; 
251 1; 253 1; 254 1; 255 1; 256 1; 
257 1; 258 1; 260 105; 261 19; 262 2; 
263 1; 265 1; 266 1; 267 1; 268 1; 
269 1; 271 1; 279 1; 281 1; 282 1; 
283 1; 284 1; 296 1; 
