Name: ortho-Methyl Cyclopropyl fentanyl
InChIKey: BFQXWRBDVXLPEX-UHFFFAOYSA-N
Synon: 2-Methyl Cyclopropyl fentanyl
Synon: o-Methyl Cyclopropyl fentanyl
Synon: N-(1-phenethylpiperidin-4-yl)-N-(o-tolyl)cyclopropanecarboxamide
Formula: C24H30N2O
MW: 362
ExactMass: 362.235813
CASNO: 0
ID: 4849
Comment: Provided by www.caymanchem.com/app/template/landing%2CForensic.vm / Item#23043 Batch#0518730
Num Peaks: 302
40 4; 41 215; 42 143; 43 21; 44 56; 
45 2; 46 1; 47 1; 48 1; 49 1; 
50 5; 51 14; 52 7; 53 10; 54 12; 
55 31; 56 21; 57 15; 58 3; 59 1; 
60 1; 61 1; 62 2; 63 10; 64 4; 
65 69; 66 6; 67 24; 68 33; 69 408; 
70 70; 71 7; 72 1; 73 2; 74 2; 
75 2; 76 4; 77 68; 78 28; 79 64; 
80 14; 81 5; 82 28; 83 4; 84 7; 
85 2; 86 1; 87 1; 88 1; 89 19; 
90 14; 91 288; 92 27; 93 7; 94 19; 
95 23; 96 147; 97 19; 98 5; 99 1; 
100 1; 101 1; 102 6; 103 50; 104 43; 
105 219; 106 37; 107 35; 108 13; 109 2; 
110 1; 111 1; 112 2; 113 1; 114 1; 
115 12; 116 8; 117 43; 118 84; 119 13; 
120 11; 121 1; 122 1; 123 1; 124 1; 
125 1; 126 1; 127 1; 128 6; 129 7; 
130 59; 131 28; 132 48; 133 10; 134 14; 
135 1; 136 1; 137 1; 138 1; 139 6; 
140 1; 141 1; 142 2; 143 8; 144 56; 
145 38; 146 56; 147 8; 148 3; 149 1; 
150 1; 151 1; 152 1; 153 1; 154 1; 
155 1; 156 5; 157 3; 158 17; 159 8; 
160 581; 161 71; 162 6; 163 1; 164 1; 
165 1; 166 1; 167 1; 168 1; 169 1; 
170 3; 171 2; 172 65; 173 18; 174 5; 
175 7; 176 4; 177 1; 178 1; 179 1; 
180 1; 181 1; 182 1; 183 1; 184 9; 
185 8; 186 28; 187 10; 188 20; 189 3; 
190 1; 191 1; 192 1; 193 1; 194 1; 
195 1; 196 1; 197 1; 198 1; 199 1; 
200 2; 201 13; 202 1; 203 494; 204 71; 
205 5; 206 1; 207 1; 208 1; 209 1; 
210 1; 211 1; 212 1; 213 1; 214 2; 
215 1; 216 1; 217 1; 218 1; 219 1; 
220 1; 221 1; 222 1; 223 1; 224 1; 
225 1; 226 1; 227 1; 228 124; 229 22; 
230 2; 231 1; 232 1; 233 1; 234 1; 
235 1; 236 1; 237 1; 238 1; 239 1; 
240 1; 241 1; 242 5; 243 2; 244 1; 
245 1; 246 1; 247 1; 248 1; 249 1; 
250 1; 251 1; 252 1; 253 1; 254 1; 
255 1; 256 1; 257 1; 258 1; 259 1; 
260 1; 261 1; 262 1; 263 1; 264 1; 
265 1; 266 1; 267 1; 268 1; 269 1; 
271 999; 272 187; 273 19; 274 1; 275 1; 
277 1; 278 1; 280 1; 281 1; 282 1; 
283 1; 284 1; 285 1; 286 1; 287 1; 
288 1; 289 1; 290 1; 291 1; 292 1; 
293 2; 294 1; 295 1; 297 1; 298 1; 
299 1; 303 1; 304 1; 307 1; 308 1; 
309 1; 310 1; 311 1; 313 1; 314 1; 
315 1; 316 1; 317 1; 318 1; 319 1; 
321 1; 322 1; 323 1; 325 1; 326 1; 
327 1; 328 1; 329 1; 330 1; 331 1; 
332 1; 333 1; 334 1; 339 1; 340 1; 
341 1; 342 1; 343 1; 344 1; 345 1; 
346 1; 347 1; 348 1; 351 1; 355 1; 
356 1; 357 1; 358 1; 360 4; 361 1; 
362 1; 363 1; 
