Name: ortho-Methyl Acrylfentanyl
InChIKey: OGVFVSLKWMUIGR-UHFFFAOYSA-N
Synon: 2-Methyl Acrylfentanyl
Synon: o-Methyl Acrylfentanyl
Synon: 2-Methyl Acryloylfentanyl
Synon: o-Methyl Acryloylfentanyl
Synon: N-(1-phenethylpiperidin-4-yl)-N-(o-tolyl)acrylamide
Formula: C23H28N2O
MW: 348
ExactMass: 348.220163
CASNO: 0
ID: 4850
Comment: Provided by www.caymanchem.com/app/template/landing%2CForensic.vm / Item#23036 Batch#0518530
Num Peaks: 282
40 1; 41 40; 42 162; 43 22; 44 73; 
45 2; 46 1; 47 1; 48 1; 49 1; 
50 5; 51 16; 52 7; 53 11; 54 16; 
55 314; 56 32; 57 14; 58 3; 59 1; 
60 1; 61 1; 62 2; 63 12; 64 4; 
65 84; 66 7; 67 27; 68 28; 69 29; 
70 45; 71 6; 72 1; 73 1; 74 2; 
75 5; 76 5; 77 76; 78 30; 79 67; 
80 15; 81 6; 82 27; 83 5; 84 7; 
85 1; 86 1; 87 1; 88 1; 89 22; 
90 16; 91 329; 92 30; 93 6; 94 18; 
95 19; 96 163; 97 19; 98 8; 99 1; 
100 1; 101 1; 102 7; 103 53; 104 43; 
105 202; 106 34; 107 19; 108 11; 109 2; 
110 1; 111 1; 112 1; 113 1; 114 1; 
115 16; 116 9; 117 49; 118 84; 119 13; 
120 13; 121 2; 122 1; 123 1; 124 1; 
125 1; 126 1; 127 2; 128 6; 129 6; 
130 60; 131 29; 132 50; 133 10; 134 14; 
135 2; 136 1; 137 1; 138 1; 139 7; 
140 1; 141 1; 142 3; 143 10; 144 82; 
145 41; 146 62; 147 8; 148 2; 149 1; 
150 1; 151 1; 152 1; 153 1; 154 1; 
155 1; 156 4; 157 3; 158 14; 159 7; 
160 500; 161 63; 162 10; 163 1; 164 1; 
165 1; 166 1; 167 1; 168 1; 169 1; 
170 3; 171 3; 172 132; 173 26; 174 5; 
175 1; 176 1; 177 1; 178 1; 179 1; 
180 1; 181 1; 182 1; 183 1; 184 10; 
185 6; 186 32; 187 10; 188 14; 189 2; 
190 1; 191 1; 192 1; 193 1; 194 1; 
195 1; 196 1; 197 1; 198 1; 199 1; 
200 1; 201 13; 202 7; 203 99; 204 15; 
205 1; 206 1; 207 1; 208 1; 209 1; 
210 1; 211 1; 212 1; 213 1; 214 511; 
215 78; 216 7; 217 1; 218 1; 219 1; 
220 1; 221 1; 222 1; 223 1; 224 1; 
225 1; 226 1; 227 1; 228 5; 229 2; 
230 1; 231 1; 232 1; 233 1; 234 1; 
236 1; 237 1; 238 1; 239 1; 240 1; 
241 1; 242 1; 243 1; 244 1; 245 1; 
246 1; 247 1; 248 1; 249 1; 250 1; 
251 1; 252 1; 253 1; 254 1; 255 1; 
257 999; 258 173; 259 19; 260 2; 261 1; 
262 1; 263 1; 264 1; 265 1; 266 1; 
267 1; 268 1; 269 1; 270 1; 271 1; 
276 1; 277 1; 278 1; 281 1; 282 1; 
283 1; 284 1; 285 1; 289 1; 290 1; 
291 1; 292 1; 293 2; 294 1; 295 1; 
301 1; 302 1; 304 1; 306 1; 307 1; 
309 1; 311 1; 312 1; 313 1; 314 1; 
315 1; 316 1; 317 1; 319 1; 321 1; 
322 1; 323 1; 324 1; 325 1; 326 1; 
327 1; 328 1; 329 1; 330 1; 331 1; 
332 1; 333 1; 334 1; 341 1; 342 1; 
343 1; 344 1; 345 1; 346 2; 347 1; 
348 1; 349 1; 
