Name: alpha-Pyrrolidinoisohexanophenone
InChIKey: UOZWZANRCOALQL-UHFFFAOYSA-N
Synon: .alpha.-PiHP
Synon: 4-Methyl-1-phenyl-2-(pyrrolidin-1-yl)pentan-1-one, monohydrochloride
Formula: C16H23NO
MW: 245
ExactMass: 245.177964
CASNO: 0
ID: 4853
Comment: Provided by www.caymanchem.com/app/template/landing%2CForensic.vm / Item#21682  Batch#0501111
Num Peaks: 205
40 2; 41 57; 42 27; 43 25; 44 5; 
45 1; 46 1; 47 1; 48 1; 49 1; 
50 8; 51 35; 52 4; 53 7; 54 19; 
55 33; 56 43; 57 4; 58 1; 59 1; 
60 1; 61 1; 62 1; 63 2; 64 1; 
65 3; 66 1; 67 7; 68 18; 69 40; 
70 23; 71 2; 72 1; 73 1; 74 3; 
75 3; 76 9; 77 188; 78 20; 79 5; 
80 6; 81 5; 82 8; 83 2; 84 66; 
85 4; 86 1; 87 1; 88 1; 89 2; 
90 1; 91 15; 92 2; 93 1; 94 10; 
95 4; 96 58; 97 28; 98 155; 99 11; 
100 1; 101 1; 102 2; 103 4; 104 3; 
105 90; 106 8; 107 1; 108 3; 109 1; 
110 9; 111 1; 112 1; 113 1; 114 1; 
115 6; 116 2; 117 3; 118 2; 119 1; 
120 4; 121 1; 122 2; 123 1; 124 20; 
125 2; 126 1; 127 1; 128 2; 129 2; 
130 2; 131 3; 132 1; 133 2; 134 1; 
135 1; 136 2; 137 1; 138 17; 139 5; 
140 999; 141 110; 142 5; 143 1; 144 1; 
145 1; 146 1; 147 1; 148 1; 149 1; 
150 1; 151 1; 152 1; 153 1; 154 1; 
155 1; 156 1; 157 1; 158 1; 159 2; 
160 5; 161 1; 162 1; 163 1; 164 1; 
165 1; 166 1; 167 1; 168 1; 169 1; 
170 1; 171 1; 172 1; 173 1; 174 1; 
175 1; 176 1; 177 1; 178 1; 179 1; 
180 1; 181 1; 182 1; 183 1; 184 1; 
185 1; 186 3; 187 1; 188 19; 189 3; 
190 1; 191 1; 192 1; 193 1; 194 1; 
195 1; 196 1; 197 1; 198 1; 199 1; 
200 2; 201 1; 202 1; 203 1; 204 1; 
205 1; 206 1; 207 1; 208 1; 209 1; 
210 1; 211 1; 212 1; 213 1; 214 1; 
215 1; 216 1; 217 1; 218 1; 219 1; 
220 1; 221 1; 222 1; 223 1; 224 1; 
225 1; 226 1; 227 1; 228 5; 229 1; 
230 1; 231 1; 232 1; 233 1; 236 1; 
237 1; 238 1; 239 1; 240 1; 241 1; 
242 1; 243 2; 244 1; 245 1; 246 1; 
