Name: Sufentanil-d5
InChIKey: GGCSSNBKKAUURC-WNWXXORZSA-N
Synon: N-[4-(Methoxymethyl)-1-[2-(2-thienyl)ethyl]-4-piperidinyl]-N-phenyl-propanamide-2,2,3,3,3-d5
Formula: C22H25D5N2O2S
MW: 391
ExactMass: 391.234182
CASNO: 1884682169
ID: 4854
Comment: Provided by www.caymanchem.com/app/template/landing%2CForensic.vm / Item#18571 Batch#0517245
Num Peaks: 346
41 21; 42 90; 43 7; 44 4; 45 71; 
46 2; 47 1; 48 1; 49 1; 50 3; 
51 10; 52 4; 53 21; 54 6; 55 13; 
56 10; 57 5; 58 6; 59 3; 60 2; 
61 11; 62 98; 63 8; 64 5; 65 20; 
66 11; 67 35; 68 10; 69 14; 70 13; 
71 14; 72 2; 73 2; 74 1; 75 1; 
76 3; 77 90; 78 19; 79 53; 80 13; 
81 34; 82 18; 83 14; 84 7; 85 11; 
86 6; 87 1; 88 1; 89 1; 90 1; 
91 16; 92 8; 93 17; 94 78; 95 29; 
96 64; 97 110; 98 10; 99 8; 100 2; 
101 1; 102 1; 103 4; 104 9; 105 8; 
106 18; 107 117; 108 78; 109 22; 110 168; 
111 127; 112 13; 113 5; 114 1; 115 2; 
116 2; 117 10; 118 15; 119 16; 120 6; 
121 3; 122 2; 123 4; 124 4; 125 3; 
126 9; 127 4; 128 3; 129 4; 130 51; 
131 11; 132 13; 133 6; 134 2; 135 3; 
136 12; 137 93; 138 24; 139 6; 140 216; 
141 22; 142 7; 143 5; 144 18; 145 17; 
146 19; 147 14; 148 3; 149 2; 150 1; 
151 1; 152 5; 153 3; 154 11; 155 8; 
156 4; 157 3; 158 54; 159 24; 160 4; 
161 3; 162 1; 163 1; 164 1; 165 1; 
166 7; 167 3; 168 1; 169 1; 170 3; 
171 2; 172 3; 173 5; 174 5; 175 6; 
176 4; 177 2; 178 1; 179 1; 180 1; 
181 1; 182 1; 183 1; 184 1; 185 1; 
186 1; 187 39; 188 9; 189 2; 190 3; 
191 3; 192 12; 193 2; 194 1; 195 1; 
196 1; 197 1; 198 1; 199 1; 200 2; 
201 9; 202 10; 203 2; 204 2; 205 1; 
206 6; 207 5; 208 2; 209 1; 210 1; 
211 1; 212 1; 213 1; 214 1; 215 1; 
216 1; 217 1; 218 1; 219 1; 220 1; 
221 1; 222 1; 223 1; 224 1; 225 1; 
226 1; 227 1; 228 1; 229 1; 230 1; 
231 2; 232 3; 233 3; 234 10; 235 4; 
236 9; 237 2; 238 12; 239 2; 240 1; 
241 1; 242 1; 243 1; 244 1; 245 1; 
246 1; 247 1; 248 1; 249 1; 250 1; 
251 3; 252 1; 253 1; 254 1; 255 1; 
256 1; 257 1; 258 1; 259 1; 260 1; 
261 1; 262 1; 263 1; 264 1; 265 1; 
266 1; 267 1; 268 1; 269 1; 270 1; 
271 1; 272 1; 273 1; 274 1; 275 1; 
276 1; 277 1; 278 1; 279 1; 280 1; 
281 1; 282 1; 283 1; 284 1; 285 1; 
286 3; 287 1; 288 1; 289 1; 290 1; 
291 1; 292 1; 293 93; 294 999; 295 197; 
296 21; 297 2; 298 1; 299 1; 300 1; 
301 1; 302 1; 303 1; 304 1; 306 1; 
307 1; 308 1; 309 1; 310 1; 311 1; 
312 1; 313 1; 314 1; 315 1; 316 1; 
317 1; 318 1; 319 1; 320 1; 321 1; 
322 1; 323 1; 324 1; 325 1; 326 1; 
327 1; 328 1; 329 1; 330 1; 331 1; 
332 1; 333 1; 334 1; 335 1; 336 1; 
337 1; 339 1; 340 1; 341 1; 342 1; 
343 1; 344 1; 345 1; 346 4; 347 1; 
348 1; 349 1; 351 1; 352 1; 353 1; 
354 1; 355 1; 356 1; 357 1; 358 1; 
359 1; 360 1; 361 1; 362 1; 363 1; 
365 1; 366 1; 367 1; 368 1; 369 1; 
370 1; 371 1; 372 1; 373 1; 374 1; 
375 1; 376 1; 377 1; 378 1; 379 1; 
380 1; 383 1; 384 1; 385 1; 386 1; 
387 1; 388 1; 389 1; 390 1; 391 1; 
392 1; 
