Name: para-Methoxy Acrylfentanyl
InChIKey: OPFSSCQJIGSMRG-UHFFFAOYSA-N
Synon: 4-Methoxy Acrylfentanyl
Synon: p-Methoxy Acrylfentanyl
Synon: N-(4-methoxyphenyl)-N-(1-phenethylpiperidin-4-yl)acrylamide
Formula: C23H28N2O2
MW: 364
ExactMass: 364.215078
CASNO: 0
ID: 4855
Comment: Provided by www.caymanchem.com/app/template/landing%2CForensic.vm / Item#23192 Batch#0513958
Num Peaks: 325
40 1; 41 46; 42 165; 43 15; 44 54; 
45 2; 46 1; 47 1; 48 1; 49 2; 
50 8; 51 24; 52 21; 53 19; 54 19; 
55 342; 56 34; 57 12; 58 4; 59 1; 
60 1; 61 2; 62 5; 63 22; 64 19; 
65 64; 66 5; 67 33; 68 36; 69 30; 
70 79; 71 8; 72 1; 73 19; 74 6; 
75 7; 76 8; 77 112; 78 55; 79 87; 
80 33; 81 6; 82 29; 83 8; 84 8; 
85 1; 86 1; 87 2; 88 1; 89 15; 
90 14; 91 244; 92 53; 93 12; 94 29; 
95 17; 96 228; 97 32; 98 14; 99 1; 
100 1; 101 2; 102 8; 103 67; 104 61; 
105 232; 106 23; 107 30; 108 65; 109 11; 
110 3; 111 1; 112 1; 113 1; 114 1; 
115 7; 116 6; 117 26; 118 14; 119 13; 
120 11; 121 24; 122 41; 123 78; 124 14; 
125 1; 126 1; 127 1; 128 3; 129 3; 
130 25; 131 14; 132 29; 133 22; 134 79; 
135 27; 136 17; 137 1; 138 2; 139 25; 
140 2; 141 2; 142 1; 143 4; 144 10; 
145 17; 146 27; 147 22; 148 34; 149 23; 
150 11; 151 2; 152 1; 153 1; 154 3; 
155 1; 156 5; 157 2; 158 7; 159 4; 
160 97; 161 39; 162 67; 163 6; 164 1; 
165 1; 166 1; 167 1; 168 1; 169 1; 
170 1; 171 1; 172 2; 173 2; 174 13; 
175 17; 176 489; 177 113; 178 10; 179 3; 
180 1; 181 1; 182 3; 183 1; 184 20; 
185 9; 186 19; 187 12; 188 178; 189 30; 
190 5; 191 6; 192 1; 193 2; 194 1; 
195 2; 196 1; 197 1; 198 1; 199 1; 
200 2; 201 1; 202 11; 203 4; 204 1; 
205 1; 206 1; 207 24; 208 5; 209 3; 
210 1; 211 1; 212 1; 213 1; 214 1; 
215 1; 216 1; 217 18; 218 25; 219 87; 
220 6; 221 1; 222 1; 223 1; 224 1; 
225 1; 226 1; 227 1; 228 2; 229 1; 
230 463; 231 74; 232 8; 233 1; 234 1; 
235 1; 236 1; 237 1; 238 1; 239 1; 
240 1; 241 1; 242 1; 243 1; 244 3; 
245 2; 246 1; 247 1; 248 1; 249 4; 
250 1; 251 1; 252 1; 253 14; 254 3; 
255 2; 256 1; 257 1; 258 1; 259 1; 
260 1; 261 1; 262 1; 263 1; 264 1; 
265 1; 266 1; 267 7; 268 2; 269 1; 
270 1; 271 5; 272 1; 273 999; 274 179; 
275 20; 276 3; 277 1; 278 1; 279 1; 
280 1; 281 10; 282 2; 283 1; 284 1; 
285 1; 286 1; 287 1; 288 1; 289 1; 
290 1; 291 1; 292 1; 293 1; 294 1; 
295 1; 296 1; 297 1; 298 1; 299 1; 
300 1; 301 1; 302 1; 304 1; 305 1; 
306 1; 307 1; 308 1; 309 3; 310 1; 
311 1; 312 1; 313 1; 314 1; 315 1; 
316 1; 317 1; 318 1; 319 1; 320 1; 
321 1; 322 1; 323 1; 324 1; 325 3; 
326 1; 327 3; 328 1; 329 1; 330 1; 
331 4; 332 1; 333 1; 334 1; 335 1; 
336 1; 337 1; 338 1; 339 1; 340 1; 
341 3; 342 1; 343 3; 344 1; 345 1; 
346 1; 347 1; 348 1; 349 1; 350 1; 
351 1; 352 1; 353 1; 354 1; 355 1; 
356 1; 357 1; 358 1; 359 1; 360 1; 
361 1; 362 3; 363 1; 364 1; 365 1; 
