Name: para-Methoxy Methoxyacetyl fentanyl
InChIKey: UYPGPJKUKWRQGQ-UHFFFAOYSA-N
Synon: 4-Methoxy Methoxyacetyl fentanyl
Synon: p-Methoxy Methoxyacetyl fentanyl
Synon: 2-Methoxy-N-(4-methoxyphenyl)-N-(1-phenethylpiperidin-4-yl)acetamide
Formula: C23H30N2O3
MW: 382
ExactMass: 382.225643
CASNO: 0
ID: 4856
Comment: Provided by www.caymanchem.com/app/template/landing%2CForensic.vm / Item#23199 Batch#0513955
Num Peaks: 344
40 1; 41 39; 42 134; 43 20; 44 36; 
45 332; 46 8; 47 1; 48 1; 49 1; 
50 8; 51 20; 52 16; 53 14; 54 13; 
55 32; 56 14; 57 11; 58 32; 59 2; 
60 1; 61 1; 62 5; 63 18; 64 16; 
65 52; 66 8; 67 28; 68 35; 69 15; 
70 115; 71 6; 72 1; 73 13; 74 5; 
75 3; 76 8; 77 95; 78 51; 79 78; 
80 26; 81 5; 82 31; 83 7; 84 3; 
85 1; 86 1; 87 1; 88 4; 89 12; 
90 7; 91 214; 92 48; 93 11; 94 30; 
95 28; 96 215; 97 36; 98 9; 99 1; 
100 10; 101 2; 102 5; 103 60; 104 58; 
105 259; 106 36; 107 23; 108 29; 109 6; 
110 1; 111 1; 112 1; 113 1; 114 1; 
115 6; 116 4; 117 20; 118 11; 119 8; 
120 22; 121 47; 122 59; 123 26; 124 5; 
125 1; 126 1; 127 2; 128 4; 129 3; 
130 21; 131 13; 132 28; 133 19; 134 71; 
135 45; 136 75; 137 4; 138 1; 139 24; 
140 1; 141 1; 142 1; 143 2; 144 4; 
145 4; 146 28; 147 18; 148 42; 149 39; 
150 13; 151 3; 152 1; 153 1; 154 2; 
155 1; 156 4; 157 3; 158 9; 159 5; 
160 73; 161 29; 162 42; 163 11; 164 3; 
165 10; 166 2; 167 1; 168 1; 169 1; 
170 1; 171 1; 172 2; 173 2; 174 10; 
175 12; 176 65; 177 11; 178 8; 179 2; 
180 1; 181 1; 182 2; 183 2; 184 12; 
185 8; 186 41; 187 11; 188 345; 189 52; 
190 20; 191 5; 192 3; 193 2; 194 1; 
195 49; 196 6; 197 2; 198 1; 199 1; 
200 1; 201 1; 202 6; 203 6; 204 1; 
205 1; 206 1; 207 23; 208 5; 209 6; 
210 1; 211 1; 212 1; 213 1; 214 1; 
215 1; 216 10; 217 22; 218 29; 219 16; 
220 109; 221 11; 222 2; 223 1; 224 1; 
225 1; 226 1; 227 1; 228 1; 229 1; 
230 1; 231 15; 232 2; 233 1; 234 1; 
235 1; 236 1; 237 1; 238 1; 239 1; 
240 1; 241 1; 242 1; 243 1; 244 1; 
245 1; 246 1; 247 1; 248 283; 249 45; 
250 2; 251 1; 252 1; 253 9; 254 2; 
255 1; 256 1; 257 1; 258 1; 259 1; 
260 2; 261 4; 262 1; 263 1; 264 1; 
265 1; 266 1; 267 1; 268 1; 269 1; 
270 1; 271 1; 272 1; 273 1; 274 1; 
275 1; 276 1; 277 1; 278 1; 279 1; 
280 1; 281 9; 282 3; 283 2; 284 1; 
285 1; 286 1; 287 1; 288 1; 289 2; 
290 1; 291 999; 292 182; 293 16; 294 2; 
295 1; 296 1; 297 1; 298 1; 299 1; 
300 1; 301 1; 302 1; 303 1; 304 1; 
305 1; 306 1; 307 1; 308 1; 309 2; 
310 1; 311 1; 312 1; 313 1; 314 1; 
315 1; 316 1; 317 1; 318 1; 319 1; 
320 1; 321 1; 322 1; 323 1; 324 1; 
325 2; 326 1; 327 1; 328 1; 329 1; 
330 1; 331 2; 332 1; 333 1; 334 1; 
335 1; 336 1; 337 1; 338 1; 339 1; 
340 1; 341 3; 342 2; 343 1; 344 1; 
345 1; 346 1; 347 1; 348 1; 349 1; 
350 1; 351 1; 352 1; 353 1; 354 1; 
355 1; 356 1; 357 1; 358 1; 359 1; 
360 1; 361 1; 362 1; 363 1; 364 1; 
365 1; 366 1; 367 1; 368 1; 369 1; 
370 1; 371 1; 372 1; 373 1; 374 1; 
375 1; 376 1; 377 1; 378 1; 379 1; 
380 3; 381 1; 382 1; 383 1; 
