Name: para-Methoxy Furanyl fentanyl
InChIKey: JCCKUDBCTLAHGQ-UHFFFAOYSA-N
Synon: 4-Methoxy Fu-F
Synon: p-Methoxy Fu-F
Synon: 4-Methoxy Furanyl fentanyl
Synon: p-Methoxy Furanyl fentanyl
Synon: N-(4-methoxyphenyl)-N-(1-phenethylpiperidin-4-yl)furan-2-carboxamide
Formula: C25H28N2O3
MW: 404
ExactMass: 404.209993
CASNO: 0
ID: 4857
Comment: Provided by www.caymanchem.com/app/template/landing%2CForensic.vm / Item#23197 Batch#0514228
Num Peaks: 359
40 1; 41 45; 42 146; 43 18; 44 38; 
45 2; 46 1; 47 1; 48 1; 49 1; 
50 7; 51 24; 52 11; 53 18; 54 15; 
55 34; 56 18; 57 9; 58 2; 59 1; 
60 1; 61 1; 62 5; 63 18; 64 16; 
65 54; 66 6; 67 44; 68 39; 69 36; 
70 69; 71 5; 72 1; 73 21; 74 5; 
75 6; 76 8; 77 96; 78 49; 79 73; 
80 28; 81 22; 82 29; 83 4; 84 2; 
85 1; 86 1; 87 1; 88 1; 89 14; 
90 12; 91 216; 92 45; 93 15; 94 37; 
95 999; 96 294; 97 39; 98 41; 99 2; 
100 1; 101 1; 102 12; 103 64; 104 55; 
105 211; 106 27; 107 22; 108 7; 109 5; 
110 1; 111 1; 112 1; 113 1; 114 1; 
115 9; 116 4; 117 19; 118 6; 119 6; 
120 10; 121 18; 122 40; 123 13; 124 17; 
125 1; 126 3; 127 1; 128 4; 129 2; 
130 12; 131 5; 132 25; 133 15; 134 54; 
135 19; 136 7; 137 21; 138 6; 139 17; 
140 2; 141 1; 142 1; 143 3; 144 9; 
145 6; 146 24; 147 15; 148 21; 149 20; 
150 2; 151 1; 152 1; 153 1; 154 2; 
155 1; 156 4; 157 7; 158 9; 159 7; 
160 80; 161 32; 162 35; 163 7; 164 2; 
165 1; 166 1; 167 1; 168 1; 169 1; 
170 1; 171 1; 172 3; 173 1; 174 14; 
175 5; 176 12; 177 5; 178 1; 179 2; 
180 1; 181 1; 182 3; 183 2; 184 23; 
185 9; 186 51; 187 9; 188 216; 189 22; 
190 4; 191 5; 192 2; 193 3; 194 1; 
195 2; 196 1; 197 3; 198 1; 199 1; 
200 61; 201 22; 202 8; 203 4; 204 1; 
205 1; 207 28; 208 6; 209 5; 210 1; 
211 1; 212 1; 213 1; 214 1; 215 1; 
216 1; 217 85; 218 15; 219 8; 220 1; 
221 1; 222 1; 223 1; 224 1; 225 1; 
226 1; 227 1; 228 1; 229 1; 230 1; 
231 1; 232 1; 233 1; 234 1; 235 1; 
236 1; 237 1; 238 1; 239 2; 240 11; 
241 1; 242 47; 243 8; 244 1; 245 1; 
246 1; 247 1; 248 1; 249 1; 250 1; 
251 1; 252 1; 253 12; 254 4; 255 3; 
256 1; 257 1; 258 1; 259 1; 260 1; 
261 1; 262 1; 263 1; 264 1; 265 1; 
266 1; 267 3; 268 2; 269 1; 270 431; 
271 77; 272 9; 273 1; 274 1; 275 1; 
276 1; 277 1; 278 1; 279 1; 280 1; 
281 12; 282 4; 283 2; 284 1; 285 1; 
286 1; 287 1; 288 1; 289 1; 290 1; 
291 1; 292 1; 293 1; 294 1; 295 1; 
296 1; 297 1; 298 1; 299 1; 300 1; 
301 1; 302 1; 303 1; 304 1; 305 1; 
306 1; 307 1; 308 1; 309 10; 310 4; 
311 1; 313 820; 314 167; 315 23; 316 2; 
317 1; 318 1; 319 1; 320 1; 321 1; 
322 1; 323 1; 324 1; 325 2; 326 1; 
327 4; 328 2; 329 1; 330 1; 331 2; 
332 1; 333 1; 334 1; 337 1; 338 1; 
339 1; 340 1; 341 4; 342 1; 343 1; 
344 1; 345 1; 346 1; 347 1; 348 1; 
349 1; 350 1; 351 1; 352 1; 353 1; 
354 1; 355 1; 356 1; 357 1; 358 1; 
359 1; 360 1; 361 1; 363 1; 364 1; 
365 1; 366 1; 367 1; 368 1; 369 1; 
370 1; 371 1; 372 1; 373 1; 374 1; 
375 1; 376 1; 377 1; 378 1; 380 1; 
381 1; 382 1; 383 1; 384 1; 385 1; 
386 1; 387 1; 388 1; 389 1; 390 1; 
391 1; 393 1; 394 1; 395 1; 396 1; 
397 1; 398 1; 399 1; 400 1; 401 1; 
402 2; 403 1; 404 1; 405 1; 
