Name: para-Methoxy Acetyl fentanyl
InChIKey: MEAAIIUNOQOZBW-UHFFFAOYSA-N
Synon: 4-Methoxy Acetyl fentanyl
Synon: p-Methoxy Acetyl fentanyl
Synon: N-(4-methoxyphenyl)-N-[1-(2-phenylethyl)-4-piperidinyl]-acetamide
Formula: C22H28N2O2
MW: 352
ExactMass: 352.215078
CASNO: 0
ID: 4858
Comment: Provided by www.caymanchem.com/app/template/landing%2CForensic.vm / Item#23190 Batch#0514136
Num Peaks: 313
40 1; 41 41; 42 156; 43 260; 44 66; 
45 3; 46 1; 47 1; 48 1; 49 1; 
50 7; 51 19; 52 20; 53 17; 54 15; 
55 27; 56 18; 57 9; 58 2; 59 1; 
60 1; 61 1; 62 4; 63 19; 64 18; 
65 61; 66 9; 67 31; 68 32; 69 33; 
70 68; 71 5; 72 1; 73 8; 74 2; 
75 5; 76 8; 77 98; 78 43; 79 74; 
80 41; 81 7; 82 28; 83 6; 84 5; 
85 1; 86 1; 87 1; 88 1; 89 13; 
90 12; 91 224; 92 50; 93 13; 94 24; 
95 31; 96 169; 97 28; 98 6; 99 1; 
100 1; 101 1; 102 10; 103 55; 104 45; 
105 200; 106 28; 107 28; 108 133; 109 7; 
110 7; 111 1; 112 1; 113 1; 114 1; 
115 6; 116 5; 117 23; 118 13; 119 7; 
120 11; 121 28; 122 29; 123 73; 124 17; 
125 1; 126 1; 127 2; 128 3; 129 4; 
130 29; 131 16; 132 28; 133 15; 134 67; 
135 19; 136 20; 137 2; 138 1; 139 4; 
140 1; 141 1; 142 1; 143 2; 144 17; 
145 23; 146 27; 147 17; 148 58; 149 28; 
150 8; 151 1; 152 1; 153 1; 154 2; 
155 1; 156 2; 157 1; 158 4; 159 4; 
160 48; 161 31; 162 61; 163 8; 164 1; 
165 50; 166 12; 167 1; 168 1; 169 1; 
170 1; 171 1; 172 1; 173 2; 174 5; 
175 10; 176 605; 177 76; 178 9; 179 1; 
180 1; 181 1; 182 2; 183 1; 184 16; 
185 12; 186 26; 187 8; 188 150; 189 24; 
190 6; 191 1; 192 1; 193 2; 194 1; 
195 1; 196 1; 197 1; 198 1; 199 1; 
200 1; 201 1; 202 4; 203 5; 204 2; 
205 1; 206 1; 207 10; 208 3; 209 1; 
210 1; 211 1; 212 1; 213 1; 214 1; 
215 1; 216 1; 217 2; 218 397; 219 157; 
220 20; 221 1; 222 1; 223 1; 224 1; 
225 1; 226 1; 227 1; 228 1; 229 1; 
230 1; 231 1; 232 5; 233 1; 234 1; 
235 1; 236 1; 237 1; 238 1; 239 1; 
240 1; 241 1; 242 1; 243 1; 244 1; 
245 1; 246 1; 247 1; 248 1; 249 1; 
250 1; 251 1; 252 1; 253 3; 254 1; 
255 1; 256 1; 257 1; 258 1; 259 5; 
260 1; 261 999; 262 171; 263 17; 264 1; 
265 1; 266 1; 267 1; 268 1; 269 1; 
270 1; 271 1; 272 1; 273 1; 274 1; 
275 1; 276 1; 277 1; 278 1; 279 1; 
280 1; 281 4; 282 2; 283 1; 284 1; 
285 1; 286 1; 287 1; 288 1; 289 1; 
290 1; 291 1; 292 1; 293 1; 294 1; 
295 1; 296 1; 297 1; 298 1; 299 1; 
300 1; 301 1; 302 1; 303 1; 304 1; 
305 1; 306 1; 307 1; 308 1; 309 1; 
310 1; 311 1; 312 1; 313 1; 314 1; 
315 1; 316 1; 317 1; 318 1; 319 1; 
320 1; 321 1; 323 1; 324 1; 325 1; 
326 1; 327 2; 328 1; 329 1; 330 1; 
331 1; 332 1; 333 1; 334 1; 335 1; 
336 1; 337 1; 338 1; 339 1; 340 1; 
341 2; 342 1; 343 1; 344 1; 345 1; 
346 1; 347 1; 348 1; 349 1; 350 5; 
351 2; 352 1; 353 1; 
