Name: para-Methyl Acetyl fentanyl
InChIKey: JNQPTABAZAHVEN-UHFFFAOYSA-N
Synon: 4-Methyl Acetyl fentanyl
Synon: p-Methyl Acetyl fentanyl
Synon: N-(1-phenethylpiperidin-4-yl)-N-(p-tolyl)acetamide
Formula: C22H28N2O
MW: 336
ExactMass: 336.220163
CASNO: 0
ID: 4859
Comment: Provided by www.caymanchem.com/app/template/landing%2CForensic.vm / Item#23191 Batch#0514281
Num Peaks: 297
40 1; 41 44; 42 181; 43 328; 44 70; 
45 3; 46 1; 47 1; 48 1; 49 1; 
50 10; 51 24; 52 14; 53 14; 54 15; 
55 25; 56 23; 57 7; 58 1; 59 1; 
60 1; 61 1; 62 4; 63 17; 64 7; 
65 104; 66 10; 67 30; 68 34; 69 32; 
70 56; 71 5; 72 2; 73 5; 74 4; 
75 4; 76 8; 77 114; 78 46; 79 89; 
80 20; 81 7; 82 18; 83 6; 84 3; 
85 1; 86 1; 87 1; 88 1; 89 28; 
90 23; 91 388; 92 38; 93 11; 94 20; 
95 16; 96 149; 97 20; 98 2; 99 1; 
100 1; 101 1; 102 4; 103 59; 104 48; 
105 218; 106 120; 107 101; 108 18; 109 1; 
110 1; 111 1; 112 1; 113 1; 114 1; 
115 9; 116 8; 117 19; 118 59; 119 21; 
120 26; 121 3; 122 1; 123 1; 124 1; 
125 1; 126 1; 127 1; 128 4; 129 5; 
130 58; 131 37; 132 120; 133 28; 134 17; 
135 4; 136 1; 137 1; 138 1; 139 4; 
140 1; 141 1; 142 2; 143 7; 144 64; 
145 57; 146 95; 147 15; 148 3; 149 30; 
150 9; 151 1; 152 1; 153 1; 154 1; 
155 1; 156 3; 157 4; 158 17; 159 10; 
160 661; 161 82; 162 9; 163 1; 164 1; 
165 1; 166 1; 167 1; 168 1; 169 1; 
170 2; 171 1; 172 132; 173 24; 174 7; 
175 2; 176 1; 177 1; 178 1; 179 1; 
180 1; 181 1; 182 1; 183 1; 184 5; 
185 9; 186 26; 187 9; 188 12; 189 2; 
190 1; 191 1; 192 1; 193 1; 194 1; 
195 1; 196 1; 197 1; 198 1; 199 1; 
200 1; 201 3; 202 414; 203 186; 204 24; 
205 2; 206 1; 207 4; 208 3; 209 1; 
210 1; 211 1; 212 1; 213 1; 214 1; 
215 1; 216 6; 217 1; 218 1; 219 1; 
220 1; 221 1; 222 1; 223 1; 224 1; 
225 1; 226 1; 227 1; 228 1; 229 1; 
230 1; 231 1; 232 1; 233 1; 234 1; 
235 1; 236 1; 237 1; 238 1; 239 1; 
240 1; 241 1; 242 1; 243 1; 244 1; 
245 999; 246 165; 247 16; 248 1; 249 1; 
250 1; 251 1; 252 1; 253 3; 254 1; 
255 1; 256 1; 257 1; 258 1; 259 1; 
260 1; 261 1; 262 1; 263 1; 264 1; 
265 1; 266 1; 267 1; 268 1; 269 1; 
270 1; 271 1; 272 1; 273 1; 274 1; 
275 1; 276 1; 277 1; 278 1; 279 1; 
280 1; 281 2; 282 1; 283 1; 284 1; 
285 1; 286 1; 287 1; 288 1; 289 1; 
290 1; 291 1; 292 1; 293 1; 294 1; 
295 1; 296 1; 297 1; 298 1; 300 1; 
301 1; 302 1; 303 1; 304 1; 305 1; 
306 1; 307 1; 308 1; 309 1; 310 1; 
311 1; 312 1; 313 1; 314 1; 315 1; 
316 1; 317 1; 318 1; 319 1; 320 1; 
321 1; 322 1; 323 1; 324 1; 325 1; 
326 1; 327 1; 328 1; 329 1; 330 1; 
331 1; 332 1; 333 1; 334 5; 335 2; 
336 1; 337 1; 
