Name: para-Chloro Valeryl fentanyl
InChIKey: FCGXDEMTTPNXQP-UHFFFAOYSA-N
Synon: 4-Chloro Valeryl fentanyl
Synon: p-Chloro Valeryl fentanyl
Synon: N-(4-chlorophenyl)-N-(1-phenethylpiperidin-4-yl)pentanamide
Formula: C24H31ClN2O
MW: 398
ExactMass: 398.212492
CASNO: 0
ID: 4860
Comment: Provided by www.caymanchem.com/app/template/landing%2CForensic.vm / Item#23058 Batch#0513961
Num Peaks: 357
40 1; 41 181; 42 191; 43 40; 44 140; 
45 5; 47 1; 48 1; 49 1; 50 11; 
51 19; 52 11; 53 15; 54 17; 55 70; 
56 37; 57 334; 58 19; 59 1; 60 1; 
61 2; 62 6; 63 22; 64 10; 65 59; 
66 7; 67 35; 68 47; 69 52; 70 89; 
71 8; 72 2; 73 21; 74 7; 75 32; 
76 13; 77 79; 78 35; 79 73; 80 18; 
81 9; 82 40; 83 15; 84 21; 85 171; 
86 10; 87 3; 88 1; 89 19; 90 22; 
91 279; 92 37; 93 15; 94 29; 95 26; 
96 211; 97 37; 98 11; 99 21; 100 6; 
101 10; 102 13; 103 68; 104 53; 105 287; 
106 27; 107 4; 108 2; 109 1; 110 3; 
111 66; 112 11; 113 23; 114 4; 115 11; 
116 8; 117 31; 118 12; 119 6; 120 2; 
121 1; 122 1; 123 1; 124 1; 125 25; 
126 22; 127 227; 128 31; 129 76; 130 89; 
131 28; 132 29; 133 6; 134 11; 135 6; 
136 1; 137 5; 138 44; 139 45; 140 30; 
141 9; 142 6; 143 6; 144 28; 145 24; 
146 12; 147 4; 148 2; 149 2; 150 1; 
151 8; 152 37; 153 40; 154 28; 155 14; 
156 9; 157 4; 158 7; 159 5; 160 23; 
161 3; 162 1; 163 1; 164 27; 165 34; 
166 63; 167 21; 168 23; 169 13; 170 4; 
171 4; 172 2; 173 1; 174 1; 175 1; 
176 1; 177 2; 178 6; 179 10; 180 417; 
181 52; 182 141; 183 18; 184 22; 185 16; 
186 36; 187 13; 188 51; 189 9; 190 1; 
191 7; 192 17; 193 12; 194 15; 195 8; 
196 3; 197 2; 198 1; 199 1; 200 1; 
201 1; 202 1; 203 1; 204 1; 205 1; 
206 2; 207 17; 208 5; 209 3; 210 1; 
211 23; 212 5; 213 8; 214 1; 215 1; 
216 1; 217 1; 218 1; 219 1; 220 1; 
221 16; 222 15; 223 436; 224 65; 225 139; 
226 20; 227 2; 228 1; 229 2; 230 1; 
231 3; 232 1; 233 1; 234 1; 235 1; 
236 1; 237 1; 238 1; 239 1; 240 1; 
241 1; 242 1; 243 1; 244 1; 245 1; 
246 1; 247 1; 248 1; 249 1; 250 1; 
251 1; 252 1; 253 8; 254 2; 255 1; 
256 1; 257 1; 258 1; 259 1; 260 1; 
261 1; 262 1; 263 1; 264 27; 265 6; 
266 10; 267 4; 268 1; 269 1; 270 1; 
271 1; 272 7; 273 5; 274 1; 275 1; 
276 1; 277 1; 278 4; 279 1; 280 1; 
281 6; 282 1; 283 1; 284 1; 285 1; 
286 1; 287 1; 288 1; 289 1; 290 1; 
291 1; 292 1; 293 1; 294 1; 295 1; 
296 1; 297 1; 298 1; 299 1; 300 1; 
301 1; 302 1; 303 1; 304 1; 305 3; 
306 1; 307 999; 308 197; 309 334; 310 60; 
311 7; 312 1; 313 3; 314 1; 315 2; 
316 1; 317 1; 318 1; 319 1; 320 1; 
321 1; 322 1; 323 1; 324 1; 325 1; 
326 1; 327 3; 328 1; 329 1; 330 1; 
331 3; 332 1; 333 1; 334 1; 335 1; 
336 1; 337 1; 338 1; 339 1; 340 1; 
341 3; 342 1; 343 1; 344 1; 345 1; 
346 1; 347 1; 348 1; 349 1; 350 1; 
351 1; 352 1; 353 1; 354 1; 355 2; 
356 1; 357 1; 358 1; 359 1; 360 1; 
362 1; 363 1; 365 1; 366 1; 367 1; 
368 1; 369 1; 370 1; 371 1; 372 1; 
373 1; 374 1; 375 1; 377 1; 378 1; 
379 1; 380 1; 381 1; 382 1; 383 1; 
384 1; 385 1; 386 1; 387 1; 388 1; 
389 1; 390 1; 391 1; 392 1; 393 1; 
394 1; 395 1; 396 5; 397 1; 398 2; 
399 1; 400 1; 
