Name: para-Chlorobutyryl fentanyl
InChIKey: YRAMWTYYYLTADR-UHFFFAOYSA-N
Synon: N-(4-chlorophenyl)-N-[1-(2-phenylethyl)-4-piperidinyl]-butanamide
Synon: 4-Chlorobutyryl fentanyl
Synon: p-Chlorobutyryl fentanyl
Formula: C23H29ClN2O
MW: 384
ExactMass: 384.19684
CASNO: 0
ID: 4861
Comment: Provided by www.caymanchem.com/app/template/landing%2CForensic.vm / Item#23015 Batch#0512747
Num Peaks: 345
40 1; 41 138; 42 200; 43 338; 44 152; 
45 3; 46 1; 47 1; 48 1; 49 1; 
50 12; 51 21; 52 9; 53 12; 54 16; 
55 44; 56 29; 57 21; 58 3; 59 1; 
60 1; 61 2; 62 7; 63 19; 64 9; 
65 62; 66 6; 67 33; 68 47; 69 56; 
70 89; 71 249; 72 13; 73 25; 74 9; 
75 33; 76 14; 77 86; 78 41; 79 78; 
80 15; 81 8; 82 35; 83 8; 84 12; 
85 4; 86 1; 87 1; 88 1; 89 19; 
90 21; 91 285; 92 35; 93 10; 94 26; 
95 24; 96 202; 97 32; 98 23; 99 9; 
100 3; 101 3; 102 14; 103 76; 104 61; 
105 273; 106 27; 107 3; 108 2; 109 1; 
110 2; 111 68; 112 4; 113 24; 114 2; 
115 9; 116 8; 117 32; 118 7; 119 4; 
120 2; 121 1; 122 1; 123 1; 124 1; 
125 20; 126 14; 127 135; 128 22; 129 48; 
130 88; 131 30; 132 29; 133 7; 134 9; 
135 9; 136 1; 137 4; 138 46; 139 40; 
140 29; 141 8; 142 7; 143 7; 144 30; 
145 15; 146 10; 147 4; 148 4; 149 2; 
150 1; 151 4; 152 39; 153 33; 154 20; 
155 10; 156 8; 157 3; 158 7; 159 2; 
160 16; 161 2; 162 1; 163 3; 164 26; 
165 24; 166 61; 167 19; 168 22; 169 4; 
170 2; 171 1; 172 1; 173 1; 174 1; 
175 1; 176 1; 177 2; 178 7; 179 5; 
180 418; 181 50; 182 142; 183 17; 184 15; 
185 10; 186 35; 187 6; 188 38; 189 5; 
190 1; 191 5; 192 13; 193 11; 194 13; 
195 5; 196 3; 197 21; 198 3; 199 4; 
200 1; 201 1; 202 1; 203 1; 204 1; 
205 1; 206 1; 207 23; 208 7; 209 5; 
210 1; 211 1; 212 1; 213 1; 214 1; 
215 1; 216 1; 217 1; 218 1; 219 1; 
220 1; 221 14; 222 9; 223 420; 224 61; 
225 134; 226 19; 227 1; 228 1; 229 1; 
230 1; 231 2; 232 1; 233 1; 234 1; 
235 1; 236 1; 237 1; 238 1; 239 1; 
240 1; 241 1; 242 1; 243 1; 244 1; 
245 1; 246 1; 247 1; 248 1; 249 1; 
250 41; 251 8; 252 10; 253 14; 254 4; 
255 1; 256 1; 257 1; 258 8; 259 3; 
260 1; 261 1; 262 1; 263 1; 264 3; 
265 2; 266 1; 267 2; 268 1; 269 2; 
270 1; 271 1; 272 1; 273 1; 274 1; 
275 2; 276 1; 277 3; 278 1; 279 1; 
280 1; 281 9; 282 3; 283 3; 284 1; 
285 1; 286 1; 287 1; 288 1; 289 1; 
290 1; 291 3; 292 1; 293 999; 294 181; 
295 335; 296 48; 297 7; 298 1; 299 1; 
300 1; 301 1; 302 1; 303 1; 304 1; 
305 1; 306 1; 307 1; 308 1; 309 1; 
310 1; 311 1; 312 1; 313 3; 314 1; 
315 2; 316 1; 317 1; 318 1; 319 1; 
321 1; 322 1; 323 1; 324 1; 325 1; 
326 1; 327 4; 328 1; 329 1; 330 1; 
331 3; 332 1; 333 1; 334 1; 335 1; 
336 1; 337 1; 338 1; 339 1; 340 1; 
341 5; 342 1; 343 1; 344 1; 345 1; 
346 2; 347 1; 348 1; 349 1; 350 1; 
351 1; 352 1; 353 1; 354 1; 355 1; 
356 1; 357 1; 358 1; 359 1; 360 1; 
361 1; 362 1; 363 1; 364 1; 365 1; 
366 1; 367 1; 368 1; 369 1; 370 1; 
371 1; 372 1; 373 1; 374 1; 375 1; 
376 1; 377 1; 378 1; 379 1; 380 1; 
381 1; 382 5; 383 1; 384 1; 385 1; 
