Name: Cyclopentenyl fentanyl
InChIKey: SYSQDIUBJXIHAM-UHFFFAOYSA-N
Synon: N-(1-phenethylpiperidin-4-yl)-N-phenylcyclopent-1-ene-1-carboxamide
Formula: C25H30N2O
MW: 374
ExactMass: 374.235813
CASNO: 0
ID: 4862
Comment: Provided by www.caymanchem.com/app/template/landing%2CForensic.vm / Item#23010 Batch#0514286
Num Peaks: 335
40 3; 41 89; 42 93; 43 15; 44 15; 
45 1; 46 1; 47 1; 48 1; 49 1; 
50 7; 51 22; 52 6; 53 10; 54 6; 
55 9; 56 15; 57 12; 58 2; 59 1; 
60 1; 61 1; 62 1; 63 9; 64 4; 
65 125; 66 35; 67 209; 68 36; 69 12; 
70 34; 71 3; 72 1; 73 14; 74 2; 
75 5; 76 3; 77 113; 78 33; 79 46; 
80 9; 81 7; 82 19; 83 3; 84 5; 
85 1; 86 1; 87 1; 88 1; 89 10; 
90 6; 91 155; 92 22; 93 29; 94 31; 
95 999; 96 212; 97 19; 98 10; 99 2; 
100 1; 101 1; 102 7; 103 42; 104 70; 
105 156; 106 19; 107 2; 108 1; 109 1; 
110 1; 111 1; 112 1; 113 1; 114 1; 
115 9; 116 3; 117 17; 118 32; 119 15; 
120 3; 121 1; 122 1; 123 1; 124 1; 
125 1; 126 2; 127 2; 128 5; 129 6; 
130 52; 131 35; 132 51; 133 11; 134 3; 
135 8; 136 2; 137 1; 138 1; 139 3; 
140 1; 141 2; 142 2; 143 5; 144 6; 
145 5; 146 142; 147 20; 148 4; 149 1; 
150 1; 151 1; 152 1; 153 1; 154 2; 
155 1; 156 8; 157 3; 158 57; 159 15; 
160 22; 161 1; 162 1; 163 1; 164 1; 
165 2; 166 1; 167 2; 168 2; 169 1; 
170 14; 171 2; 172 2; 173 2; 174 1; 
175 1; 176 1; 177 2; 178 1; 179 1; 
180 1; 181 1; 182 2; 183 1; 184 12; 
185 8; 186 29; 187 37; 188 31; 189 147; 
190 19; 191 4; 192 3; 193 3; 194 1; 
195 2; 196 1; 197 2; 198 1; 199 1; 
200 1; 201 1; 202 1; 203 1; 204 1; 
205 1; 206 1; 207 20; 208 3; 209 6; 
210 2; 211 1; 212 1; 213 1; 214 1; 
215 1; 216 1; 217 1; 218 1; 219 1; 
220 1; 221 1; 222 1; 223 1; 224 1; 
225 1; 226 1; 227 1; 228 1; 229 1; 
230 1; 231 1; 232 1; 233 1; 234 1; 
235 1; 236 1; 237 1; 238 1; 239 1; 
240 64; 241 8; 242 1; 243 1; 244 1; 
245 1; 246 1; 247 1; 248 1; 249 1; 
250 1; 251 2; 252 1; 253 10; 254 4; 
255 2; 256 1; 257 1; 258 1; 259 1; 
260 1; 261 1; 262 1; 263 1; 264 1; 
265 2; 266 1; 267 2; 268 1; 269 1; 
270 1; 271 1; 272 1; 273 1; 274 1; 
275 1; 276 1; 277 1; 278 1; 279 8; 
280 2; 281 11; 282 1; 283 629; 284 136; 
285 8; 286 1; 287 1; 288 1; 289 1; 
290 1; 291 1; 292 1; 293 1; 294 1; 
295 1; 296 1; 297 1; 298 1; 299 1; 
300 1; 301 1; 302 1; 303 1; 304 1; 
305 1; 306 1; 307 1; 308 1; 309 1; 
310 1; 311 1; 312 1; 313 1; 314 1; 
315 1; 316 1; 317 1; 318 1; 319 1; 
320 1; 321 1; 322 1; 323 1; 324 1; 
325 1; 326 1; 327 2; 328 1; 329 1; 
330 1; 331 3; 332 1; 333 1; 334 1; 
335 1; 336 1; 337 1; 338 1; 339 1; 
340 1; 341 1; 342 1; 343 2; 344 1; 
345 1; 346 2; 347 1; 348 1; 349 1; 
350 1; 351 1; 352 1; 353 1; 354 1; 
355 1; 356 1; 357 1; 358 1; 359 1; 
360 1; 361 1; 362 1; 363 1; 364 1; 
365 1; 366 1; 367 1; 369 1; 370 1; 
371 1; 372 1; 373 1; 374 1; 375 1; 
