Name: Methamphetamine-d5
InChIKey: MYWUZJCMWCOHBA-DKFMXDSJSA-N
Synon: N-methyl-1-(phenyl-d5)propan-2-amine
Formula: C10H10D5N
MW: 154
ExactMass: 154.151834
CASNO: 0
ID: 4863
Comment: Provided by www.caymanchem.com/app/template/landing%2CForensic.vm / Item#14021 Batch#0513005
Num Peaks: 114
41 28; 42 59; 43 24; 44 7; 45 3; 
46 1; 47 1; 48 1; 49 1; 50 1; 
51 5; 52 11; 53 8; 54 22; 55 7; 
56 84; 57 24; 58 999; 59 37; 60 1; 
61 1; 62 2; 63 4; 64 8; 65 14; 
66 14; 67 8; 68 47; 69 52; 70 15; 
71 2; 72 1; 73 1; 74 1; 75 2; 
76 3; 77 1; 78 4; 79 6; 80 12; 
81 14; 82 15; 83 11; 84 2; 85 1; 
86 1; 87 1; 88 1; 89 1; 90 1; 
91 1; 92 8; 93 17; 94 18; 95 39; 
96 173; 97 16; 98 2; 99 1; 100 1; 
101 1; 102 1; 103 1; 104 1; 105 1; 
106 4; 107 8; 108 7; 109 8; 110 2; 
111 1; 112 1; 113 1; 114 1; 115 1; 
116 1; 117 1; 118 9; 119 15; 120 5; 
121 13; 122 21; 123 13; 124 15; 125 2; 
126 1; 127 1; 128 1; 129 1; 131 1; 
132 1; 133 1; 134 3; 135 1; 136 6; 
137 7; 138 5; 139 27; 140 3; 141 1; 
142 1; 143 1; 144 1; 145 1; 146 1; 
147 1; 148 1; 149 1; 150 2; 151 1; 
152 1; 153 7; 154 1; 155 1; 
