Name: Bupropion-d9
InChIKey: SNPPWIUOZRMYNY-WVZRYRIDSA-N
Synon: 1-(3-Chlorophenyl)-2-[[1,1-di(methyl-d3)ethyl-2,2,2-d3]amino]-1-propanone-3,3,3-d3
Formula: C13H9D9ClNO
MW: 248
ExactMass: 248.164183
CASNO: 1189725265
ID: 4864
Comment: Provided by www.caymanchem.com/app/template/landing%2CForensic.vm / Item#10010679 Batch#0508264
Num Peaks: 188
40 2; 41 6; 42 56; 43 24; 44 39; 
45 999; 46 200; 47 8; 48 5; 49 6; 
50 47; 51 24; 52 3; 53 3; 54 1; 
55 6; 56 2; 57 2; 58 4; 59 2; 
60 5; 61 12; 62 21; 63 11; 64 27; 
65 13; 66 155; 67 6; 68 1; 69 1; 
70 2; 71 6; 72 5; 73 13; 74 38; 
75 149; 76 48; 77 23; 78 6; 79 2; 
80 1; 81 1; 82 1; 83 1; 84 4; 
85 16; 86 4; 87 7; 88 2; 89 13; 
90 43; 91 29; 92 3; 93 1; 94 1; 
95 1; 96 1; 97 1; 98 1; 99 1; 
100 1; 101 2; 102 3; 103 13; 104 4; 
105 3; 106 1; 107 6; 108 40; 109 611; 
110 56; 111 190; 112 20; 113 61; 114 7; 
115 4; 116 2; 117 1; 118 1; 119 1; 
120 1; 121 1; 122 1; 123 1; 124 1; 
125 2; 126 1; 127 1; 128 1; 129 1; 
130 3; 131 21; 132 19; 133 4; 134 3; 
135 1; 136 1; 137 1; 138 2; 139 112; 
140 12; 141 42; 142 4; 143 2; 144 1; 
145 1; 146 1; 147 2; 148 3; 149 1; 
150 1; 151 1; 152 1; 153 1; 154 1; 
155 1; 156 1; 157 1; 158 1; 159 1; 
160 1; 161 1; 162 1; 163 1; 164 1; 
165 1; 166 9; 167 9; 168 6; 169 10; 
170 2; 171 2; 172 1; 173 1; 174 1; 
175 1; 176 1; 177 1; 178 1; 179 1; 
180 1; 181 1; 182 1; 183 1; 184 1; 
185 1; 186 1; 187 1; 188 1; 189 1; 
191 1; 192 1; 193 1; 194 1; 195 1; 
196 1; 197 1; 198 1; 199 1; 200 1; 
202 1; 204 1; 205 2; 206 1; 207 1; 
208 1; 209 1; 210 3; 211 3; 212 2; 
213 1; 214 1; 215 1; 216 1; 218 1; 
226 1; 227 1; 228 1; 229 2; 230 52; 
231 8; 232 17; 233 3; 234 1; 246 1; 
247 1; 248 1; 249 1; 
