Name: AB-FUBINACA 2'-indazole isomer
InChIKey: XFYTVZNCYIVYKQ-KRWDZBQOSA-N
Synon: (S)-N-(1-amino-3-methyl-1-oxobutan-2-yl)-2-(4-fluorobenzyl)-2H-indazole-3-carboxamide
Formula: C20H21FN4O2
MW: 368
ExactMass: 368.164854
CASNO: 0
ID: 4865
Comment: Provided by www.caymanchem.com/app/template/landing%2CForensic.vm / Item#23065 Batch#0513451
Num Peaks: 274
41 21; 42 6; 43 19; 44 36; 45 3; 
46 1; 49 1; 50 3; 51 5; 52 3; 
53 3; 54 3; 55 14; 56 10; 57 13; 
58 1; 59 7; 60 1; 61 1; 62 11; 
63 16; 64 4; 65 3; 66 1; 67 1; 
68 2; 69 3; 70 7; 71 7; 72 14; 
73 6; 74 2; 75 6; 76 6; 77 8; 
78 2; 79 1; 80 1; 81 4; 82 3; 
83 93; 84 6; 85 1; 86 9; 87 6; 
88 45; 89 27; 90 21; 91 5; 92 1; 
93 1; 94 1; 95 5; 96 5; 97 2; 
98 2; 99 1; 100 2; 101 3; 102 10; 
103 9; 104 4; 105 2; 106 1; 107 27; 
108 15; 109 999; 110 78; 111 3; 112 1; 
113 1; 114 1; 115 3; 116 3; 117 8; 
118 6; 119 2; 120 1; 121 2; 122 5; 
123 2; 124 5; 125 2; 126 2; 127 1; 
128 1; 129 13; 130 4; 131 8; 132 2; 
133 2; 134 2; 135 3; 136 1; 137 1; 
138 1; 139 1; 140 1; 141 1; 142 1; 
143 2; 144 5; 145 85; 146 10; 147 2; 
148 1; 149 1; 150 1; 151 2; 152 1; 
153 1; 154 1; 155 1; 156 2; 157 2; 
158 1; 159 2; 160 1; 161 1; 162 1; 
163 2; 164 1; 165 1; 166 1; 167 1; 
168 1; 169 3; 170 5; 171 2; 172 8; 
173 5; 174 2; 175 2; 176 4; 177 4; 
178 7; 179 1; 180 1; 181 1; 182 1; 
183 1; 184 1; 185 1; 186 2; 187 1; 
188 1; 189 1; 190 1; 191 1; 192 1; 
193 1; 194 4; 195 4; 196 12; 197 15; 
198 7; 199 3; 200 2; 201 1; 202 1; 
203 1; 204 1; 205 4; 206 1; 207 8; 
208 3; 209 2; 210 1; 211 1; 212 1; 
213 1; 214 1; 215 2; 216 3; 217 1; 
218 1; 219 1; 220 1; 221 1; 222 1; 
223 44; 224 47; 225 61; 226 17; 227 3; 
228 2; 229 1; 230 1; 231 1; 232 1; 
233 1; 234 1; 235 1; 236 1; 237 1; 
238 1; 239 1; 240 1; 241 1; 242 1; 
243 1; 248 1; 249 1; 250 1; 251 37; 
252 251; 253 611; 254 101; 255 10; 256 1; 
257 1; 259 1; 262 1; 263 1; 264 1; 
265 1; 266 1; 267 1; 268 4; 269 22; 
270 4; 271 1; 273 1; 278 1; 279 1; 
280 31; 281 9; 282 1; 283 1; 284 1; 
285 1; 291 1; 292 1; 293 1; 294 1; 
295 1; 296 1; 306 1; 307 1; 308 1; 
309 1; 310 1; 311 1; 315 1; 322 1; 
323 11; 324 28; 325 7; 326 1; 327 1; 
328 1; 329 1; 331 1; 332 1; 333 1; 
335 1; 336 1; 337 1; 341 1; 342 1; 
343 1; 346 1; 350 7; 351 42; 352 9; 
353 1; 354 1; 355 1; 356 1; 357 1; 
368 35; 369 8; 370 1; 371 1; 
