Name: AB-7-FUBAICA
InChIKey: AIZFETCNFVMZGT-UHFFFAOYSA-N
Synon: (S)-N-(1-amino-3-methyl-1-oxobutan-2-yl)-1-(4-fluorobenzyl)-1H-pyrrolo[2,3-b]pyridine-3-carboxamide
Formula: C20H21FN4O2
MW: 368
ExactMass: 368.164854
CASNO: 0
ID: 4866
Comment: Provided by www.caymanchem.com/app/template/landing%2CForensic.vm / Item#23059 Batch#0513450
Num Peaks: 259
41 22; 42 7; 43 23; 44 34; 45 3; 
46 1; 49 1; 50 2; 51 5; 52 3; 
53 3; 54 3; 55 11; 56 10; 57 11; 
58 1; 59 7; 60 1; 61 1; 62 7; 
63 15; 64 4; 65 3; 66 1; 67 1; 
68 1; 69 2; 70 4; 71 1; 72 6; 
73 6; 74 1; 75 6; 76 9; 77 4; 
78 2; 79 1; 80 1; 81 2; 82 1; 
83 85; 84 5; 85 1; 86 1; 87 1; 
88 4; 89 29; 90 10; 91 4; 92 1; 
93 1; 94 1; 95 2; 96 2; 97 1; 
98 1; 99 1; 100 1; 101 1; 102 7; 
103 10; 104 5; 105 1; 106 1; 107 17; 
108 8; 109 999; 110 77; 111 3; 112 7; 
113 1; 114 1; 115 3; 116 18; 117 14; 
118 4; 119 3; 120 1; 121 1; 122 1; 
123 1; 124 1; 125 1; 126 1; 127 1; 
128 1; 129 2; 130 3; 131 4; 132 2; 
133 3; 134 2; 135 3; 136 1; 137 1; 
139 1; 140 1; 141 1; 142 1; 143 3; 
144 38; 145 44; 146 5; 147 2; 148 1; 
149 1; 150 1; 151 1; 152 1; 153 1; 
154 1; 155 1; 156 2; 157 1; 158 2; 
159 1; 160 1; 161 1; 162 6; 163 1; 
164 1; 165 1; 166 1; 167 1; 168 1; 
169 3; 170 4; 171 2; 172 1; 173 1; 
174 3; 175 1; 176 1; 177 1; 178 1; 
179 1; 180 1; 181 1; 182 1; 183 1; 
184 1; 185 1; 186 1; 187 1; 188 1; 
189 1; 190 1; 191 2; 192 2; 193 1; 
194 1; 195 3; 196 4; 197 2; 198 4; 
199 1; 200 1; 201 1; 202 1; 203 2; 
204 1; 205 4; 206 1; 207 11; 208 3; 
209 2; 210 1; 211 1; 212 1; 213 1; 
214 1; 215 4; 216 2; 217 1; 218 1; 
219 1; 221 1; 222 1; 223 35; 224 20; 
225 38; 226 10; 227 4; 228 1; 229 1; 
230 1; 231 1; 233 1; 234 1; 235 1; 
236 1; 237 1; 238 1; 239 1; 240 1; 
241 1; 242 1; 248 1; 249 1; 250 3; 
251 11; 252 1; 253 910; 254 156; 255 16; 
256 1; 257 1; 265 1; 266 1; 267 2; 
268 18; 269 106; 270 18; 271 2; 279 1; 
280 1; 281 3; 282 1; 283 1; 284 1; 
285 1; 292 1; 293 1; 295 1; 296 1; 
307 3; 308 5; 309 2; 310 1; 311 1; 
315 1; 322 1; 323 1; 324 68; 325 18; 
326 4; 327 2; 328 1; 329 1; 331 1; 
332 1; 335 1; 336 1; 337 1; 341 1; 
342 1; 343 1; 346 1; 349 1; 350 2; 
351 2; 352 1; 353 1; 355 1; 356 1; 
357 1; 368 7; 369 1; 370 1; 
