Name: Methacrylfentanyl
InChIKey: YRRFMVAFZJGZNS-UHFFFAOYSA-N
Synon: Methacrylic fentanyl
Synon: N-(1-phenethylpiperidin-4-yl)-N-phenylmethacrylamide
Formula: C23H28N2O
MW: 348
ExactMass: 348.220163
CASNO: 0
ID: 4867
Comment: Provided by www.caymanchem.com/app/template/landing%2CForensic.vm / Item#22884 Batch#0515141
Num Peaks: 246
40 9; 41 257; 42 123; 43 20; 44 30; 
45 1; 46 1; 48 1; 49 1; 50 7; 
51 24; 52 8; 53 9; 54 11; 55 24; 
56 20; 57 14; 58 3; 59 1; 60 1; 
61 1; 62 2; 63 10; 64 6; 65 43; 
66 7; 67 18; 68 24; 69 521; 70 60; 
71 5; 72 1; 73 1; 74 2; 75 2; 
76 5; 77 121; 78 27; 79 48; 80 10; 
81 4; 82 19; 83 4; 84 7; 85 1; 
86 1; 87 1; 88 1; 89 9; 90 7; 
91 157; 92 20; 93 13; 94 16; 95 13; 
96 109; 97 13; 98 4; 99 1; 100 2; 
101 1; 102 5; 103 44; 104 65; 105 170; 
106 25; 107 3; 108 2; 109 1; 110 2; 
111 2; 112 3; 113 1; 114 1; 115 12; 
116 7; 117 33; 118 41; 119 15; 120 5; 
121 1; 122 1; 123 1; 124 1; 125 1; 
126 1; 127 1; 128 5; 129 5; 130 71; 
131 41; 132 66; 133 12; 134 7; 135 2; 
136 1; 137 1; 138 2; 139 5; 140 1; 
141 1; 142 2; 143 6; 144 48; 145 15; 
146 26; 147 4; 148 2; 149 1; 150 1; 
151 1; 152 1; 153 1; 154 1; 155 1; 
156 4; 157 3; 158 147; 159 27; 160 23; 
161 9; 162 5; 163 1; 164 1; 165 1; 
166 1; 167 1; 168 1; 169 1; 170 3; 
171 2; 172 6; 173 4; 174 1; 175 1; 
176 1; 177 1; 178 1; 179 1; 180 1; 
181 1; 182 2; 183 1; 184 11; 185 8; 
186 115; 187 54; 188 35; 189 10; 190 1; 
191 1; 192 1; 193 1; 194 1; 195 1; 
196 1; 197 1; 198 2; 199 1; 200 2; 
201 1; 202 1; 203 1; 204 1; 205 1; 
206 1; 207 1; 208 1; 209 1; 210 1; 
211 1; 212 2; 213 1; 214 418; 215 66; 
216 6; 217 1; 218 1; 219 1; 220 1; 
221 1; 222 1; 223 1; 224 1; 225 1; 
226 1; 227 1; 228 2; 229 1; 230 1; 
231 1; 232 1; 235 1; 237 1; 239 1; 
240 1; 241 1; 242 1; 243 1; 244 1; 
245 1; 249 1; 250 1; 251 1; 252 1; 
253 2; 254 1; 255 3; 257 999; 258 184; 
259 18; 260 1; 261 1; 264 1; 265 1; 
266 1; 267 1; 268 1; 269 1; 271 1; 
272 1; 277 1; 278 1; 279 4; 280 1; 
281 1; 282 1; 283 1; 284 1; 285 1; 
307 1; 315 1; 325 1; 327 1; 328 1; 
329 1; 331 1; 332 1; 333 1; 341 1; 
342 1; 343 1; 346 1; 347 1; 348 1; 
349 1; 
