Name: JWH-412 N-(5-hydroxypentyl) metabolite
InChIKey: JIQKZFCDBLYORO-UHFFFAOYSA-N
Synon: F2201 N-(5-hydroxypentyl) metabolite
Synon: (4-Fluoronaphthalen-1-yl)(1-(5-hydroxypentyl)-1H-indol-3-yl)methanone
Formula: C24H22FNO2
MW: 375
ExactMass: 375.163458
CASNO: 0
ID: 4868
Comment: Provided by www.caymanchem.com/app/template/landing%2CForensic.vm / Item#17789 Batch#0514138
Num Peaks: 276
41 267; 42 26; 43 49; 44 5; 45 26; 
50 15; 51 26; 52 13; 53 21; 54 1; 
55 49; 56 6; 57 33; 58 1; 59 7; 
61 8; 62 10; 63 14; 64 1; 65 11; 
66 1; 67 14; 68 2; 69 94; 70 7; 
71 1; 73 83; 74 19; 75 57; 76 35; 
77 43; 78 20; 79 4; 81 12; 82 1; 
83 1; 85 41; 86 2; 87 11; 88 17; 
89 83; 90 15; 91 21; 92 2; 93 7; 
94 9; 95 6; 96 12; 97 9; 98 2; 
99 34; 100 4; 101 42; 102 112; 103 39; 
104 10; 105 12; 106 6; 107 5; 109 3; 
110 7; 111 1; 112 1; 113 8; 114 31; 
115 123; 116 193; 117 49; 118 18; 119 20; 
120 17; 121 7; 122 14; 123 5; 124 1; 
125 244; 126 36; 127 18; 128 135; 129 108; 
130 121; 131 28; 132 31; 133 33; 134 16; 
135 48; 136 68; 137 14; 138 2; 139 1; 
140 11; 141 9; 142 11; 143 39; 144 674; 
145 919; 146 188; 147 40; 148 12; 149 10; 
150 47; 151 259; 152 7; 153 3; 154 28; 
155 10; 156 44; 157 31; 158 44; 159 44; 
160 3; 161 7; 162 4; 163 10; 164 6; 
165 16; 166 5; 167 15; 168 18; 169 8; 
170 66; 171 29; 172 173; 173 999; 174 145; 
175 11; 176 4; 177 10; 178 6; 179 12; 
180 3; 181 23; 182 7; 183 9; 184 38; 
185 173; 186 23; 187 10; 188 1; 189 15; 
190 1; 191 21; 192 19; 193 21; 194 14; 
195 20; 196 7; 197 37; 198 24; 199 7; 
200 27; 201 6; 202 133; 203 29; 204 4; 
205 28; 206 9; 207 162; 208 32; 209 23; 
210 7; 211 12; 212 7; 213 8; 214 6; 
215 1; 218 7; 219 6; 220 7; 221 13; 
222 4; 223 17; 224 3; 225 4; 226 4; 
227 3; 228 12; 229 9; 230 536; 231 164; 
232 67; 233 76; 234 17; 235 3; 237 2; 
238 8; 239 12; 240 16; 241 11; 242 11; 
243 5; 244 44; 245 16; 246 21; 247 4; 
248 1; 249 5; 250 3; 251 17; 252 3; 
253 80; 254 63; 255 27; 256 11; 257 26; 
258 86; 259 142; 260 81; 261 25; 262 4; 
265 6; 266 3; 267 13; 268 4; 269 23; 
270 19; 271 33; 272 211; 273 52; 274 87; 
275 17; 276 2; 281 49; 282 16; 283 17; 
284 45; 285 52; 286 27; 287 93; 288 458; 
289 99; 290 31; 291 11; 295 1; 296 1; 
298 9; 299 2; 300 61; 301 23; 302 514; 
303 133; 304 20; 311 1; 312 6; 313 2; 
314 16; 315 13; 316 12; 317 1; 325 7; 
326 5; 327 21; 328 20; 329 9; 330 6; 
331 14; 332 2; 340 9; 341 6; 342 7; 
343 19; 344 17; 345 17; 346 11; 347 3; 
355 13; 356 19; 357 7; 358 117; 359 15; 
360 1; 373 4; 374 95; 375 421; 376 106; 
377 9; 
