Name: Trazodone-d6
InChIKey: PHLBKPHSAVXXEF-ZQQTVQSWSA-N
Synon: 2-[3-[4-(3-chlorophenyl)-1-piperazinyl]propyl-d6]-1,2,4-triazolo[4,3-a]pyridin-3(2H)-one
Formula: C19H16D6ClN5O
MW: 377
ExactMass: 377.188948
CASNO: 1181578711
ID: 4870
Comment: Provided by www.caymanchem.com/app/template/landing%2CForensic.vm / Item#19052 Batch#0517154
Num Peaks: 334
40 2; 41 15; 42 46; 43 25; 44 105; 
45 17; 46 66; 47 39; 48 3; 49 4; 
50 16; 51 54; 52 19; 53 6; 54 13; 
55 15; 56 108; 57 20; 58 60; 59 9; 
60 45; 61 9; 62 13; 63 13; 64 13; 
65 18; 66 17; 67 20; 68 12; 69 6; 
70 8; 71 7; 72 197; 73 222; 74 92; 
75 114; 76 65; 77 57; 78 357; 79 53; 
80 80; 81 9; 82 7; 83 5; 84 8; 
85 13; 86 16; 87 21; 88 47; 89 46; 
90 25; 91 20; 92 24; 93 13; 94 82; 
95 37; 96 49; 97 8; 98 10; 99 13; 
100 12; 101 18; 102 70; 103 67; 104 31; 
105 8; 106 17; 107 4; 108 7; 109 5; 
110 15; 111 138; 112 28; 113 47; 114 11; 
115 9; 116 15; 117 26; 118 15; 119 34; 
120 39; 121 17; 122 49; 123 9; 124 6; 
125 54; 126 8; 127 21; 128 3; 129 5; 
130 29; 131 21; 132 7; 133 13; 134 6; 
135 16; 136 64; 137 94; 138 323; 139 210; 
140 122; 141 89; 142 21; 143 13; 144 9; 
145 14; 146 2; 147 3; 148 5; 149 12; 
150 133; 151 21; 152 14; 153 17; 154 42; 
155 23; 156 8; 157 6; 158 3; 159 3; 
160 4; 161 1; 162 1; 163 2; 164 19; 
165 67; 166 161; 167 41; 168 53; 169 24; 
170 5; 171 5; 172 1; 173 2; 174 1; 
175 4; 176 5; 177 6; 178 10; 179 12; 
180 28; 181 37; 182 317; 183 64; 184 7; 
185 3; 186 1; 187 1; 188 3; 189 2; 
190 1; 191 2; 192 5; 193 15; 194 97; 
195 93; 196 51; 197 34; 198 5; 199 1; 
200 1; 201 1; 202 1; 203 1; 204 1; 
205 1; 206 1; 207 2; 208 10; 209 34; 
210 64; 211 999; 212 127; 213 67; 214 9; 
215 1; 216 1; 217 1; 218 1; 219 1; 
220 1; 221 1; 222 2; 223 8; 224 72; 
225 113; 226 11; 227 12; 228 2; 229 3; 
230 1; 231 1; 232 1; 233 1; 234 1; 
235 1; 236 15; 237 196; 238 30; 239 7; 
240 3; 241 6; 242 3; 243 1; 244 1; 
245 1; 246 1; 247 1; 248 1; 249 2; 
250 1; 251 3; 252 1; 253 3; 254 3; 
255 3; 256 3; 257 1; 258 1; 259 1; 
260 1; 261 1; 263 1; 264 1; 265 1; 
266 1; 267 1; 268 1; 269 1; 270 1; 
271 1; 272 1; 273 1; 274 1; 275 1; 
276 1; 277 1; 278 1; 279 1; 280 1; 
281 1; 282 2; 283 27; 284 139; 285 42; 
286 48; 287 12; 288 1; 289 1; 290 1; 
291 1; 292 1; 293 1; 295 1; 296 1; 
297 1; 298 1; 299 1; 300 1; 301 1; 
302 1; 303 1; 304 1; 305 1; 306 1; 
308 1; 309 1; 310 1; 311 1; 312 1; 
313 1; 314 1; 315 1; 316 1; 317 1; 
318 1; 319 1; 321 1; 322 1; 323 1; 
324 1; 325 1; 326 1; 327 1; 328 1; 
329 1; 330 1; 331 1; 332 1; 333 1; 
334 1; 335 7; 336 1; 337 2; 338 1; 
339 1; 340 1; 341 2; 342 3; 343 1; 
344 1; 345 1; 346 1; 347 1; 348 1; 
349 1; 350 1; 351 1; 353 1; 354 1; 
355 1; 356 1; 357 1; 358 1; 359 1; 
360 1; 361 1; 362 73; 363 10; 364 26; 
365 5; 366 1; 367 1; 368 1; 369 1; 
371 1; 372 1; 374 1; 375 17; 376 3; 
377 22; 378 4; 379 7; 380 2; 
