Name: Norsufentanil-d3
InChIKey: ULOZGJWEIWAWML-BMSJAHLVSA-N
Synon: N-[4-(methoxy-d3-methyl)-4-piperidinyl]-N-phenyl-propanamide
Synon: R 30451-d3
Formula: C16H21D3N2O2
MW: 279
ExactMass: 279.202608
CASNO: 1204688163
ID: 4871
Comment: Provided by www.caymanchem.com/app/template/landing%2CForensic.vm / Item#9001143 Batch#0513672
Num Peaks: 242
40 14; 41 114; 42 264; 43 47; 44 19; 
45 6; 46 3; 47 2; 48 197; 49 6; 
50 27; 51 81; 52 30; 53 56; 54 35; 
55 77; 56 125; 57 322; 58 17; 59 2; 
60 4; 61 12; 62 22; 63 41; 64 46; 
65 148; 66 80; 67 130; 68 56; 69 35; 
70 25; 71 5; 72 9; 73 9; 74 27; 
75 14; 76 21; 77 327; 78 59; 79 32; 
80 91; 81 42; 82 999; 83 131; 84 14; 
85 3; 86 6; 87 6; 88 117; 89 17; 
90 13; 91 115; 92 82; 93 846; 94 229; 
95 310; 96 803; 97 85; 98 14; 99 12; 
100 19; 101 38; 102 27; 103 31; 104 56; 
105 36; 106 44; 107 6; 108 13; 109 3; 
110 25; 111 6; 112 22; 113 3; 114 2; 
115 12; 116 8; 117 63; 118 183; 119 64; 
120 36; 121 5; 122 1; 123 1; 124 6; 
125 6; 126 7; 127 11; 128 23; 129 91; 
130 257; 131 415; 132 166; 133 49; 134 33; 
135 4; 136 1; 137 1; 138 2; 139 2; 
140 29; 141 4; 142 4; 143 20; 144 58; 
145 21; 146 840; 147 116; 148 28; 149 150; 
150 85; 151 12; 152 2; 153 2; 154 10; 
155 6; 156 10; 157 8; 158 141; 159 29; 
160 9; 161 2; 162 1; 163 2; 164 1; 
165 2; 166 3; 167 37; 168 5; 169 1; 
170 3; 171 15; 172 38; 173 69; 174 17; 
175 384; 176 52; 177 4; 178 2; 179 30; 
180 5; 181 1; 182 1; 183 1; 184 2; 
185 7; 186 3; 187 13; 188 11; 189 39; 
190 7; 191 2; 192 1; 193 1; 194 11; 
195 2; 196 1; 197 2; 198 1; 199 7; 
200 5; 201 3; 202 20; 203 4; 204 2; 
205 6; 206 292; 207 52; 208 6; 209 1; 
210 1; 211 1; 212 1; 213 7; 214 3; 
215 4; 216 6; 217 1; 218 1; 219 1; 
220 5; 221 3; 222 62; 223 11; 224 1; 
225 1; 226 1; 227 18; 228 4; 229 7; 
230 1; 231 294; 232 50; 233 5; 234 1; 
235 1; 236 1; 237 1; 238 1; 239 1; 
240 1; 241 1; 242 1; 243 1; 244 2; 
245 1; 246 1; 247 1; 248 1; 249 1; 
250 1; 251 1; 252 1; 253 1; 254 1; 
255 1; 256 1; 257 1; 258 1; 259 1; 
260 2; 261 17; 262 3; 263 1; 264 1; 
265 1; 266 1; 267 1; 268 1; 269 1; 
270 1; 271 1; 272 1; 273 1; 274 1; 
275 1; 276 1; 277 1; 278 1; 279 1; 
280 1; 281 3; 
