Name: para-Methoxy Valeryl fentanyl
InChIKey: SVNODVBERPGABW-UHFFFAOYSA-N
Synon: 4-Methoxy Valeryl fentanyl
Synon: p-Methoxy Valeryl fentanyl
Synon: N-(4-methoxyphenyl)-N-(1-phenethylpiperidin-4-yl)pentanamide
Formula: C25H34N2O2
MW: 394
ExactMass: 394.262028
CASNO: 0
ID: 4872
Comment: Provided by www.caymanchem.com/app/template/landing%2CForensic.vm / Item#23471 Batch#0515717
Num Peaks: 355
40 3; 41 165; 42 167; 43 19; 44 71; 
45 4; 46 1; 47 1; 48 1; 49 3; 
50 15; 51 35; 52 27; 53 20; 54 11; 
55 45; 56 35; 57 248; 58 11; 59 5; 
60 1; 61 2; 62 6; 63 25; 64 18; 
65 70; 66 14; 67 38; 68 46; 69 48; 
70 122; 71 10; 72 2; 73 44; 74 11; 
75 10; 76 14; 77 129; 78 73; 79 103; 
80 52; 81 8; 82 42; 83 10; 84 16; 
85 80; 86 8; 87 3; 88 1; 89 14; 
90 17; 91 269; 92 65; 93 24; 94 48; 
95 22; 96 328; 97 42; 98 26; 99 2; 
100 1; 101 1; 102 10; 103 83; 104 85; 
105 313; 106 42; 107 36; 108 150; 109 12; 
110 2; 111 2; 112 1; 113 1; 114 1; 
115 6; 116 8; 117 18; 118 10; 119 13; 
120 17; 121 51; 122 51; 123 176; 124 32; 
125 2; 126 1; 127 1; 128 6; 129 3; 
130 26; 131 20; 132 37; 133 29; 134 106; 
135 42; 136 33; 137 4; 138 1; 139 19; 
140 1; 141 1; 142 2; 143 4; 144 20; 
145 25; 146 42; 147 26; 148 55; 149 66; 
150 12; 151 3; 152 3; 153 2; 154 3; 
155 2; 156 5; 157 3; 158 8; 159 5; 
160 88; 161 47; 162 74; 163 12; 164 6; 
165 6; 166 1; 167 2; 168 1; 169 1; 
170 1; 171 1; 172 2; 173 2; 174 11; 
175 12; 176 826; 177 106; 178 12; 179 6; 
180 1; 181 2; 182 7; 183 5; 184 29; 
185 22; 186 37; 187 24; 188 104; 189 22; 
190 8; 191 10; 192 3; 193 8; 194 1; 
195 3; 196 1; 197 9; 198 2; 199 1; 
200 2; 201 1; 202 3; 203 5; 204 3; 
205 2; 206 1; 207 91; 208 19; 209 8; 
210 1; 211 1; 212 1; 213 1; 214 1; 
215 1; 216 1; 217 8; 218 25; 219 575; 
220 86; 221 6; 222 2; 223 4; 224 1; 
225 1; 226 1; 227 1; 228 1; 229 1; 
230 2; 231 1; 232 1; 233 1; 234 1; 
235 1; 236 1; 237 2; 238 1; 239 2; 
240 1; 241 1; 242 1; 243 2; 244 1; 
245 1; 246 1; 247 1; 248 1; 249 4; 
250 1; 251 1; 252 1; 253 29; 254 7; 
255 6; 256 1; 257 1; 258 1; 259 1; 
260 66; 261 5; 262 1; 263 1; 264 1; 
265 1; 266 1; 267 4; 268 3; 269 3; 
270 2; 271 1; 272 1; 273 1; 274 2; 
275 1; 276 1; 277 1; 278 1; 279 1; 
280 1; 281 14; 282 15; 283 2; 284 1; 
285 1; 286 1; 287 1; 288 1; 289 1; 
290 1; 291 1; 292 1; 293 1; 294 1; 
295 1; 296 1; 297 1; 298 1; 299 1; 
300 1; 301 5; 302 1; 303 999; 304 200; 
305 23; 306 1; 307 1; 308 1; 309 1; 
310 1; 311 1; 312 1; 313 1; 314 1; 
315 3; 316 1; 317 1; 318 1; 319 1; 
320 1; 321 1; 322 1; 323 1; 324 1; 
325 2; 326 1; 327 9; 328 3; 329 3; 
330 1; 331 6; 332 2; 333 1; 334 1; 
335 1; 336 1; 337 1; 338 1; 339 1; 
340 1; 341 8; 342 1; 343 2; 344 1; 
345 1; 346 3; 347 1; 348 1; 349 1; 
350 1; 351 1; 352 1; 353 1; 354 1; 
355 3; 356 1; 357 1; 358 1; 359 1; 
360 1; 362 1; 363 1; 364 1; 365 1; 
366 1; 367 1; 368 1; 369 1; 370 1; 
371 1; 372 1; 373 1; 374 1; 375 1; 
376 1; 377 1; 378 1; 379 1; 380 1; 
381 1; 382 1; 383 1; 384 1; 385 1; 
386 1; 387 1; 388 1; 389 1; 390 1; 
391 1; 392 3; 393 2; 394 1; 395 1; 
