Name: 5-Fluoro-tert-Butylbenzyl-PINACA
InChIKey: XRAMUHKDZOPJDF-UHFFFAOYSA-N
Synon: N-(2,2-dimethyl-1-phenylpropyl)-1-(5-fluoropentyl)-1H-indazole-3-carboxamide
Synon: 5-Fluoro-TBB-PINACA
Formula: C24H30FN3O
MW: 395
ExactMass: 395.237291
CASNO: 0
ID: 4873
Comment: Provided by www.caymanchem.com/app/template/landing%2CForensic.vm / Item #23351 Batch #0516381
Num Peaks: 355
40 3; 41 68; 42 12; 43 11; 44 1; 
45 3; 46 1; 47 6; 48 1; 49 1; 
50 6; 51 8; 52 6; 53 9; 54 1; 
55 10; 56 12; 57 133; 58 7; 59 4; 
60 1; 61 1; 62 3; 63 8; 64 3; 
65 5; 66 1; 67 5; 68 3; 69 45; 
70 4; 71 1; 72 1; 73 22; 74 5; 
75 5; 76 14; 77 60; 78 20; 79 10; 
80 1; 81 1; 82 1; 83 1; 84 1; 
85 1; 86 1; 87 3; 88 26; 89 27; 
90 62; 91 43; 92 7; 93 1; 94 1; 
95 1; 96 3; 97 1; 98 1; 99 1; 
100 1; 101 2; 102 30; 103 111; 104 76; 
105 50; 106 43; 107 2; 108 1; 109 1; 
110 1; 111 1; 112 1; 113 1; 114 1; 
115 11; 116 17; 117 30; 118 11; 119 8; 
120 1; 121 1; 122 1; 123 1; 124 1; 
125 1; 126 1; 127 3; 128 6; 129 30; 
130 21; 131 122; 132 32; 133 8; 134 1; 
135 5; 136 1; 137 1; 138 1; 139 1; 
140 1; 141 1; 142 1; 143 12; 144 16; 
145 353; 146 27; 147 13; 148 2; 149 1; 
150 1; 151 1; 152 1; 153 1; 154 1; 
155 2; 156 17; 157 8; 158 6; 159 3; 
160 1; 161 3; 162 5; 163 2; 164 1; 
165 3; 166 1; 167 1; 168 2; 169 2; 
170 1; 171 12; 172 2; 173 1; 174 3; 
175 1; 176 1; 177 52; 178 6; 179 2; 
180 1; 181 1; 182 1; 183 1; 184 1; 
185 7; 186 2; 187 1; 188 1; 189 1; 
190 1; 191 4; 192 1; 193 5; 194 1; 
195 2; 196 1; 197 2; 198 1; 199 1; 
200 1; 201 1; 202 1; 203 1; 204 1; 
205 2; 206 1; 207 23; 208 5; 209 4; 
210 1; 211 1; 212 1; 213 96; 214 15; 
215 2; 216 1; 217 1; 218 1; 219 2; 
220 1; 221 1; 222 1; 223 1; 224 1; 
225 1; 226 1; 227 1; 228 1; 229 1; 
230 1; 231 11; 232 1; 233 999; 234 148; 
235 9; 236 2; 237 1; 238 1; 239 1; 
240 1; 241 1; 242 1; 243 1; 244 1; 
245 1; 246 1; 247 1; 248 1; 249 3; 
250 1; 251 1; 252 1; 253 8; 254 2; 
255 1; 256 1; 257 1; 258 1; 259 1; 
260 1; 261 1; 262 8; 263 1; 264 1; 
265 1; 266 1; 267 2; 268 1; 269 2; 
270 1; 271 1; 272 1; 273 1; 274 1; 
275 1; 276 1; 277 1; 278 1; 279 1; 
280 1; 281 8; 282 2; 283 1; 284 1; 
285 1; 286 1; 287 1; 288 1; 289 1; 
290 1; 291 1; 292 1; 293 1; 294 1; 
295 1; 296 1; 297 1; 298 1; 299 1; 
300 1; 301 1; 302 1; 303 1; 304 1; 
305 1; 306 1; 307 1; 308 1; 309 1; 
310 1; 311 1; 312 1; 313 1; 314 1; 
315 1; 316 1; 317 1; 318 17; 319 5; 
320 2; 321 1; 322 2; 323 1; 324 1; 
325 4; 326 1; 327 4; 328 1; 329 1; 
330 1; 331 3; 332 1; 333 1; 334 1; 
335 1; 336 1; 337 1; 338 512; 339 112; 
340 13; 341 5; 342 1; 343 1; 344 1; 
345 1; 346 1; 347 1; 348 1; 349 1; 
350 1; 351 1; 352 1; 353 1; 354 1; 
355 3; 356 1; 357 1; 358 1; 359 1; 
360 1; 361 1; 362 1; 363 1; 364 1; 
365 1; 366 1; 367 1; 368 1; 369 1; 
370 1; 371 1; 373 1; 374 1; 375 1; 
376 1; 377 1; 378 1; 380 3; 381 1; 
382 1; 383 1; 384 1; 385 1; 386 1; 
387 1; 388 1; 389 1; 390 1; 391 1; 
392 1; 393 1; 394 1; 395 1; 396 1; 
