Name: para-Chloro Cyclopropyl fentanyl
InChIKey: IPGLBSCVAGTNBX-UHFFFAOYSA-N
Synon: 4-Chloro Cyclopropyl fentanyl
Synon: p-Chloro Cyclopropyl fentanyl
Synon: N-(4-chlorophenyl)-N-(1-phenethylpiperidin-4-yl)cyclopropanecarboxamide
Formula: C23H27ClN2O
MW: 382
ExactMass: 382.18119
CASNO: 0
ID: 4875
Comment: Provided by www.caymanchem.com/app/template/landing%2CForensic.vm / Item#23342 Batch#0515413
Num Peaks: 340
40 2; 41 401; 42 218; 43 38; 44 99; 
45 4; 46 1; 47 1; 48 1; 49 3; 
50 19; 51 33; 52 19; 53 18; 54 20; 
55 50; 56 33; 57 23; 58 4; 59 2; 
60 1; 61 6; 62 12; 63 41; 64 20; 
65 83; 66 10; 67 37; 68 62; 69 999; 
70 119; 71 7; 72 2; 73 49; 74 16; 
75 53; 76 20; 77 114; 78 55; 79 103; 
80 24; 81 10; 82 38; 83 10; 84 17; 
85 5; 86 2; 87 5; 88 3; 89 29; 
90 30; 91 330; 92 43; 93 11; 94 28; 
95 22; 96 255; 97 30; 98 27; 99 42; 
100 9; 101 12; 102 20; 103 93; 104 82; 
105 277; 106 28; 107 2; 108 3; 109 1; 
110 4; 111 81; 112 14; 113 27; 114 3; 
115 20; 116 11; 117 36; 118 8; 119 6; 
120 3; 121 1; 122 1; 123 1; 124 1; 
125 20; 126 18; 127 248; 128 30; 129 82; 
130 95; 131 24; 132 24; 133 10; 134 11; 
135 12; 136 3; 137 7; 138 52; 139 24; 
140 32; 141 7; 142 8; 143 10; 144 27; 
145 13; 146 11; 147 8; 148 3; 149 2; 
150 2; 151 11; 152 32; 153 22; 154 8; 
155 8; 156 7; 157 4; 158 10; 159 4; 
160 19; 161 1; 162 1; 163 2; 164 28; 
165 32; 166 60; 167 18; 168 19; 169 4; 
170 3; 171 1; 172 1; 173 1; 174 1; 
175 1; 176 1; 177 4; 178 15; 179 13; 
180 328; 181 43; 182 106; 183 15; 184 21; 
185 17; 186 37; 187 22; 188 32; 189 6; 
190 1; 191 7; 192 39; 193 16; 194 17; 
195 60; 196 10; 197 20; 198 4; 199 1; 
200 1; 201 1; 202 1; 203 1; 204 1; 
205 2; 206 2; 207 35; 208 11; 209 6; 
210 1; 211 1; 212 1; 213 2; 214 1; 
215 1; 216 1; 217 1; 218 1; 219 1; 
220 1; 221 16; 222 9; 223 530; 224 76; 
225 171; 226 23; 227 2; 228 1; 229 1; 
230 1; 231 1; 232 1; 233 1; 234 1; 
235 1; 236 1; 237 1; 238 1; 239 2; 
240 1; 241 1; 242 1; 243 1; 244 1; 
245 1; 246 1; 247 1; 248 70; 249 12; 
250 18; 251 6; 252 1; 253 20; 254 5; 
255 3; 256 5; 257 2; 258 1; 259 1; 
260 1; 261 1; 262 4; 263 2; 264 2; 
265 3; 266 1; 267 3; 268 1; 269 2; 
270 1; 271 1; 272 1; 273 1; 274 1; 
275 1; 276 1; 277 1; 278 1; 279 1; 
280 1; 281 15; 282 3; 283 2; 284 1; 
285 1; 286 1; 287 1; 288 1; 289 2; 
290 1; 291 955; 292 175; 293 318; 294 53; 
295 4; 296 1; 297 1; 298 1; 299 1; 
300 1; 301 1; 302 1; 303 1; 304 1; 
306 1; 307 1; 308 1; 309 1; 310 1; 
311 2; 312 1; 313 3; 314 1; 315 2; 
316 1; 317 1; 318 1; 319 1; 320 1; 
321 1; 323 1; 324 1; 325 1; 326 1; 
327 6; 328 2; 329 1; 330 1; 331 6; 
332 1; 333 1; 334 1; 335 1; 336 1; 
337 1; 338 1; 339 1; 340 1; 341 5; 
342 2; 343 2; 344 1; 345 1; 346 2; 
347 1; 348 1; 349 1; 350 1; 352 1; 
353 1; 355 1; 356 1; 357 1; 358 1; 
359 1; 360 1; 361 1; 362 1; 363 1; 
364 1; 365 1; 366 1; 367 1; 368 1; 
369 1; 370 1; 371 1; 372 1; 373 1; 
374 1; 375 1; 376 1; 377 1; 378 1; 
379 1; 380 1; 381 1; 382 2; 383 1; 
