Name: para-Chloro Cyclopentyl fentanyl
InChIKey: SJMSXMAHJSSXOR-UHFFFAOYSA-N
Synon: 4-Chloro Cyclopentanoyl fentanyl
Synon: para-Chloro Cyclopentanoyl
Synon: p-Chloro Cyclopentanoyl fentanyl
Synon: 4-Chloro Cyclopentyl fentanyl
Synon: p-Chloro Cyclopentyl fentanyl
Synon: N-(4-chlorophenyl)-N-(1-phenethylpiperidin-4-yl)cyclopentanecarboxamide
Formula: C25H31ClN2O
MW: 410
ExactMass: 410.212492
CASNO: 0
ID: 4876
Comment: Provided by www.caymanchem.com/app/template/landing%2CForensic.vm / Item#23341 Batch#0515414
Num Peaks: 369
41 232; 42 138; 43 20; 44 74; 45 4; 
46 1; 47 1; 48 1; 49 1; 50 12; 
51 18; 52 9; 53 20; 54 8; 55 57; 
56 25; 57 18; 58 2; 59 3; 60 1; 
61 4; 62 7; 63 20; 64 8; 65 59; 
66 12; 67 84; 68 53; 69 999; 70 122; 
71 9; 72 2; 73 33; 74 9; 75 28; 
76 11; 77 71; 78 37; 79 65; 80 17; 
81 9; 82 30; 83 6; 84 18; 85 3; 
86 1; 87 2; 88 1; 89 15; 90 18; 
91 200; 92 29; 93 14; 94 27; 95 25; 
96 187; 97 151; 98 32; 99 18; 100 3; 
101 4; 102 12; 103 61; 104 53; 105 230; 
106 21; 107 2; 108 2; 109 1; 110 2; 
111 51; 112 7; 113 18; 114 2; 115 11; 
116 7; 117 16; 118 10; 119 3; 120 2; 
121 1; 122 1; 123 1; 124 1; 125 14; 
126 11; 127 146; 128 23; 129 40; 130 73; 
131 16; 132 17; 133 7; 134 8; 135 13; 
136 1; 137 4; 138 42; 139 31; 140 20; 
141 5; 142 4; 143 9; 144 12; 145 8; 
146 9; 147 7; 148 3; 149 1; 150 1; 
151 4; 152 25; 153 22; 154 16; 155 6; 
156 7; 157 2; 158 5; 159 4; 160 17; 
161 3; 162 1; 163 2; 164 21; 165 32; 
166 44; 167 17; 168 16; 169 3; 170 3; 
171 1; 172 1; 173 1; 174 1; 175 1; 
176 1; 177 5; 178 5; 179 9; 180 199; 
181 27; 182 73; 183 4; 184 13; 185 8; 
186 29; 187 7; 188 41; 189 3; 190 2; 
191 5; 192 8; 193 11; 194 3; 195 5; 
196 1; 197 4; 198 1; 199 1; 200 1; 
201 1; 202 1; 203 1; 204 1; 205 4; 
206 2; 207 29; 208 8; 209 7; 210 1; 
211 1; 212 1; 213 1; 214 1; 215 1; 
216 1; 217 1; 218 1; 219 1; 220 1; 
221 15; 222 4; 223 374; 224 53; 225 121; 
226 17; 227 1; 228 1; 229 1; 230 1; 
231 2; 232 1; 233 1; 234 2; 235 1; 
236 1; 237 1; 238 1; 239 1; 240 1; 
241 1; 242 1; 243 1; 244 1; 245 1; 
246 1; 247 1; 248 1; 249 1; 250 1; 
251 1; 252 1; 253 16; 254 2; 255 2; 
256 1; 257 1; 258 1; 259 1; 260 1; 
261 1; 262 1; 263 1; 264 1; 265 2; 
266 1; 267 2; 268 1; 269 3; 270 1; 
271 1; 272 1; 273 1; 274 1; 275 1; 
276 7; 277 3; 278 2; 279 1; 280 1; 
281 10; 282 2; 283 4; 284 3; 285 3; 
286 1; 287 1; 288 1; 289 1; 290 1; 
291 1; 292 1; 293 1; 294 1; 295 1; 
296 1; 297 1; 298 1; 299 1; 300 1; 
301 1; 302 1; 303 1; 304 1; 305 1; 
306 1; 307 1; 308 1; 309 1; 310 1; 
311 1; 312 1; 313 2; 314 1; 315 2; 
316 1; 317 2; 319 619; 320 129; 321 203; 
322 40; 323 3; 324 1; 325 2; 326 1; 
327 6; 328 1; 329 2; 330 1; 331 3; 
332 1; 333 1; 334 1; 335 1; 336 1; 
337 1; 338 1; 339 1; 340 1; 341 6; 
342 1; 343 5; 344 1; 345 1; 346 1; 
347 1; 348 1; 349 1; 350 1; 351 1; 
352 1; 353 1; 354 1; 355 2; 356 1; 
357 1; 358 1; 359 1; 360 1; 361 1; 
362 1; 364 1; 365 1; 366 1; 367 1; 
368 1; 369 1; 370 1; 371 1; 372 1; 
373 1; 374 1; 375 1; 376 1; 377 1; 
378 1; 379 1; 380 1; 381 1; 382 1; 
383 1; 384 1; 385 1; 386 1; 387 1; 
388 1; 389 1; 390 1; 391 1; 392 1; 
393 1; 394 1; 395 1; 396 1; 397 1; 
398 1; 399 1; 400 1; 401 1; 402 1; 
403 1; 404 1; 405 2; 406 1; 407 1; 
408 1; 409 1; 410 1; 411 1; 
