Name: para-Chloro Cyclobutyl fentanyl
InChIKey: BCYKSTXBLMALSD-UHFFFAOYSA-N
Synon: 4-Chloro Cyclobutyl fentanyl
Synon: p-Chloro Cyclobutyl fentanyl
Synon: N-(4-chlorophenyl)-N-(1-phenethylpiperidin-4-yl)cyclobutanecarboxamide
Formula: C24H29ClN2O
MW: 396
ExactMass: 396.19684
CASNO: 0
ID: 4877
Comment: Provided by www.caymanchem.com/app/template/landing%2CForensic.vm / Item#23339 Batch#0515415
Num Peaks: 356
40 2; 41 53; 42 185; 43 35; 44 89; 
45 3; 46 1; 47 1; 48 1; 49 2; 
50 15; 51 28; 52 14; 53 54; 54 30; 
55 900; 56 74; 57 19; 58 5; 59 1; 
60 1; 61 3; 62 8; 63 25; 64 9; 
65 66; 66 8; 67 36; 68 51; 69 52; 
70 92; 71 10; 72 2; 73 23; 74 9; 
75 37; 76 15; 77 95; 78 42; 79 92; 
80 21; 81 15; 82 42; 83 199; 84 30; 
85 6; 86 1; 87 2; 88 1; 89 24; 
90 23; 91 306; 92 35; 93 13; 94 33; 
95 25; 96 231; 97 34; 98 19; 99 20; 
100 2; 101 9; 102 15; 103 80; 104 60; 
105 307; 106 28; 107 4; 108 3; 109 1; 
110 3; 111 74; 112 10; 113 24; 114 3; 
115 13; 116 8; 117 32; 118 12; 119 5; 
120 1; 121 1; 122 1; 123 1; 124 1; 
125 17; 126 16; 127 146; 128 23; 129 51; 
130 95; 131 31; 132 32; 133 7; 134 9; 
135 5; 136 2; 137 7; 138 56; 139 35; 
140 35; 141 5; 142 7; 143 4; 144 24; 
145 17; 146 11; 147 5; 148 4; 149 2; 
150 1; 151 10; 152 33; 153 25; 154 20; 
155 9; 156 9; 157 4; 158 11; 159 4; 
160 26; 161 3; 162 1; 163 3; 164 33; 
165 41; 166 64; 167 23; 168 12; 169 4; 
170 3; 171 1; 172 1; 173 1; 174 1; 
175 1; 176 1; 177 2; 178 10; 179 11; 
180 323; 181 43; 182 111; 183 15; 184 24; 
185 18; 186 40; 187 14; 188 44; 189 7; 
190 3; 191 5; 192 28; 193 12; 194 15; 
195 8; 196 2; 197 3; 198 1; 199 1; 
200 1; 201 1; 202 1; 203 1; 204 1; 
205 1; 206 3; 207 16; 208 5; 209 26; 
210 6; 211 8; 212 1; 213 1; 214 1; 
215 1; 216 1; 217 1; 218 1; 219 1; 
220 1; 221 19; 222 13; 223 552; 224 82; 
225 175; 226 26; 227 3; 228 1; 229 1; 
230 1; 231 2; 232 1; 233 1; 234 21; 
235 3; 236 7; 237 1; 238 1; 239 1; 
240 1; 241 2; 242 1; 243 1; 244 1; 
245 1; 246 1; 247 1; 248 1; 249 2; 
250 1; 251 1; 252 1; 253 11; 254 3; 
255 1; 256 1; 257 1; 258 1; 259 1; 
260 1; 261 1; 262 27; 263 5; 264 9; 
265 2; 266 1; 267 4; 268 1; 269 2; 
270 7; 271 4; 272 1; 273 1; 274 1; 
275 1; 276 3; 277 16; 278 4; 279 8; 
280 1; 281 5; 282 1; 283 1; 284 1; 
285 1; 286 1; 287 1; 288 1; 289 1; 
290 1; 291 1; 292 1; 293 1; 294 1; 
295 1; 296 1; 297 1; 298 1; 299 1; 
300 1; 301 1; 302 1; 303 2; 305 999; 
306 208; 307 348; 308 62; 309 6; 310 1; 
311 1; 312 1; 313 4; 314 1; 315 2; 
316 1; 317 1; 318 1; 319 1; 320 1; 
321 1; 322 1; 323 1; 324 1; 325 2; 
326 1; 327 3; 328 1; 329 1; 330 1; 
331 3; 332 1; 333 1; 334 1; 335 1; 
336 1; 337 1; 338 1; 339 1; 340 1; 
341 3; 342 1; 343 1; 344 1; 345 1; 
346 1; 347 1; 348 1; 349 1; 350 1; 
351 1; 352 1; 353 1; 354 1; 355 2; 
356 1; 357 1; 358 1; 359 1; 360 1; 
361 1; 362 1; 363 1; 364 1; 365 1; 
366 1; 367 1; 368 1; 369 1; 370 1; 
371 1; 373 1; 374 1; 375 1; 376 1; 
377 1; 378 1; 379 1; 380 1; 381 1; 
382 1; 383 1; 384 1; 385 1; 387 1; 
388 1; 389 1; 390 1; 391 1; 392 1; 
393 1; 394 3; 395 1; 396 1; 397 1; 
398 1; 
