Name: para-Chloro Acrylfentanyl
InChIKey: CSFZVPAQJHDOCD-UHFFFAOYSA-N
Synon: 4-Chloro Acryloylfentanyl
Synon: p-Chloro Acryloylfentanyl
Synon: 4-Chloro Acrylfentanyl
Synon: p-Chloro Acrylfentanyl
Synon: N-(4-chlorophenyl)-N-(1-phenethylpiperidin-4-yl)acrylamide
Formula: C22H25ClN2O
MW: 368
ExactMass: 368.16554
CASNO: 0
ID: 4878
Comment: Provided by www.caymanchem.com/app/template/landing%2CForensic.vm / Item#23338 Batch#0515411
Num Peaks: 324
40 2; 41 58; 42 229; 43 37; 44 131; 
45 5; 46 1; 47 1; 48 1; 49 1; 
50 19; 51 33; 52 17; 53 19; 54 24; 
55 549; 56 54; 57 13; 58 4; 59 3; 
60 1; 61 5; 62 11; 63 36; 64 13; 
65 91; 66 10; 67 40; 68 46; 69 49; 
70 68; 71 7; 72 3; 73 37; 74 14; 
75 52; 76 20; 77 115; 78 52; 79 96; 
80 22; 81 10; 82 36; 83 7; 84 17; 
85 4; 86 4; 87 4; 88 2; 89 31; 
90 29; 91 344; 92 40; 93 11; 94 30; 
95 11; 96 229; 97 29; 98 32; 99 27; 
100 6; 101 5; 102 21; 103 91; 104 71; 
105 238; 106 22; 107 1; 108 2; 109 1; 
110 4; 111 79; 112 5; 113 26; 114 4; 
115 12; 116 11; 117 33; 118 6; 119 5; 
120 1; 121 1; 122 1; 123 1; 124 2; 
125 12; 126 6; 127 122; 128 21; 129 44; 
130 85; 131 29; 132 27; 133 6; 134 8; 
135 10; 136 2; 137 9; 138 54; 139 42; 
140 32; 141 7; 142 7; 143 9; 144 25; 
145 16; 146 14; 147 9; 148 8; 149 3; 
150 2; 151 8; 152 30; 153 23; 154 11; 
155 8; 156 9; 157 6; 158 9; 159 2; 
160 17; 161 4; 162 1; 163 2; 164 52; 
165 31; 166 71; 167 19; 168 19; 169 4; 
170 4; 171 2; 172 1; 173 1; 174 1; 
175 1; 176 1; 177 3; 178 6; 179 8; 
180 279; 181 72; 182 103; 183 25; 184 23; 
185 9; 186 31; 187 18; 188 16; 189 2; 
190 2; 191 4; 192 100; 193 20; 194 39; 
195 9; 196 2; 197 2; 198 3; 199 8; 
200 1; 201 1; 202 1; 203 1; 204 1; 
205 1; 206 6; 207 24; 208 7; 209 5; 
210 2; 211 1; 212 1; 213 1; 214 1; 
215 1; 216 1; 217 1; 218 1; 219 1; 
220 1; 221 16; 222 17; 223 151; 224 27; 
225 46; 226 7; 227 1; 228 1; 229 1; 
230 1; 231 1; 232 1; 233 1; 234 356; 
235 54; 236 114; 237 15; 238 1; 239 1; 
240 1; 241 1; 242 7; 243 1; 244 1; 
245 1; 246 1; 247 1; 248 4; 249 2; 
250 1; 251 2; 252 1; 253 14; 254 2; 
255 2; 256 1; 257 1; 258 1; 259 1; 
260 1; 261 1; 262 1; 263 1; 265 3; 
266 1; 267 2; 268 1; 269 2; 270 1; 
271 1; 272 1; 273 1; 274 1; 275 1; 
276 1; 277 999; 278 174; 279 335; 280 56; 
281 16; 282 1; 283 2; 284 1; 285 1; 
286 1; 287 1; 288 1; 289 1; 290 1; 
291 1; 292 1; 293 1; 294 1; 295 1; 
296 1; 297 1; 298 1; 299 1; 300 1; 
301 1; 303 1; 304 1; 305 1; 306 1; 
307 1; 308 1; 309 1; 310 1; 311 1; 
312 1; 313 3; 314 1; 315 3; 316 1; 
317 1; 319 1; 320 1; 321 1; 322 1; 
323 1; 324 1; 325 3; 326 1; 327 6; 
328 1; 329 1; 330 1; 331 2; 332 1; 
333 1; 334 1; 335 1; 337 1; 338 1; 
339 1; 340 1; 341 4; 342 1; 343 3; 
344 1; 345 1; 346 1; 347 1; 348 1; 
349 1; 350 1; 351 1; 352 1; 353 1; 
354 1; 355 2; 356 1; 357 1; 358 1; 
359 1; 360 1; 362 1; 364 1; 365 1; 
366 1; 367 1; 368 1; 369 1; 
