Name: Ethoxyacetyl fentanyl
InChIKey: FBHHANTXGLSYKL-UHFFFAOYSA-N
Synon: 2-Ethoxy-N-phenyl-N-[1-(2-phenylethyl)-4-piperidinyl]-acetamide
Formula: C23H30N2O2
MW: 366
ExactMass: 366.230728
CASNO: 101365553
ID: 4879
Comment: Provided by www.caymanchem.com/app/template/landing%2CForensic.vm / Item#22992 Batch#0515878
Num Peaks: 327
40 1; 41 47; 42 117; 43 25; 44 32; 
45 4; 46 1; 47 1; 48 1; 49 1; 
50 10; 51 29; 52 11; 53 10; 54 12; 
55 29; 56 20; 57 14; 58 37; 59 206; 
60 7; 61 2; 62 4; 63 16; 64 13; 
65 77; 66 15; 67 23; 68 28; 69 30; 
70 77; 71 6; 72 2; 73 10; 74 5; 
75 5; 76 8; 77 174; 78 43; 79 70; 
80 15; 81 6; 82 27; 83 6; 84 11; 
85 2; 86 1; 87 1; 88 1; 89 12; 
90 9; 91 224; 92 71; 93 42; 94 30; 
95 23; 96 184; 97 30; 98 20; 99 1; 
100 1; 101 4; 102 7; 103 54; 104 86; 
105 242; 106 107; 107 11; 108 4; 109 1; 
110 1; 111 2; 112 3; 113 1; 114 7; 
115 12; 116 3; 117 29; 118 53; 119 38; 
120 26; 121 3; 122 3; 123 1; 124 1; 
125 1; 126 1; 127 1; 128 3; 129 3; 
130 67; 131 45; 132 98; 133 16; 134 27; 
135 63; 136 6; 137 1; 138 1; 139 24; 
140 4; 141 2; 142 2; 143 5; 144 18; 
145 10; 146 60; 147 8; 148 8; 149 2; 
150 1; 151 1; 152 1; 153 1; 154 2; 
155 1; 156 3; 157 3; 158 207; 159 32; 
160 33; 161 5; 162 4; 163 2; 164 1; 
165 1; 166 1; 167 1; 168 1; 169 1; 
170 3; 171 1; 172 6; 173 4; 174 16; 
175 3; 176 3; 177 2; 178 1; 179 25; 
180 4; 181 1; 182 2; 183 1; 184 16; 
185 12; 186 37; 187 39; 188 65; 189 30; 
190 6; 191 2; 192 1; 193 1; 194 1; 
195 1; 196 1; 197 1; 198 1; 199 1; 
200 1; 201 24; 202 6; 203 1; 204 106; 
205 16; 206 2; 207 8; 208 1; 209 1; 
210 1; 211 1; 212 1; 213 1; 214 1; 
215 1; 216 1; 217 1; 218 1; 219 1; 
220 1; 221 1; 222 1; 223 1; 224 1; 
225 1; 226 1; 227 1; 228 1; 229 2; 
230 1; 231 4; 232 118; 233 18; 234 2; 
235 1; 236 1; 237 1; 238 1; 239 1; 
240 1; 241 1; 242 1; 243 1; 244 1; 
245 2; 246 2; 247 8; 248 2; 249 1; 
250 1; 251 1; 252 1; 253 6; 254 1; 
255 1; 256 1; 257 1; 258 1; 259 1; 
260 1; 261 1; 262 1; 263 1; 264 1; 
265 1; 266 1; 267 1; 268 1; 269 1; 
270 1; 271 1; 272 1; 273 2; 274 1; 
275 999; 276 180; 277 20; 278 2; 279 3; 
280 1; 281 3; 282 1; 283 1; 284 1; 
285 1; 286 1; 287 1; 288 1; 289 1; 
290 1; 291 1; 292 1; 293 1; 294 1; 
295 1; 296 1; 297 1; 298 1; 299 1; 
300 1; 301 1; 302 1; 303 1; 304 1; 
305 1; 306 1; 307 1; 308 1; 309 1; 
310 1; 311 1; 312 1; 313 1; 314 1; 
315 1; 316 1; 317 1; 318 1; 319 1; 
320 1; 321 1; 322 1; 323 1; 324 1; 
325 1; 326 1; 327 2; 328 1; 329 1; 
330 1; 331 1; 332 1; 333 1; 335 1; 
336 1; 337 1; 338 1; 339 1; 340 1; 
341 1; 342 1; 343 1; 344 1; 345 1; 
346 1; 347 1; 348 1; 349 1; 350 1; 
351 1; 352 1; 353 1; 354 1; 355 1; 
356 1; 357 1; 358 1; 359 1; 360 1; 
361 1; 362 1; 363 1; 364 3; 365 1; 
366 1; 367 1; 
