Name: Mirtazapine-d3
InChIKey: RONZAEMNMFQXRA-FIBGUPNXSA-N
Synon: 6-Azamianserin-d3
Synon: 1,2,3,4,10,14b-hexahydro-2-methyl-d3-pyrazino[2,1-a]pyrido[2,3-c][2]benzazepine
Formula: C17H16D3N3
MW: 268
ExactMass: 268.176727
CASNO: 1216678680
ID: 4880
Comment: Provided by www.caymanchem.com/app/template/landing%2CForensic.vm / Item#21126 Batch#0515928
Num Peaks: 229
40 1; 41 5; 42 27; 43 4; 44 14; 
45 84; 46 72; 47 13; 48 1; 49 1; 
50 4; 51 10; 52 5; 53 2; 54 4; 
55 3; 56 9; 57 1; 58 2; 59 3; 
60 12; 61 5; 62 4; 63 15; 64 7; 
65 11; 66 2; 67 2; 68 1; 69 1; 
70 2; 71 1; 72 3; 73 19; 74 56; 
75 27; 76 10; 77 16; 78 10; 79 4; 
80 1; 81 1; 82 2; 83 1; 84 5; 
85 1; 86 3; 87 5; 88 9; 89 18; 
90 10; 91 10; 92 5; 93 2; 94 1; 
95 1; 96 1; 97 3; 98 3; 99 2; 
100 2; 101 5; 102 9; 103 10; 104 8; 
105 2; 106 1; 107 1; 108 1; 109 1; 
111 48; 113 9; 114 10; 115 28; 116 12; 
117 6; 118 4; 119 4; 120 1; 121 1; 
122 1; 123 1; 124 1; 125 3; 126 8; 
127 15; 128 13; 129 4; 130 4; 131 6; 
132 2; 133 1; 134 1; 135 1; 136 1; 
137 3; 138 7; 139 61; 140 49; 141 14; 
142 3; 143 2; 144 1; 145 2; 146 1; 
147 3; 148 1; 149 1; 150 6; 151 23; 
152 53; 153 21; 154 10; 155 3; 156 1; 
157 1; 158 1; 159 1; 160 1; 161 1; 
162 1; 163 5; 164 18; 165 21; 166 106; 
167 121; 168 37; 169 6; 170 1; 171 1; 
172 1; 173 1; 174 1; 175 1; 176 2; 
177 9; 178 21; 179 42; 180 126; 181 32; 
182 5; 183 1; 184 1; 185 1; 186 1; 
187 1; 188 1; 189 1; 190 7; 191 18; 
192 51; 193 119; 194 337; 195 999; 196 226; 
197 21; 198 1; 199 1; 200 1; 201 1; 
202 1; 203 2; 204 6; 205 18; 206 17; 
207 31; 208 161; 209 29; 210 5; 211 1; 
212 1; 213 1; 214 1; 215 1; 216 1; 
217 1; 218 7; 219 19; 220 8; 221 56; 
222 37; 223 7; 224 2; 225 1; 226 1; 
227 1; 228 1; 229 1; 230 1; 231 1; 
232 1; 233 2; 234 2; 235 1; 236 1; 
237 1; 238 1; 239 1; 240 1; 241 1; 
242 1; 243 1; 244 1; 245 1; 246 1; 
247 1; 248 1; 249 1; 250 6; 251 6; 
252 2; 253 5; 254 1; 255 1; 256 1; 
257 1; 258 1; 259 1; 260 1; 261 1; 
262 1; 263 1; 264 1; 265 1; 266 5; 
267 5; 268 52; 269 11; 270 1; 
