Name: Secobarbital-d5
InChIKey: KQPKPCNLIDLUMF-HHEIPOTRSA-N
Synon: Meballymal-d5
Synon: Quinalbarbitone-d5
Synon: 5-(1-methylbutyl)-5-(2-propenyl-1,1,2,3,3-d5)-2,4,6(1H,3H,5H)-pyrimidinetrione
Formula: C12H13D5N2O3
MW: 243
ExactMass: 243.163126
CASNO: 145243976
ID: 4881
Comment: Provided by www.caymanchem.com/app/template/landing%2CForensic.vm / Item#15856 Batch#0496148
Num Peaks: 202
40 27; 41 186; 42 132; 43 243; 44 63; 
45 52; 46 168; 47 9; 48 1; 49 1; 
50 3; 51 9; 52 15; 53 43; 54 39; 
55 113; 56 55; 57 40; 58 49; 59 13; 
60 6; 61 4; 62 2; 63 4; 64 3; 
65 11; 66 16; 67 34; 68 29; 69 71; 
70 93; 71 62; 72 24; 73 20; 74 11; 
75 2; 76 1; 77 8; 78 8; 79 24; 
80 30; 81 33; 82 64; 83 82; 84 52; 
85 38; 86 48; 87 14; 88 5; 89 2; 
90 1; 91 3; 92 4; 93 7; 94 18; 
95 18; 96 19; 97 16; 98 25; 99 22; 
100 94; 101 88; 102 261; 103 21; 104 2; 
105 1; 106 4; 107 2; 108 6; 109 19; 
110 52; 111 50; 112 74; 113 25; 114 23; 
115 7; 116 2; 117 5; 118 1; 119 1; 
120 1; 121 4; 122 3; 123 3; 124 10; 
125 8; 126 16; 127 11; 128 38; 129 149; 
130 21; 131 8; 132 1; 133 1; 134 1; 
135 3; 136 9; 137 5; 138 11; 139 6; 
140 3; 141 48; 142 15; 143 25; 144 17; 
145 11; 146 1; 147 1; 148 1; 149 1; 
150 1; 151 1; 152 3; 153 13; 154 24; 
155 200; 156 173; 157 42; 158 7; 159 1; 
160 1; 161 1; 162 1; 163 1; 164 1; 
165 2; 166 1; 167 36; 168 17; 169 5; 
170 11; 171 87; 172 686; 173 999; 174 158; 
175 16; 176 1; 177 1; 178 1; 179 12; 
180 2; 181 71; 182 10; 183 2; 184 1; 
185 1; 186 4; 187 2; 188 1; 189 1; 
190 1; 191 1; 192 1; 193 1; 194 1; 
195 26; 196 55; 197 33; 198 18; 199 26; 
200 246; 201 30; 202 3; 203 1; 204 1; 
205 1; 206 1; 207 1; 208 1; 209 1; 
210 1; 211 1; 212 1; 213 2; 214 12; 
215 3; 216 1; 217 1; 218 1; 219 1; 
220 1; 221 1; 222 1; 223 1; 224 1; 
225 1; 226 1; 227 1; 228 4; 229 1; 
230 1; 232 1; 233 1; 234 1; 235 1; 
236 1; 238 1; 239 1; 241 1; 242 1; 
243 1; 244 1; 
