Name: 6.alpha.-Naloxol
InChIKey: HMWHERQFMBEHNG-AQQQZIQISA-N
Synon: (5.alpha.,6.alpha.)-4,5-epoxy-17-(2-propen-1-yl)-morphinan-3,6,14-triol
Synon: 6-Hydroxy Naloxone
Synon: NLL
Formula: C19H23NO4
MW: 329
ExactMass: 329.162708
CASNO: 20410951
ID: 4882
Comment: Provided by www.caymanchem.com/app/template/landing%2CForensic.vm / Item#22146 Batch#0509281
Num Peaks: 290
40 33; 41 596; 42 154; 43 118; 44 74; 
45 33; 46 3; 48 1; 49 1; 50 7; 
51 26; 52 16; 53 37; 54 27; 55 140; 
56 80; 57 95; 58 38; 59 7; 60 4; 
61 2; 62 4; 63 24; 64 11; 65 59; 
66 28; 67 33; 68 184; 69 82; 70 307; 
71 32; 72 11; 73 87; 74 14; 75 18; 
76 16; 77 150; 78 33; 79 32; 80 28; 
81 33; 82 290; 83 153; 84 323; 85 93; 
86 8; 87 5; 88 6; 89 61; 90 20; 
91 152; 92 26; 93 25; 94 26; 95 19; 
96 445; 97 61; 98 21; 99 27; 100 11; 
101 23; 102 56; 103 104; 104 18; 105 30; 
106 12; 107 33; 108 27; 109 20; 110 41; 
111 11; 112 21; 113 20; 114 23; 115 290; 
116 81; 117 60; 118 33; 119 40; 120 40; 
121 35; 122 20; 123 35; 124 19; 125 7; 
126 34; 127 137; 128 135; 129 76; 130 29; 
131 159; 132 59; 133 54; 134 29; 135 47; 
136 28; 137 17; 138 12; 139 52; 140 26; 
141 67; 142 27; 143 63; 144 87; 145 86; 
146 57; 147 128; 148 47; 149 28; 150 24; 
151 21; 152 49; 153 68; 154 54; 155 47; 
156 35; 157 55; 158 24; 159 59; 160 73; 
161 196; 162 81; 163 31; 164 18; 165 48; 
166 16; 167 19; 168 28; 169 60; 170 34; 
171 121; 172 76; 173 145; 174 103; 175 113; 
176 33; 177 22; 178 25; 179 21; 180 18; 
181 73; 182 33; 183 40; 184 82; 185 51; 
186 96; 187 188; 188 110; 189 84; 190 51; 
191 37; 192 18; 193 23; 194 8; 195 24; 
196 27; 197 70; 198 57; 199 122; 200 148; 
201 153; 202 189; 203 62; 204 60; 205 22; 
206 69; 207 129; 208 39; 209 36; 210 26; 
211 18; 212 72; 213 63; 214 35; 215 61; 
216 58; 217 35; 218 12; 219 11; 220 5; 
221 13; 222 9; 223 16; 224 33; 225 35; 
226 49; 227 49; 228 86; 229 79; 230 33; 
231 22; 232 28; 233 7; 234 5; 235 5; 
236 5; 237 12; 238 19; 239 12; 240 55; 
241 29; 242 221; 243 57; 244 54; 245 21; 
246 56; 247 24; 248 21; 249 11; 250 10; 
251 17; 252 40; 253 77; 254 61; 255 22; 
256 21; 257 17; 258 22; 259 17; 260 12; 
261 4; 262 2; 263 2; 264 6; 265 21; 
266 11; 267 22; 268 24; 269 34; 270 72; 
271 33; 272 28; 273 19; 274 10; 275 1; 
276 2; 277 1; 278 5; 279 2; 280 2; 
281 54; 282 18; 283 29; 284 15; 285 6; 
286 21; 287 13; 288 268; 289 50; 290 6; 
291 1; 292 13; 293 8; 294 6; 295 6; 
296 9; 297 3; 298 1; 299 3; 300 24; 
301 59; 302 86; 303 18; 304 3; 305 1; 
306 1; 308 2; 309 1; 310 63; 311 20; 
312 110; 313 31; 314 22; 315 13; 316 4; 
317 1; 318 1; 320 1; 322 1; 323 1; 
324 3; 325 4; 326 4; 327 24; 328 56; 
329 999; 330 214; 331 52; 332 8; 333 2; 
