Name: Trans-3-methyl Norfentanyl
InChIKey: OYAVLRFPQKQMMH-STQMWFEESA-N
Synon: trans-N-(3-methyl-4-piperidinyl)-N-phenyl-propanamide
Formula: C14H21N3O
MW: 247
ExactMass: 247.168463
CASNO: 33794433
ID: 4883
Comment: Provided by www.caymanchem.com/app/template/landing%2CForensic.vm / Item#22695 Batch#0509283
Num Peaks: 206
40 25; 41 358; 42 264; 43 102; 44 41; 
45 2; 46 1; 47 1; 48 1; 49 1; 
50 20; 51 97; 52 26; 53 46; 54 32; 
55 61; 56 231; 57 528; 58 25; 59 4; 
60 1; 61 2; 62 8; 63 35; 64 44; 
65 102; 66 55; 67 79; 68 277; 69 321; 
70 277; 71 234; 72 20; 73 3; 74 11; 
75 10; 76 26; 77 486; 78 75; 79 43; 
80 61; 81 42; 82 974; 83 70; 84 22; 
85 8; 86 3; 87 3; 88 2; 89 13; 
90 19; 91 165; 92 64; 93 757; 94 170; 
95 29; 96 372; 97 986; 98 999; 99 70; 
100 4; 101 1; 102 5; 103 33; 104 178; 
105 69; 106 103; 107 14; 108 1; 109 1; 
110 1; 111 2; 112 5; 113 8; 114 2; 
115 18; 116 11; 117 100; 118 219; 119 160; 
120 288; 121 30; 122 9; 123 1; 124 1; 
125 1; 126 3; 127 11; 128 10; 129 7; 
130 109; 131 49; 132 242; 133 99; 134 229; 
135 25; 136 2; 137 1; 138 1; 139 2; 
140 1; 141 33; 142 5; 143 10; 144 38; 
145 26; 146 90; 147 71; 148 55; 149 171; 
150 184; 151 24; 152 1; 153 1; 154 2; 
155 6; 156 11; 157 3; 158 53; 159 10; 
160 97; 161 22; 162 3; 163 1; 164 1; 
165 1; 166 1; 167 1; 168 1; 169 1; 
170 2; 171 4; 172 15; 173 226; 174 43; 
175 7; 176 19; 177 3; 178 1; 179 1; 
180 1; 181 1; 182 1; 183 1; 184 1; 
185 3; 186 2; 187 6; 188 27; 189 400; 
190 68; 191 8; 192 1; 193 1; 194 1; 
195 1; 196 1; 197 1; 198 1; 199 1; 
200 1; 201 1; 202 7; 203 26; 204 5; 
205 1; 206 1; 207 4; 208 1; 209 1; 
210 1; 211 1; 212 1; 213 1; 214 1; 
215 1; 216 5; 217 2; 218 1; 219 1; 
220 1; 221 1; 222 1; 223 1; 224 1; 
225 1; 226 1; 227 1; 228 7; 229 1; 
230 1; 231 2; 232 1; 234 1; 235 1; 
236 1; 239 1; 240 1; 241 1; 242 1; 
243 1; 244 1; 245 1; 246 33; 247 10; 
248 1; 
