Name: N-methyl Homarylamine
InChIKey: GWQGGJKNIBZRAG-UHFFFAOYSA-N
Synon: N,N-Dimethyl Homopiperonylamine
Formula: C11H15NO2
MW: 193
ExactMass: 193.110279
CASNO: 136366397
ID: 4885
Comment: Provided by www.caymanchem.com/app/template/landing%2CForensic.vm / Item#22239 Batch#0508883
Num Peaks: 149
40 1; 41 8; 42 72; 43 15; 44 5; 
45 1; 46 1; 47 1; 48 1; 49 1; 
50 9; 51 32; 52 5; 53 6; 54 2; 
55 2; 56 10; 57 16; 58 999; 59 35; 
60 1; 61 1; 62 8; 63 22; 64 6; 
65 26; 66 4; 67 2; 68 1; 69 1; 
70 2; 71 2; 72 1; 73 1; 74 4; 
75 4; 76 7; 77 60; 78 16; 79 9; 
80 1; 81 1; 82 1; 83 1; 84 1; 
85 1; 86 1; 87 1; 88 1; 89 20; 
90 6; 91 32; 92 4; 93 1; 94 2; 
95 1; 96 3; 97 1; 98 1; 99 1; 
100 1; 101 1; 102 1; 103 1; 104 2; 
105 14; 106 5; 107 2; 108 1; 109 1; 
110 1; 112 1; 113 1; 114 1; 115 1; 
116 1; 117 2; 118 4; 119 8; 120 2; 
121 3; 122 1; 123 1; 124 1; 125 1; 
126 1; 127 1; 128 1; 129 1; 130 1; 
131 1; 132 3; 133 1; 134 5; 135 47; 
136 5; 137 1; 138 1; 139 1; 141 1; 
142 1; 143 1; 144 1; 145 1; 146 1; 
147 16; 148 14; 149 11; 150 1; 151 1; 
152 1; 154 1; 155 1; 156 1; 157 1; 
158 1; 159 1; 160 2; 161 1; 162 2; 
163 1; 164 1; 165 1; 167 1; 168 1; 
169 1; 170 1; 171 1; 172 1; 173 1; 
174 1; 175 1; 176 1; 177 3; 178 1; 
179 1; 180 1; 181 1; 184 1; 186 1; 
187 1; 188 1; 189 1; 190 4; 191 4; 
192 3; 193 16; 194 2; 195 1; 
