Name: Furanylethyl fentanyl
InChIKey: AFTQVAQNGJXATO-UHFFFAOYSA-N
Synon: N-[1-[2-(2-furanyl)ethyl]-4-piperidinyl]-N-phenyl-propanamide
Formula: C20H26N2O2
MW: 326
ExactMass: 326.199429
CASNO: 1443498
ID: 4886
Comment: Provided by www.caymanchem.com/app/template/landing%2CForensic.vm / Item #20819 Batch #0499265
Num Peaks: 266
40 3; 41 49; 42 137; 43 22; 44 69; 
45 2; 46 1; 47 1; 48 1; 49 1; 
50 7; 51 21; 52 10; 53 45; 54 16; 
55 35; 56 25; 57 187; 58 8; 59 1; 
60 1; 61 1; 62 2; 63 7; 64 7; 
65 42; 66 23; 67 60; 68 33; 69 29; 
70 50; 71 5; 72 1; 73 6; 74 2; 
75 2; 76 5; 77 115; 78 18; 79 14; 
80 15; 81 145; 82 34; 83 7; 84 9; 
85 1; 86 1; 87 1; 88 1; 89 3; 
90 3; 91 32; 92 14; 93 69; 94 69; 
95 113; 96 115; 97 16; 98 7; 99 1; 
100 1; 101 1; 102 1; 103 9; 104 51; 
105 22; 106 25; 107 5; 108 5; 109 2; 
110 1; 111 1; 112 1; 113 1; 114 1; 
115 5; 116 4; 117 27; 118 76; 119 25; 
120 13; 121 3; 122 4; 123 1; 124 3; 
125 1; 126 1; 127 1; 128 2; 129 3; 
130 67; 131 47; 132 115; 133 21; 134 4; 
135 3; 136 3; 137 1; 138 1; 139 9; 
140 2; 141 1; 142 1; 143 3; 144 16; 
145 11; 146 667; 147 78; 148 12; 149 11; 
150 11; 151 1; 152 1; 153 1; 154 1; 
155 1; 156 3; 157 3; 158 51; 159 14; 
160 8; 161 2; 162 1; 163 1; 164 1; 
165 1; 166 1; 167 1; 168 1; 169 1; 
170 2; 171 1; 172 5; 173 4; 174 4; 
175 6; 176 16; 177 7; 178 13; 179 3; 
180 1; 181 1; 182 1; 183 1; 184 1; 
185 1; 186 1; 187 17; 188 16; 189 380; 
190 57; 191 6; 192 1; 193 2; 194 1; 
195 1; 196 1; 197 1; 198 1; 199 1; 
200 1; 201 1; 202 130; 203 19; 204 2; 
205 1; 206 1; 207 22; 208 5; 209 3; 
210 1; 211 1; 212 1; 213 1; 214 1; 
215 1; 216 3; 217 1; 218 1; 219 1; 
220 1; 221 1; 222 1; 223 1; 224 1; 
225 1; 226 1; 227 2; 228 1; 229 2; 
230 1; 231 1; 232 1; 233 1; 234 1; 
235 1; 236 1; 237 1; 238 1; 239 1; 
240 1; 241 1; 242 1; 243 3; 244 1; 
245 999; 246 169; 247 17; 248 1; 249 1; 
250 1; 251 1; 252 1; 253 4; 254 1; 
255 1; 256 1; 257 1; 258 1; 259 1; 
261 1; 262 1; 263 1; 264 1; 265 1; 
266 1; 267 1; 268 1; 269 2; 270 1; 
271 1; 273 1; 279 1; 281 9; 282 3; 
283 2; 284 1; 285 1; 286 1; 288 1; 
291 1; 293 1; 294 1; 295 1; 296 1; 
297 1; 298 1; 301 1; 305 1; 306 1; 
307 1; 308 1; 309 1; 310 1; 311 1; 
313 1; 315 1; 316 1; 317 1; 318 1; 
322 1; 323 1; 324 2; 325 1; 326 1; 
327 2; 
