Name: ortho-Methyl Methoxyacetyl fentanyl
InChIKey: JJNJJOPCUJRZRG-UHFFFAOYSA-N
Synon: 2-Methyl Methoxyacetyl fentanyl
Synon: o-Methyl Methoxyacetyl fentanyl
Synon: Methoxyacetyl fentanyl
Synon: 2-Methoxy-N-(1-phenethylpiperidin-4-yl)-N-(o-tolyl)acetamide
Formula: C23H30N2O2
MW: 366
ExactMass: 366.230728
CASNO: 0
ID: 4887
Comment: Provided by www.caymanchem.com/app/template/landing%2CForensic.vm / Item#22977 Batch#0513077
Num Peaks: 326
40 2; 41 40; 42 140; 43 23; 44 49; 
45 359; 46 7; 47 1; 48 1; 49 1; 
50 8; 51 16; 52 11; 53 13; 54 11; 
55 35; 56 22; 57 11; 58 18; 59 1; 
60 1; 61 1; 62 4; 63 16; 64 4; 
65 83; 66 9; 67 28; 68 29; 69 35; 
70 75; 71 8; 72 1; 73 14; 74 3; 
75 6; 76 7; 77 99; 78 45; 79 71; 
80 18; 81 7; 82 32; 83 5; 84 9; 
85 2; 86 1; 87 1; 88 5; 89 25; 
90 17; 91 342; 92 34; 93 10; 94 24; 
95 29; 96 193; 97 35; 98 13; 99 1; 
100 7; 101 2; 102 10; 103 55; 104 76; 
105 255; 106 81; 107 27; 108 4; 109 1; 
110 1; 111 1; 112 1; 113 1; 114 1; 
115 13; 116 9; 117 37; 118 87; 119 20; 
120 70; 121 5; 122 1; 123 2; 124 1; 
125 1; 126 1; 127 1; 128 9; 129 6; 
130 51; 131 29; 132 59; 133 28; 134 44; 
135 5; 136 1; 137 1; 138 1; 139 22; 
140 2; 141 1; 142 2; 143 9; 144 61; 
145 28; 146 57; 147 13; 148 4; 149 16; 
150 4; 151 1; 152 1; 153 1; 154 1; 
155 1; 156 6; 157 4; 158 19; 159 8; 
160 80; 161 8; 162 7; 163 1; 164 1; 
165 2; 166 1; 167 2; 168 1; 169 1; 
170 2; 171 3; 172 285; 173 45; 174 23; 
175 4; 176 3; 177 2; 178 1; 179 50; 
180 8; 181 1; 182 3; 183 1; 184 16; 
185 14; 186 38; 187 15; 188 21; 189 6; 
190 2; 191 2; 192 1; 193 3; 194 1; 
195 2; 196 1; 197 1; 198 1; 199 1; 
200 5; 201 6; 202 9; 203 23; 204 201; 
205 29; 206 2; 207 20; 208 4; 209 3; 
210 1; 211 1; 212 1; 213 1; 214 1; 
215 14; 216 4; 217 1; 218 1; 219 1; 
220 1; 221 1; 222 1; 223 1; 224 1; 
225 1; 226 1; 227 1; 228 1; 229 3; 
230 1; 231 1; 232 334; 233 49; 234 5; 
235 1; 236 1; 237 1; 238 1; 239 1; 
240 1; 241 1; 242 1; 243 1; 244 1; 
245 5; 246 2; 247 4; 248 1; 249 1; 
250 1; 251 1; 252 1; 253 9; 254 2; 
255 1; 256 1; 257 1; 258 1; 259 1; 
260 1; 261 1; 262 1; 263 1; 264 1; 
265 1; 266 1; 267 1; 268 1; 269 2; 
270 1; 271 1; 272 1; 273 1; 274 1; 
275 999; 276 178; 277 19; 278 1; 279 1; 
280 1; 281 8; 282 2; 283 1; 284 1; 
285 1; 286 1; 287 1; 288 1; 289 1; 
290 1; 291 1; 292 1; 293 1; 294 1; 
295 1; 296 1; 297 1; 298 1; 299 1; 
300 1; 301 1; 302 1; 303 1; 304 1; 
305 1; 306 1; 307 1; 308 1; 309 1; 
310 1; 311 1; 312 1; 313 1; 314 1; 
315 1; 316 1; 317 1; 318 1; 319 1; 
320 1; 321 1; 322 1; 323 1; 324 1; 
325 1; 326 1; 327 4; 328 1; 329 1; 
330 1; 331 2; 332 1; 333 1; 334 1; 
335 1; 336 1; 337 1; 339 1; 340 1; 
341 3; 342 1; 343 1; 344 1; 345 1; 
346 1; 347 1; 348 1; 349 1; 350 1; 
351 1; 352 1; 353 1; 354 1; 355 1; 
356 1; 357 1; 358 1; 359 1; 360 1; 
361 1; 362 1; 364 2; 365 1; 366 1; 
367 1; 
