Name: ortho-Methoxy-Butyryl fentanyl
InChIKey: RWKPKWZAKCWONI-UHFFFAOYSA-N
Synon: N-(2-methoxyphenyl)-N-(1-phenethylpiperidin-4-yl)butyramide
Synon: 2-MeO Butyryl fentanyl
Synon: 2-Methoxy Butyryl fentanyl
Synon: o-MeO Butyryl fentanyl
Synon: o-Methoxy Butyryl fentanyl
Formula: C24H32N2O2
MW: 380
ExactMass: 380.246378
CASNO: 0
ID: 4888
Comment: Provided by www.caymanchem.com/app/template/landing%2CForensic.vm / Item#22035 Batch#0512792
Num Peaks: 341
40 8; 41 128; 42 202; 43 275; 44 119; 
45 6; 46 2; 47 2; 48 2; 49 3; 
50 22; 51 39; 52 30; 53 12; 54 21; 
55 52; 56 31; 57 16; 58 4; 59 6; 
60 2; 61 3; 62 9; 63 26; 64 16; 
65 87; 66 13; 67 39; 68 43; 69 54; 
70 91; 71 174; 72 12; 73 119; 74 17; 
75 22; 76 15; 77 143; 78 84; 79 104; 
80 52; 81 16; 82 39; 83 9; 84 12; 
85 4; 86 2; 87 5; 88 2; 89 24; 
90 14; 91 295; 92 73; 93 31; 94 52; 
95 32; 96 307; 97 42; 98 27; 99 3; 
100 1; 101 4; 102 12; 103 90; 104 94; 
105 311; 106 58; 107 19; 108 118; 109 12; 
110 4; 111 2; 112 3; 113 3; 114 1; 
115 19; 116 6; 117 33; 118 18; 119 26; 
120 59; 121 22; 122 10; 123 146; 124 27; 
125 4; 126 1; 127 3; 128 6; 129 8; 
130 46; 131 26; 132 40; 133 71; 134 79; 
135 57; 136 14; 137 3; 138 1; 139 21; 
140 2; 141 2; 142 1; 143 7; 144 33; 
145 21; 146 47; 147 44; 148 53; 149 31; 
150 15; 151 2; 152 3; 153 4; 154 7; 
155 2; 156 12; 157 7; 158 7; 159 7; 
160 56; 161 71; 162 82; 163 22; 164 4; 
165 4; 166 2; 167 3; 168 2; 169 1; 
170 2; 171 3; 172 3; 173 3; 174 7; 
175 11; 176 911; 177 135; 178 20; 179 11; 
180 3; 181 2; 182 2; 183 2; 184 26; 
185 20; 186 47; 187 21; 188 96; 189 23; 
190 5; 191 51; 192 13; 193 73; 194 10; 
195 16; 196 3; 197 5; 198 3; 199 1; 
200 1; 201 1; 202 4; 203 7; 204 3; 
205 5; 206 2; 207 410; 208 88; 209 56; 
210 5; 211 4; 212 1; 213 1; 214 3; 
215 1; 216 1; 217 15; 218 17; 219 644; 
220 100; 221 12; 222 2; 223 3; 224 1; 
225 1; 226 1; 227 1; 228 2; 229 3; 
230 1; 231 1; 232 2; 233 1; 234 1; 
235 2; 236 1; 237 1; 238 2; 239 4; 
240 1; 241 2; 242 1; 243 1; 244 1; 
245 1; 246 67; 247 13; 248 1; 249 13; 
250 3; 251 5; 252 2; 253 54; 254 15; 
255 7; 256 2; 257 2; 258 1; 259 1; 
260 5; 261 2; 262 1; 263 2; 264 1; 
265 11; 266 2; 267 13; 268 6; 269 7; 
270 3; 271 2; 272 1; 273 2; 274 1; 
275 1; 276 1; 277 1; 278 1; 279 1; 
280 1; 281 115; 282 34; 283 21; 284 4; 
285 2; 286 1; 287 3; 288 1; 289 999; 
290 188; 291 24; 292 1; 293 1; 294 1; 
295 2; 296 1; 297 2; 298 1; 299 1; 
300 1; 301 1; 302 1; 303 1; 304 1; 
305 1; 306 1; 307 1; 308 1; 309 2; 
310 1; 311 2; 312 1; 313 2; 314 1; 
315 3; 316 1; 317 1; 318 1; 319 1; 
320 1; 321 1; 322 1; 323 1; 324 1; 
325 8; 326 1; 327 19; 328 4; 329 3; 
330 2; 331 16; 332 5; 333 3; 334 1; 
335 1; 336 1; 337 1; 338 1; 339 1; 
340 1; 341 27; 342 6; 343 9; 344 2; 
345 1; 346 7; 347 2; 348 1; 349 1; 
350 1; 351 1; 352 1; 353 1; 354 1; 
355 7; 356 4; 357 2; 358 2; 359 1; 
360 1; 361 1; 362 1; 363 1; 364 1; 
365 1; 366 1; 367 1; 368 1; 369 1; 
370 1; 371 1; 372 1; 373 1; 374 1; 
375 1; 376 1; 377 2; 378 4; 379 2; 
380 1; 
