Name: para-Chloro Furanyl fentanyl 3-furancarboxamide
InChIKey: YMMQGNSZCFXVKM-UHFFFAOYSA-N
Synon: p-Chloro Fu-F 3-furancarboxamide
Synon: 4-Chloro Fu-F 3-furancarboxamide
Synon: p-Chloro Furanyl fentanyl 3-furancarboxamide
Synon: 4-Chloro Furanyl fentanyl 3-furancarboxamide
Synon: N-(4-chlorophenyl)-N-(1-phenethylpiperidin-4-yl)furan-3-carboxamide
Formula: C24H25ClN2O2
MW: 408
ExactMass: 408.160456
CASNO: 0
ID: 4889
Comment: Provided by www.caymanchem.com/app/template/landing%2CForensic.vm / Item#22843 Batch#0512800
Num Peaks: 300
40 6; 41 32; 42 121; 43 20; 44 38; 
45 2; 46 1; 47 1; 49 1; 50 7; 
51 21; 52 10; 53 9; 54 11; 55 23; 
56 14; 57 11; 58 1; 59 4; 60 1; 
61 2; 62 5; 63 11; 64 3; 65 38; 
66 8; 67 37; 68 25; 69 25; 70 30; 
71 4; 72 1; 73 32; 74 8; 75 21; 
76 9; 77 54; 78 32; 79 46; 80 13; 
81 8; 82 18; 83 4; 84 4; 85 3; 
86 1; 87 3; 88 1; 89 12; 90 10; 
91 138; 92 12; 93 7; 94 20; 95 999; 
96 190; 97 21; 98 50; 99 10; 100 1; 
101 4; 102 11; 103 48; 104 46; 105 115; 
106 12; 107 3; 108 1; 109 1; 110 1; 
111 32; 112 5; 113 8; 114 2; 115 5; 
116 4; 117 7; 118 5; 119 6; 120 1; 
121 1; 122 1; 123 1; 124 1; 125 3; 
126 6; 127 8; 128 6; 129 6; 130 35; 
131 7; 132 11; 133 6; 134 4; 135 5; 
136 2; 137 2; 138 19; 139 8; 140 8; 
141 2; 142 3; 143 3; 144 6; 145 3; 
146 5; 147 7; 148 6; 149 4; 150 1; 
151 4; 152 10; 153 7; 154 8; 155 3; 
156 2; 157 2; 158 4; 159 1; 160 6; 
161 3; 162 1; 163 2; 164 11; 165 15; 
166 18; 167 7; 168 4; 169 2; 170 4; 
171 1; 172 1; 173 1; 174 1; 175 1; 
176 2; 177 3; 178 4; 179 4; 180 5; 
181 3; 182 3; 183 1; 184 12; 185 11; 
186 14; 187 10; 188 5; 189 1; 190 1; 
191 7; 192 37; 193 11; 194 11; 195 4; 
196 1; 197 2; 198 1; 199 1; 202 1; 
203 1; 204 18; 205 6; 206 8; 207 44; 
208 9; 209 7; 210 1; 211 1; 212 1; 
215 1; 216 1; 217 1; 218 1; 219 1; 
220 1; 221 22; 222 11; 223 15; 224 4; 
225 2; 226 1; 229 1; 231 1; 232 1; 
233 1; 234 1; 235 1; 236 1; 237 1; 
238 1; 239 3; 240 1; 241 1; 244 1; 
245 1; 246 1; 247 1; 249 1; 250 1; 
251 2; 252 1; 253 17; 254 2; 255 1; 
256 1; 257 1; 258 1; 259 1; 260 1; 
262 1; 263 1; 265 1; 266 2; 267 3; 
268 1; 269 3; 270 1; 271 1; 272 1; 
274 133; 275 22; 276 29; 277 3; 278 1; 
279 1; 281 14; 282 6; 283 4; 284 1; 
285 1; 286 1; 288 1; 289 1; 290 1; 
293 1; 295 1; 297 1; 299 1; 301 1; 
303 1; 309 1; 311 2; 312 1; 313 1; 
314 1; 315 2; 316 1; 317 366; 318 69; 
319 123; 320 21; 321 2; 322 1; 323 1; 
324 1; 325 1; 326 1; 327 5; 328 2; 
329 1; 330 1; 331 7; 332 2; 333 1; 
339 1; 340 1; 341 5; 342 2; 343 3; 
344 1; 345 1; 346 2; 347 1; 348 1; 
355 3; 356 1; 357 1; 369 1; 373 1; 
377 1; 378 1; 383 1; 385 1; 387 1; 
388 1; 389 1; 390 1; 391 1; 393 1; 
399 1; 400 1; 401 1; 402 1; 403 1; 
404 1; 405 4; 406 2; 407 1; 408 1; 
