Name: para-Fluoro Valeryl fentanyl
InChIKey: LRGKRSJHHVAEAD-UHFFFAOYSA-N
Synon: 4-Fluoro Valeryl fentanyl
Synon: p-Fluoro Valeryl fentanyl
Synon: N-(4-fluorophenyl)-N-(1-phenethylpiperidin-4-yl)pentanamide
Formula: C24H31FN2O
MW: 382
ExactMass: 382.242043
CASNO: 0
ID: 4890
Comment: Provided by www.caymanchem.com/app/template/landing%2CForensic.vm / Item#23085 Batch#0513083
Num Peaks: 344
40 5; 41 138; 42 157; 43 33; 44 115; 
45 4; 46 1; 47 1; 48 1; 49 1; 
50 8; 51 15; 52 8; 53 12; 54 14; 
55 62; 56 31; 57 270; 58 15; 59 1; 
60 1; 61 1; 62 4; 63 11; 64 4; 
65 38; 66 5; 67 27; 68 38; 69 39; 
70 71; 71 6; 72 1; 73 9; 74 4; 
75 19; 76 5; 77 55; 78 26; 79 60; 
80 16; 81 9; 82 36; 83 35; 84 26; 
85 113; 86 7; 87 1; 88 1; 89 11; 
90 7; 91 170; 92 20; 93 6; 94 28; 
95 93; 96 186; 97 30; 98 11; 99 1; 
100 1; 101 3; 102 6; 103 58; 104 42; 
105 242; 106 22; 107 6; 108 6; 109 42; 
110 30; 111 179; 112 22; 113 2; 114 1; 
115 6; 116 4; 117 12; 118 4; 119 2; 
120 2; 121 7; 122 60; 123 21; 124 20; 
125 2; 126 1; 127 1; 128 3; 129 2; 
130 21; 131 8; 132 12; 133 6; 134 13; 
135 26; 136 61; 137 37; 138 14; 139 21; 
140 1; 141 2; 142 1; 143 2; 144 6; 
145 3; 146 6; 147 5; 148 67; 149 57; 
150 84; 151 15; 152 7; 153 10; 154 2; 
155 2; 156 2; 157 1; 158 4; 159 1; 
160 21; 161 5; 162 11; 163 11; 164 556; 
165 63; 166 9; 167 1; 168 1; 169 1; 
170 1; 171 1; 172 1; 173 1; 174 2; 
175 2; 176 22; 177 13; 178 12; 179 3; 
180 1; 181 1; 182 3; 183 1; 184 15; 
185 8; 186 31; 187 8; 188 37; 189 6; 
190 3; 191 5; 192 2; 193 2; 194 1; 
195 15; 196 4; 197 1; 198 1; 199 1; 
200 1; 201 1; 202 1; 203 1; 204 1; 
205 17; 206 19; 207 438; 208 60; 209 5; 
210 1; 211 1; 212 1; 213 1; 214 1; 
215 1; 216 1; 217 1; 218 2; 219 1; 
220 1; 221 1; 222 1; 223 1; 224 1; 
225 1; 226 1; 227 1; 228 1; 229 1; 
230 1; 231 4; 232 1; 233 1; 234 1; 
235 1; 236 1; 237 1; 238 1; 239 1; 
240 1; 241 1; 242 1; 243 1; 244 1; 
245 1; 246 1; 247 1; 248 34; 249 6; 
250 1; 251 1; 252 1; 253 6; 254 2; 
255 1; 256 1; 257 1; 258 1; 259 1; 
260 1; 261 1; 262 4; 263 1; 264 1; 
265 1; 266 1; 267 1; 268 1; 269 1; 
270 1; 271 1; 272 1; 273 2; 274 1; 
275 1; 276 1; 277 1; 278 1; 279 1; 
280 1; 281 4; 282 1; 283 1; 284 1; 
285 1; 286 1; 287 1; 288 1; 289 3; 
290 1; 291 999; 292 188; 293 19; 294 1; 
295 1; 296 1; 297 3; 298 1; 299 1; 
300 1; 301 1; 302 1; 303 1; 304 1; 
305 1; 306 1; 307 1; 308 1; 309 1; 
310 1; 311 1; 312 1; 313 1; 314 1; 
315 1; 316 1; 317 1; 318 1; 319 1; 
320 1; 321 1; 322 1; 323 1; 324 1; 
325 1; 326 1; 327 2; 328 1; 329 1; 
330 1; 331 1; 332 1; 333 1; 334 1; 
335 1; 336 1; 337 1; 338 1; 339 1; 
340 1; 341 2; 342 1; 343 1; 344 1; 
345 1; 346 1; 347 1; 348 1; 349 1; 
350 1; 351 1; 352 1; 353 1; 354 1; 
355 1; 356 1; 357 1; 358 1; 359 1; 
360 1; 361 1; 362 1; 363 1; 364 1; 
365 1; 366 1; 367 1; 368 1; 369 1; 
370 1; 371 1; 372 1; 373 1; 374 1; 
375 1; 376 1; 377 1; 378 1; 379 1; 
380 4; 381 2; 382 1; 383 1; 
