Name: para-Methyl Cyclopropyl fentanyl
InChIKey: HVDSXTDEYBCMRJ-UHFFFAOYSA-N
Synon: 4-Methyl Cyclopropyl fentanyl
Synon: p-Methyl Cyclopropyl fentanyl
Synon: N-(1-phenethylpiperidin-4-yl)-N-(p-tolyl)cyclopropanecarboxamide
Formula: C24H30N2O
MW: 362
ExactMass: 362.235813
CASNO: 0
ID: 4891
Comment: Provided by www.caymanchem.com/app/template/landing%2CForensic.vm / Item#23045 Batch#0513471
Num Peaks: 322
40 11; 41 231; 42 148; 43 20; 44 48; 
45 2; 46 1; 47 1; 48 1; 49 1; 
50 7; 51 19; 52 11; 53 12; 54 13; 
55 33; 56 22; 57 16; 58 3; 59 1; 
60 1; 61 1; 62 3; 63 13; 64 5; 
65 71; 66 7; 67 25; 68 38; 69 433; 
70 83; 71 7; 72 1; 73 5; 74 3; 
75 3; 76 5; 77 83; 78 35; 79 75; 
80 17; 81 6; 82 27; 83 6; 84 9; 
85 1; 86 1; 87 1; 88 1; 89 20; 
90 16; 91 286; 92 29; 93 9; 94 24; 
95 18; 96 175; 97 23; 98 7; 99 1; 
100 1; 101 2; 102 6; 103 56; 104 48; 
105 256; 106 69; 107 123; 108 20; 109 2; 
110 1; 111 2; 112 2; 113 1; 114 1; 
115 11; 116 8; 117 32; 118 56; 119 22; 
120 22; 121 2; 122 1; 123 1; 124 1; 
125 1; 126 1; 127 1; 128 5; 129 6; 
130 56; 131 32; 132 79; 133 26; 134 18; 
135 4; 136 1; 137 1; 138 1; 139 6; 
140 1; 141 1; 142 3; 143 8; 144 64; 
145 54; 146 90; 147 15; 148 5; 149 1; 
150 1; 151 1; 152 1; 153 1; 154 2; 
155 1; 156 5; 157 5; 158 25; 159 14; 
160 698; 161 85; 162 8; 163 1; 164 1; 
165 1; 166 1; 167 1; 168 1; 169 1; 
170 3; 171 3; 172 82; 173 19; 174 8; 
175 26; 176 7; 177 1; 178 1; 179 1; 
180 1; 181 1; 182 2; 183 1; 184 16; 
185 12; 186 40; 187 12; 188 25; 189 4; 
190 1; 191 1; 192 1; 193 1; 194 1; 
195 1; 196 1; 197 1; 198 1; 199 1; 
200 2; 201 17; 202 25; 203 551; 204 79; 
205 6; 206 1; 207 4; 208 1; 209 1; 
210 1; 211 1; 212 1; 213 1; 214 2; 
215 1; 216 1; 217 1; 218 1; 219 1; 
220 1; 221 1; 222 1; 223 1; 224 1; 
225 1; 226 1; 227 1; 228 121; 229 21; 
230 2; 231 1; 232 1; 233 1; 234 1; 
235 1; 236 1; 237 1; 238 1; 239 1; 
240 1; 241 1; 242 4; 243 2; 244 1; 
245 1; 246 1; 247 1; 248 1; 249 1; 
250 1; 251 1; 252 1; 253 4; 254 1; 
255 1; 256 1; 257 1; 258 1; 259 1; 
260 1; 261 1; 262 1; 263 1; 264 1; 
265 1; 266 1; 267 1; 268 1; 269 2; 
271 999; 272 193; 273 20; 274 1; 275 1; 
276 1; 277 1; 278 1; 279 1; 280 1; 
281 2; 282 1; 283 1; 284 1; 285 1; 
286 1; 287 1; 288 1; 289 1; 290 1; 
291 1; 292 1; 293 2; 294 1; 295 1; 
296 1; 297 1; 298 1; 299 1; 300 1; 
301 1; 302 1; 303 1; 304 1; 305 1; 
306 1; 307 1; 308 1; 309 1; 310 1; 
311 1; 312 1; 313 1; 314 1; 315 1; 
316 1; 317 1; 318 1; 319 1; 320 1; 
321 1; 322 1; 323 1; 324 1; 325 1; 
326 1; 327 1; 328 1; 329 1; 330 1; 
331 1; 332 1; 333 1; 334 1; 335 1; 
336 1; 337 1; 338 1; 339 1; 340 1; 
341 1; 342 1; 343 1; 344 1; 345 1; 
346 1; 347 1; 348 1; 349 1; 350 1; 
351 1; 353 1; 354 1; 355 1; 356 1; 
357 1; 358 1; 359 1; 360 4; 361 2; 
362 1; 363 1; 
