Name: para-Fluoroacetyl fentanyl
InChIKey: OXKSBDHHJOPFAH-UHFFFAOYSA-N
Synon: 4-Fluoroacetyl fentanyl
Synon: p-Fluoroacetyl fentanyl
Synon: NIH 10022
Synon: N-(4-fluorophenyl)-N-[1-(2-phenylethyl)-4-piperidinyl]-acetamide
Formula: C21H25FN2O
MW: 340
ExactMass: 340.195091
CASNO: 104818373
ID: 4892
Comment: Provided by www.caymanchem.com/app/template/landing%2CForensic.vm / Item# 23017 Batch# 0512949
Num Peaks: 302
40 4; 41 44; 42 196; 43 256; 44 146; 
45 5; 46 1; 47 1; 48 1; 49 1; 
50 10; 51 20; 52 12; 53 11; 54 14; 
55 27; 56 27; 57 29; 58 4; 59 1; 
60 1; 61 2; 62 5; 63 16; 64 7; 
65 53; 66 6; 67 32; 68 33; 69 34; 
70 51; 71 5; 72 3; 73 12; 74 7; 
75 28; 76 7; 77 71; 78 31; 79 65; 
80 17; 81 11; 82 33; 83 38; 84 28; 
85 3; 86 2; 87 1; 88 1; 89 15; 
90 8; 91 195; 92 21; 93 9; 94 26; 
95 104; 96 158; 97 21; 98 10; 99 1; 
100 1; 101 3; 102 8; 103 60; 104 45; 
105 179; 106 17; 107 5; 108 7; 109 35; 
110 18; 111 156; 112 19; 113 1; 114 1; 
115 6; 116 4; 117 12; 118 4; 119 3; 
120 2; 121 6; 122 55; 123 16; 124 24; 
125 3; 126 1; 127 1; 128 3; 129 3; 
130 21; 131 7; 132 11; 133 6; 134 10; 
135 31; 136 98; 137 26; 138 8; 139 6; 
140 1; 141 1; 142 1; 143 2; 144 7; 
145 2; 146 6; 147 5; 148 55; 149 39; 
150 87; 151 14; 152 2; 153 28; 154 9; 
155 1; 156 3; 157 1; 158 4; 159 1; 
160 14; 161 5; 162 11; 163 9; 164 494; 
165 56; 166 7; 167 1; 168 1; 169 1; 
170 1; 171 1; 172 1; 173 1; 174 2; 
175 2; 176 78; 177 16; 178 7; 179 2; 
180 1; 181 1; 182 3; 183 1; 184 13; 
185 9; 186 21; 187 7; 188 7; 189 3; 
190 3; 191 4; 192 2; 193 2; 194 1; 
195 1; 196 1; 197 2; 198 1; 199 1; 
200 1; 201 1; 202 1; 203 1; 204 1; 
205 10; 206 327; 207 183; 208 23; 209 4; 
210 1; 211 1; 212 1; 213 1; 214 1; 
215 1; 216 1; 217 1; 218 1; 219 1; 
220 8; 221 2; 222 1; 223 1; 224 1; 
225 1; 226 1; 227 1; 228 1; 229 1; 
230 1; 231 1; 232 1; 233 1; 234 1; 
235 1; 236 1; 237 1; 238 1; 239 1; 
240 1; 241 1; 242 1; 243 1; 244 1; 
245 1; 246 1; 247 1; 248 1; 249 999; 
250 156; 251 15; 252 1; 253 8; 254 1; 
255 2; 256 1; 257 1; 258 1; 259 1; 
260 1; 261 1; 262 1; 263 1; 264 1; 
265 1; 266 1; 267 1; 268 1; 269 1; 
270 1; 271 1; 272 1; 273 1; 274 1; 
275 1; 276 1; 277 1; 278 1; 279 1; 
281 6; 282 1; 283 1; 284 1; 285 1; 
286 1; 287 1; 288 1; 289 1; 290 1; 
291 1; 292 1; 293 1; 294 1; 295 1; 
296 1; 297 1; 298 1; 299 1; 300 1; 
301 1; 302 1; 303 1; 304 1; 305 1; 
306 1; 307 1; 308 1; 309 1; 310 1; 
311 1; 312 1; 313 1; 314 1; 315 1; 
316 1; 317 1; 318 1; 319 1; 320 1; 
321 1; 322 1; 323 1; 324 1; 325 1; 
326 1; 327 2; 328 1; 329 1; 330 1; 
331 2; 332 1; 333 1; 334 1; 335 1; 
336 1; 337 1; 338 4; 339 2; 340 1; 
341 2; 342 1; 
