Name: (2-Methyl) Butyryl fentanyl
InChIKey: DRAWSQJHCQAWNN-UHFFFAOYSA-N
Synon: .alpha.'-methyl Butyryl fentanyl
Synon: 2-Methyl-N-(1-phenethylpiperidin-4-yl)-N-phenylbutanamide
Formula: C24H32N2O
MW: 364
ExactMass: 364.251463
CASNO: 0
ID: 4893
Comment: Provided by www.caymanchem.com/app/template/landing%2CForensic.vm / Item#22994 Batch#052427
Num Peaks: 324
40 5; 41 138; 42 126; 43 23; 44 53; 
45 2; 46 1; 47 1; 48 1; 49 1; 
50 7; 51 23; 52 8; 53 12; 54 13; 
55 49; 56 31; 57 487; 58 24; 59 1; 
60 1; 61 1; 62 3; 63 11; 64 8; 
65 49; 66 12; 67 21; 68 33; 69 40; 
70 58; 71 6; 72 1; 73 5; 74 3; 
75 3; 76 6; 77 149; 78 34; 79 60; 
80 13; 81 5; 82 28; 83 10; 84 21; 
85 65; 86 4; 87 1; 88 1; 89 9; 
90 8; 91 178; 92 32; 93 134; 94 42; 
95 23; 96 163; 97 23; 98 8; 99 1; 
100 1; 101 2; 102 6; 103 54; 104 92; 
105 273; 106 41; 107 4; 108 3; 109 1; 
110 1; 111 1; 112 1; 113 1; 114 1; 
115 9; 116 6; 117 34; 118 70; 119 32; 
120 18; 121 2; 122 1; 123 1; 124 1; 
125 1; 126 1; 127 1; 128 4; 129 4; 
130 87; 131 64; 132 99; 133 19; 134 15; 
135 4; 136 1; 137 1; 138 1; 139 20; 
140 2; 141 1; 142 1; 143 4; 144 20; 
145 12; 146 535; 147 61; 148 11; 149 4; 
150 1; 151 1; 152 1; 153 1; 154 1; 
155 1; 156 4; 157 3; 158 19; 159 14; 
160 33; 161 6; 162 2; 163 1; 164 1; 
165 1; 166 1; 167 1; 168 1; 169 1; 
170 1; 171 1; 172 4; 173 5; 174 2; 
175 1; 176 1; 177 19; 178 5; 179 1; 
180 1; 181 1; 182 2; 183 1; 184 12; 
185 10; 186 31; 187 29; 188 58; 189 618; 
190 82; 191 6; 192 1; 193 1; 194 1; 
195 1; 196 1; 197 1; 198 1; 199 1; 
200 2; 201 1; 202 1; 203 1; 204 1; 
205 1; 206 1; 207 5; 208 1; 209 1; 
210 1; 211 1; 212 1; 213 1; 214 1; 
215 1; 216 1; 217 1; 218 1; 219 1; 
220 1; 221 1; 222 1; 223 1; 224 1; 
225 1; 226 1; 227 1; 228 1; 229 1; 
230 18; 231 5; 232 1; 233 1; 234 1; 
235 1; 236 1; 237 1; 238 1; 239 1; 
240 1; 241 1; 242 1; 243 1; 244 3; 
245 1; 246 1; 247 1; 248 1; 249 1; 
250 1; 251 1; 252 1; 253 3; 254 1; 
255 1; 256 1; 257 1; 258 1; 259 1; 
260 1; 261 1; 262 1; 263 1; 264 1; 
265 1; 266 1; 267 1; 268 1; 269 1; 
270 1; 271 2; 273 999; 274 187; 275 18; 
276 1; 277 1; 278 1; 279 3; 280 1; 
281 2; 282 1; 283 1; 284 1; 285 1; 
286 1; 287 1; 288 1; 289 1; 290 1; 
291 1; 292 1; 293 1; 294 1; 295 1; 
296 1; 297 1; 298 1; 299 1; 300 1; 
301 1; 302 1; 303 1; 304 1; 305 1; 
306 1; 307 1; 308 1; 309 1; 310 1; 
311 1; 312 1; 313 1; 314 1; 315 1; 
316 1; 317 1; 318 1; 319 1; 320 1; 
322 1; 323 1; 324 1; 325 1; 326 1; 
327 1; 328 1; 329 1; 330 1; 331 1; 
332 1; 333 1; 334 1; 335 1; 336 1; 
337 1; 338 1; 339 1; 340 1; 341 1; 
342 1; 343 1; 344 1; 345 1; 346 1; 
347 1; 348 1; 349 1; 350 1; 351 1; 
352 1; 353 1; 354 1; 355 1; 356 1; 
357 1; 358 1; 359 1; 360 1; 361 1; 
362 4; 363 2; 364 1; 365 1; 
