Name: Pivaloyl fentanyl
InChIKey: ZSFLALBHNJDBFJ-UHFFFAOYSA-N
Synon: N-(1-phenethylpiperidin-4-yl)-N-phenylpivalamide
Formula: C24H32N2O
MW: 364
ExactMass: 364.251463
CASNO: 0
ID: 4894
Comment: Provided by www.caymanchem.com/app/template/landing%2CForensic.vm / Item#22991 Batch#0512425
Num Peaks: 326
40 9; 41 171; 42 120; 43 25; 44 43; 
45 2; 46 1; 47 1; 48 1; 49 1; 
50 9; 51 28; 52 10; 53 13; 54 13; 
55 44; 56 34; 57 999; 58 46; 59 1; 
60 1; 61 1; 62 3; 63 13; 64 11; 
65 58; 66 17; 67 18; 68 32; 69 38; 
70 54; 71 6; 72 1; 73 6; 74 4; 
75 4; 76 7; 77 152; 78 36; 79 62; 
80 12; 81 5; 82 26; 83 8; 84 15; 
85 97; 86 6; 87 1; 88 1; 89 9; 
90 8; 91 164; 92 40; 93 134; 94 34; 
95 18; 96 160; 97 27; 98 11; 99 1; 
100 1; 101 4; 102 6; 103 55; 104 92; 
105 284; 106 39; 107 4; 108 1; 109 1; 
110 1; 111 1; 112 1; 113 1; 114 1; 
115 11; 116 6; 117 35; 118 66; 119 35; 
120 16; 121 4; 122 1; 123 1; 124 1; 
125 1; 126 1; 127 1; 128 4; 129 7; 
130 79; 131 60; 132 82; 133 18; 134 26; 
135 7; 136 1; 137 1; 138 1; 139 18; 
140 2; 141 1; 142 1; 143 4; 144 17; 
145 12; 146 309; 147 37; 148 9; 149 1; 
150 1; 151 1; 152 1; 153 1; 154 1; 
155 1; 156 4; 157 3; 158 20; 159 12; 
160 35; 161 6; 162 2; 163 1; 164 1; 
165 1; 166 1; 167 1; 168 2; 169 1; 
170 1; 171 1; 172 4; 173 4; 174 2; 
175 1; 176 1; 177 70; 178 10; 179 1; 
180 1; 181 1; 182 2; 183 1; 184 12; 
185 10; 186 34; 187 50; 188 77; 189 150; 
190 20; 191 1; 192 1; 193 1; 194 1; 
195 1; 196 1; 197 1; 198 1; 199 1; 
200 1; 201 1; 202 1; 203 1; 204 1; 
205 1; 206 1; 207 6; 208 2; 209 1; 
210 1; 211 1; 212 1; 213 1; 214 1; 
215 1; 216 1; 217 1; 218 1; 219 1; 
220 1; 221 1; 222 1; 223 1; 224 1; 
225 1; 226 1; 227 1; 228 1; 229 1; 
230 27; 231 6; 232 1; 233 1; 234 1; 
235 1; 236 1; 237 1; 238 1; 239 1; 
240 1; 241 1; 242 1; 243 1; 244 1; 
245 1; 246 1; 247 1; 248 1; 249 1; 
250 1; 251 1; 252 1; 253 4; 254 1; 
255 1; 256 1; 257 1; 258 1; 259 1; 
260 1; 261 1; 262 1; 263 1; 264 2; 
265 1; 266 1; 267 1; 268 1; 269 1; 
270 1; 271 1; 272 1; 273 878; 274 165; 
275 17; 276 1; 277 1; 278 1; 279 7; 
280 1; 281 2; 282 1; 283 1; 284 1; 
285 1; 286 1; 287 1; 288 1; 289 1; 
290 1; 291 1; 292 1; 293 1; 294 1; 
295 1; 296 1; 297 1; 298 1; 299 1; 
300 1; 301 1; 302 1; 303 1; 304 1; 
305 1; 306 1; 307 2; 308 1; 309 1; 
310 1; 311 1; 312 1; 313 1; 314 1; 
315 1; 316 1; 317 1; 318 1; 319 1; 
320 1; 321 1; 322 1; 323 1; 324 1; 
325 1; 326 1; 327 1; 328 1; 329 1; 
330 1; 331 1; 332 1; 333 1; 334 1; 
335 1; 336 1; 337 1; 338 1; 339 1; 
340 1; 341 1; 342 1; 343 1; 344 1; 
345 1; 346 1; 347 1; 348 1; 349 7; 
350 2; 351 1; 352 1; 353 1; 354 1; 
355 1; 356 1; 357 1; 358 1; 359 1; 
360 1; 361 1; 362 5; 363 1; 364 1; 
365 1; 
