Name: Isovaleryl fentanyl
InChIKey: HQXKBEMWVAZFPK-UHFFFAOYSA-N
Synon: .beta.'-methyl Butyryl fentanyl
Synon: 3-Methyl-N-(1-phenethylpiperidin-4-yl)-N-phenylbutanamide
Formula: C24H32N2O
MW: 364
ExactMass: 364.251463
CASNO: 0
ID: 4895
Comment: Provided by www.caymanchem.com/app/template/landing%2CForensic.vm / Item# 22990 Batch#0512426
Num Peaks: 326
40 9; 41 147; 42 151; 43 70; 44 79; 
45 3; 46 1; 47 1; 48 1; 49 1; 
50 10; 51 30; 52 11; 53 13; 54 13; 
55 42; 56 30; 57 283; 58 15; 59 1; 
60 1; 61 1; 62 3; 63 14; 64 10; 
65 62; 66 19; 67 26; 68 35; 69 46; 
70 61; 71 6; 72 1; 73 12; 74 5; 
75 4; 76 8; 77 167; 78 41; 79 66; 
80 16; 81 7; 82 29; 83 12; 84 20; 
85 87; 86 5; 87 1; 88 1; 89 11; 
90 8; 91 196; 92 44; 93 250; 94 62; 
95 26; 96 184; 97 27; 98 13; 99 1; 
100 1; 101 3; 102 6; 103 57; 104 93; 
105 266; 106 48; 107 5; 108 4; 109 1; 
110 1; 111 2; 112 1; 113 1; 114 1; 
115 11; 116 6; 117 37; 118 80; 119 43; 
120 22; 121 2; 122 1; 123 1; 124 1; 
125 1; 126 1; 127 2; 128 3; 129 7; 
130 85; 131 62; 132 109; 133 21; 134 20; 
135 11; 136 1; 137 1; 138 1; 139 20; 
140 2; 141 2; 142 1; 143 4; 144 26; 
145 14; 146 641; 147 75; 148 11; 149 2; 
150 1; 151 1; 152 1; 153 1; 154 2; 
155 2; 156 3; 157 3; 158 26; 159 14; 
160 35; 161 6; 162 2; 163 1; 164 1; 
165 1; 166 1; 167 1; 168 1; 169 1; 
170 2; 171 1; 172 5; 173 5; 174 1; 
175 1; 176 1; 177 28; 178 6; 179 2; 
180 1; 181 1; 182 1; 183 1; 184 16; 
185 13; 186 34; 187 28; 188 64; 189 559; 
190 74; 191 7; 192 1; 193 2; 194 1; 
195 1; 196 1; 197 1; 198 1; 199 1; 
200 1; 201 1; 202 1; 203 1; 204 1; 
205 1; 206 1; 207 14; 208 3; 209 2; 
210 1; 211 1; 212 1; 213 1; 214 1; 
215 1; 216 1; 217 1; 218 1; 219 1; 
220 1; 221 1; 222 1; 223 1; 224 1; 
225 1; 226 1; 227 1; 228 1; 229 2; 
230 22; 231 7; 232 1; 233 1; 234 1; 
235 1; 236 1; 237 1; 238 1; 239 1; 
240 1; 241 1; 242 1; 243 1; 244 2; 
245 1; 246 1; 247 1; 248 1; 249 1; 
250 1; 251 2; 252 1; 253 7; 254 2; 
255 2; 256 1; 257 1; 258 1; 259 1; 
260 1; 261 1; 262 1; 263 1; 264 1; 
265 1; 266 1; 267 1; 268 1; 269 1; 
270 1; 271 3; 272 1; 273 999; 274 187; 
275 19; 276 1; 277 1; 278 1; 279 3; 
280 1; 281 5; 282 1; 283 1; 284 1; 
285 1; 286 1; 287 1; 288 1; 289 1; 
290 1; 291 1; 292 1; 293 1; 294 1; 
295 1; 296 1; 297 1; 298 1; 299 1; 
300 1; 301 1; 302 1; 303 1; 304 1; 
305 1; 306 1; 307 2; 308 1; 309 1; 
310 1; 311 1; 312 1; 313 1; 314 1; 
315 1; 316 1; 317 1; 318 1; 319 1; 
320 1; 321 1; 322 1; 323 1; 324 1; 
325 1; 326 1; 327 2; 328 1; 329 1; 
330 1; 331 2; 332 1; 333 1; 334 1; 
335 1; 336 1; 337 1; 338 1; 339 1; 
340 1; 341 2; 342 1; 343 1; 344 1; 
345 1; 346 1; 347 1; 348 1; 349 2; 
350 1; 351 1; 352 1; 353 1; 354 1; 
355 1; 356 1; 357 1; 358 1; 359 1; 
360 1; 361 1; 362 5; 363 3; 364 1; 
365 1; 
