Name: ortho-Methoxy Furanyl fentanyl
InChIKey: DCDCWVRDPIOMBB-UHFFFAOYSA-N
Synon: 2-Methoxy Fu-F
Synon: o-Methoxy Fu-F
Synon: ortho-Methoxy Fu-F
Synon: 2-Methoxy Furanyl fentanyl
Synon: o-Methoxy Furanyl fentanyl
Synon: N-(2-Methoxyphenyl)-N-[1-(2-phenylethyl)-4-piperidinyl]-2-furancarboxamide
Formula: C25H28N2O3
MW: 404
ExactMass: 404.209993
CASNO: 101343504
ID: 4896
Comment: Provided by www.caymanchem.com/app/template/landing%2CForensic.vm / Item# 22805 Batch#0510566
Num Peaks: 290
40 4; 41 47; 42 169; 43 20; 44 40; 
45 2; 46 1; 47 1; 49 1; 50 10; 
51 29; 52 20; 53 18; 54 15; 55 36; 
56 20; 57 11; 58 2; 59 1; 60 1; 
61 1; 62 4; 63 17; 64 12; 65 68; 
66 12; 67 50; 68 38; 69 36; 70 44; 
71 6; 72 1; 73 15; 74 5; 75 5; 
76 8; 77 100; 78 46; 79 74; 80 24; 
81 28; 82 31; 83 6; 84 7; 85 2; 
86 1; 87 1; 88 1; 89 13; 90 11; 
91 207; 92 48; 93 23; 94 42; 95 999; 
96 313; 97 34; 98 34; 99 3; 100 1; 
101 1; 102 10; 103 58; 104 54; 105 208; 
106 35; 107 12; 108 31; 109 4; 110 6; 
111 3; 112 1; 113 1; 114 1; 115 11; 
116 7; 117 20; 118 11; 119 11; 120 32; 
121 17; 122 16; 123 8; 124 6; 125 1; 
126 1; 127 2; 128 5; 129 4; 130 34; 
131 17; 132 25; 133 16; 134 40; 135 17; 
136 6; 137 12; 138 7; 139 15; 140 1; 
141 2; 142 2; 143 5; 144 14; 145 10; 
146 29; 147 15; 148 30; 149 9; 150 3; 
151 1; 152 1; 153 1; 154 3; 155 1; 
156 4; 157 8; 158 9; 159 3; 160 64; 
161 36; 162 37; 163 6; 164 3; 165 1; 
166 1; 167 1; 168 1; 169 1; 170 3; 
171 1; 172 5; 173 3; 174 17; 175 6; 
176 12; 177 3; 178 1; 179 2; 180 1; 
181 1; 182 2; 183 1; 184 19; 185 21; 
186 52; 187 18; 188 230; 189 36; 190 6; 
191 3; 192 2; 193 2; 194 1; 195 1; 
196 1; 197 2; 198 2; 199 2; 200 51; 
201 12; 202 6; 203 5; 204 1; 205 1; 
206 1; 207 21; 208 4; 209 3; 210 2; 
211 1; 212 2; 213 1; 214 1; 215 1; 
216 1; 217 67; 218 23; 219 7; 220 1; 
221 1; 222 1; 223 1; 224 1; 225 1; 
226 1; 227 1; 228 2; 229 1; 230 1; 
231 1; 233 1; 235 1; 236 1; 237 1; 
238 1; 239 1; 240 21; 241 4; 242 115; 
243 19; 244 3; 245 1; 249 1; 250 1; 
251 1; 252 1; 253 10; 254 3; 255 2; 
256 1; 257 1; 258 1; 259 1; 263 1; 
265 1; 266 1; 267 2; 268 1; 269 1; 
270 428; 271 76; 272 9; 273 1; 274 1; 
279 1; 281 9; 282 2; 283 1; 284 1; 
285 1; 286 1; 293 1; 295 1; 296 1; 
297 1; 298 1; 299 1; 307 1; 308 1; 
309 8; 310 2; 311 1; 312 1; 313 735; 
314 150; 315 20; 316 2; 317 1; 323 1; 
325 1; 326 1; 327 3; 328 1; 329 1; 
330 1; 331 3; 332 1; 333 1; 339 1; 
341 4; 342 1; 343 1; 344 1; 345 1; 
346 1; 347 1; 348 1; 355 1; 356 1; 
357 1; 358 1; 373 1; 375 1; 377 1; 
383 1; 385 1; 386 1; 387 1; 389 1; 
390 1; 391 1; 399 1; 400 1; 401 1; 
402 2; 403 1; 404 1; 405 2; 406 1; 
