Name: para-Methyl Methoxyacetyl fentanyl
InChIKey: IHNULIRQUWXUEL-UHFFFAOYSA-N
Synon: 4-Methyl Methoxyacetyl fentanyl
Synon: p-Methyl Methoxyacetyl fentanyl
Synon: 2-Methoxy-N-(1-phenethylpiperidin-4-yl)-N-(p-tolyl)acetamide
Formula: C23H30N2O2
MW: 366
ExactMass: 366.230728
CASNO: 0
ID: 4897
Comment: Provided by www.caymanchem.com/app/template/landing%2CForensic.vm / Item#22979 Batch#0512561
Num Peaks: 202
40 1; 41 27; 42 101; 43 17; 44 26; 
45 244; 46 5; 50 6; 51 16; 52 11; 
53 11; 54 9; 55 27; 56 15; 57 9; 
58 27; 59 3; 61 1; 62 2; 63 13; 
64 3; 65 57; 66 6; 67 19; 68 25; 
69 26; 70 75; 71 6; 72 1; 73 17; 
74 6; 75 6; 76 4; 77 81; 78 38; 
79 64; 80 13; 81 6; 82 23; 83 6; 
84 6; 85 1; 87 1; 88 3; 89 18; 
90 13; 91 268; 92 31; 93 8; 94 18; 
95 17; 96 165; 97 27; 98 13; 100 10; 
101 2; 102 8; 103 50; 104 56; 105 222; 
106 61; 107 25; 108 6; 111 1; 115 9; 
116 7; 117 26; 118 51; 119 32; 120 84; 
121 6; 122 2; 123 2; 126 1; 127 2; 
128 6; 129 4; 130 38; 131 25; 132 63; 
133 34; 134 25; 135 11; 136 1; 137 1; 
138 1; 139 18; 140 1; 142 1; 143 6; 
144 56; 145 33; 146 99; 147 18; 148 11; 
149 20; 150 5; 154 3; 155 1; 156 6; 
157 8; 158 19; 159 11; 160 77; 161 12; 
162 8; 163 3; 164 1; 165 1; 168 1; 
170 3; 171 2; 172 289; 173 45; 174 23; 
175 2; 176 4; 177 3; 178 1; 179 46; 
180 7; 181 1; 182 1; 183 1; 184 15; 
185 11; 186 40; 187 14; 188 39; 189 6; 
190 2; 191 4; 192 1; 193 2; 194 1; 
195 4; 197 3; 200 10; 201 20; 202 22; 
203 23; 204 108; 205 16; 206 1; 207 28; 
208 6; 209 5; 210 2; 214 1; 215 15; 
216 3; 221 1; 223 1; 228 1; 229 1; 
230 1; 232 258; 233 40; 234 3; 239 1; 
243 2; 245 3; 246 1; 247 2; 249 1; 
250 1; 251 1; 253 13; 254 4; 255 3; 
259 1; 265 2; 267 3; 268 1; 269 4; 
270 1; 273 1; 275 999; 276 183; 277 21; 
278 2; 281 10; 282 3; 283 3; 284 1; 
293 1; 315 1; 321 1; 325 1; 326 1; 
327 5; 328 1; 329 1; 331 6; 332 1; 
341 4; 342 3; 343 2; 346 2; 355 2; 
364 3; 365 1; 
