Name: meta-Methyl Methoxyacetyl fentanyl
InChIKey: FQVRNAAHEQDAAK-UHFFFAOYSA-N
Synon: 3-Methyl Methoxyacetyl fentanyl
Synon: m-Methyl Methoxyacetyl fentanyl
Synon: 2-Methoxy-N-(1-phenethylpiperidin-4-yl)-N-(m-tolyl)acetamide
Formula: C23H30N2O2
MW: 366
ExactMass: 366.230728
CASNO: 0
ID: 4898
Comment: Provided by www.caymanchem.com/app/template/landing%2CForensic.vm / Item#22978 Batch#0512278
Num Peaks: 210
40 1; 41 28; 42 100; 43 16; 44 27; 
45 248; 46 6; 50 7; 51 15; 52 9; 
53 9; 54 8; 55 24; 56 16; 57 9; 
58 28; 59 3; 61 1; 62 3; 63 14; 
64 6; 65 61; 66 6; 67 18; 68 25; 
69 25; 70 70; 71 5; 72 1; 73 12; 
74 5; 75 5; 76 5; 77 77; 78 38; 
79 62; 80 15; 81 6; 82 23; 83 5; 
84 6; 85 1; 87 1; 88 4; 89 18; 
90 13; 91 285; 92 32; 93 9; 94 18; 
95 20; 96 152; 97 24; 98 13; 99 1; 
100 11; 101 2; 102 7; 103 47; 104 52; 
105 205; 106 53; 107 25; 108 6; 109 1; 
110 1; 111 1; 115 8; 116 7; 117 25; 
118 45; 119 29; 120 87; 121 10; 122 1; 
123 2; 126 1; 127 2; 128 7; 129 4; 
130 38; 131 25; 132 57; 133 36; 134 32; 
135 7; 136 1; 137 1; 139 15; 140 1; 
141 1; 142 2; 143 5; 144 50; 145 31; 
146 99; 147 16; 148 15; 149 27; 150 7; 
151 1; 154 3; 155 1; 156 6; 157 8; 
158 19; 159 9; 160 72; 161 9; 162 7; 
163 2; 164 2; 165 2; 166 1; 167 1; 
169 1; 170 4; 171 4; 172 285; 173 45; 
174 23; 175 2; 176 4; 177 2; 178 1; 
179 52; 180 7; 181 1; 182 1; 183 1; 
184 14; 185 11; 186 44; 187 15; 188 33; 
189 5; 190 3; 191 4; 192 2; 193 2; 
194 1; 195 4; 197 1; 198 1; 200 10; 
201 18; 202 20; 203 22; 204 98; 205 15; 
206 2; 207 21; 208 4; 209 4; 210 1; 
214 1; 215 14; 216 3; 218 1; 221 1; 
223 1; 229 1; 230 1; 231 1; 232 233; 
233 36; 234 3; 243 3; 244 1; 245 3; 
246 1; 247 2; 249 1; 250 1; 251 1; 
253 10; 254 4; 255 2; 259 1; 265 1; 
266 1; 267 2; 268 1; 269 1; 272 1; 
273 2; 275 999; 276 179; 277 20; 278 2; 
281 7; 282 2; 283 1; 284 1; 293 2; 
311 1; 315 1; 325 3; 327 3; 328 1; 
329 1; 331 4; 335 1; 341 9; 342 3; 
343 3; 346 2; 355 1; 364 2; 365 1; 
