Name: ortho-Isopropyl Furanyl fentanyl
InChIKey: AYVSHUVVWFNBHR-UHFFFAOYSA-N
Synon: Furanyl fentanyl 2-isopropylphenyl analog
Synon: 2-Isopropyl Fu-F
Synon: 2-Isopropyl Furanyl fentanyl
Synon: o-Isopropyl Fu-F
Synon: o-Isopropyl Furanyl fentanyl
Synon: N-(2-isopropylphenyl)-N-(1-phenethylpiperidin-4-yl)furan-2-carboxamide
Formula: C27H32N2O2
MW: 416
ExactMass: 416.246378
CASNO: 0
ID: 4899
Comment: Provided by www.caymanchem.com/app/template/landing%2CForensic.vm / Item#22804 Batch#0510565
Num Peaks: 376
40 5; 41 45; 42 125; 43 18; 44 47; 
45 3; 46 1; 47 1; 48 1; 49 1; 
50 10; 51 18; 52 11; 53 14; 54 6; 
55 32; 56 10; 57 6; 58 3; 59 1; 
60 1; 61 1; 62 3; 63 16; 64 8; 
65 60; 66 12; 67 47; 68 36; 69 28; 
70 33; 71 4; 72 1; 73 35; 74 8; 
75 9; 76 10; 77 94; 78 45; 79 64; 
80 10; 81 27; 82 24; 83 5; 84 7; 
85 2; 86 1; 87 2; 88 1; 89 22; 
90 14; 91 312; 92 26; 93 21; 94 40; 
95 999; 96 305; 97 42; 98 32; 99 1; 
100 1; 101 3; 102 8; 103 70; 104 63; 
105 201; 106 48; 107 5; 108 2; 109 1; 
110 2; 111 1; 112 1; 113 1; 114 1; 
115 36; 116 6; 117 53; 118 49; 119 24; 
120 15; 121 10; 122 1; 123 1; 124 1; 
125 2; 126 6; 127 4; 128 21; 129 14; 
130 66; 131 32; 132 54; 133 26; 134 125; 
135 19; 136 2; 137 14; 138 6; 139 5; 
140 2; 141 21; 142 7; 143 27; 144 59; 
145 17; 146 56; 147 17; 148 6; 149 3; 
150 1; 151 1; 152 2; 153 3; 154 9; 
155 4; 156 18; 157 9; 158 51; 159 5; 
160 28; 161 4; 162 2; 163 4; 164 2; 
165 4; 166 3; 167 14; 168 13; 169 3; 
170 14; 171 7; 172 28; 173 6; 174 10; 
175 2; 176 1; 177 17; 178 3; 179 1; 
180 5; 181 2; 182 4; 183 2; 184 26; 
185 13; 186 106; 187 31; 188 42; 189 7; 
190 1; 191 7; 192 1; 193 8; 194 4; 
195 8; 196 12; 197 14; 198 7; 199 3; 
200 184; 201 32; 202 2; 203 2; 204 1; 
205 1; 206 1; 207 58; 208 14; 209 14; 
210 5; 211 2; 212 46; 213 11; 214 131; 
215 28; 216 3; 217 1; 218 1; 219 1; 
220 1; 221 6; 222 2; 223 3; 224 1; 
225 1; 226 1; 227 1; 228 4; 229 30; 
230 5; 231 3; 232 1; 233 1; 234 1; 
235 1; 236 1; 237 1; 238 1; 239 1; 
240 16; 241 4; 242 1; 243 1; 244 1; 
245 1; 246 1; 247 1; 248 1; 249 3; 
250 1; 251 5; 252 7; 253 32; 254 39; 
255 7; 256 1; 257 2; 258 1; 259 1; 
260 1; 261 1; 262 1; 263 1; 264 1; 
265 7; 266 1; 267 7; 268 4; 269 5; 
270 2; 271 1; 272 1; 273 1; 274 1; 
275 1; 276 1; 277 1; 278 1; 279 1; 
280 1; 281 24; 282 491; 283 100; 284 6; 
285 2; 286 1; 287 1; 288 1; 289 1; 
290 1; 291 1; 292 1; 293 1; 294 1; 
295 1; 296 1; 297 1; 298 1; 299 1; 
300 1; 301 1; 302 1; 303 1; 304 1; 
305 1; 306 1; 307 1; 308 1; 309 2; 
310 1; 311 1; 312 1; 313 1; 314 1; 
315 2; 316 1; 317 1; 318 1; 319 1; 
320 1; 321 2; 322 1; 323 1; 324 1; 
325 832; 326 200; 327 35; 328 2; 329 2; 
330 1; 331 5; 332 3; 333 1; 334 1; 
335 1; 336 1; 337 1; 338 1; 339 1; 
340 1; 341 10; 342 6; 343 3; 344 1; 
345 1; 346 4; 347 1; 348 1; 349 1; 
350 1; 351 1; 352 1; 353 1; 354 1; 
355 3; 356 2; 357 1; 358 1; 359 1; 
360 1; 361 1; 362 1; 363 1; 364 1; 
365 1; 366 1; 367 1; 369 1; 370 1; 
371 1; 372 1; 373 1; 374 1; 375 1; 
376 1; 377 1; 378 1; 379 1; 380 1; 
381 1; 382 1; 383 1; 384 1; 385 1; 
386 1; 387 1; 388 1; 389 1; 390 1; 
391 1; 392 1; 393 1; 394 1; 395 1; 
396 1; 397 1; 398 1; 399 1; 400 1; 
401 1; 402 1; 403 2; 404 1; 405 3; 
406 1; 407 1; 408 1; 409 1; 411 1; 
412 1; 413 1; 414 2; 415 3; 416 1; 
417 1; 
