Name: cis-3-Methyl Thiofentanyl
InChIKey: SRARDYUHGVMEQI-FXAWDEMLSA-N
Synon: cis-N-[3-methyl-1-(2-thienyl)ethyl]-4-piperidinyl]-N-phenyl-propanamide
Formula: C21H28N2OS
MW: 356
ExactMass: 356.192234
CASNO: 131690454
ID: 4900
Comment: Provided by www.caymanchem.com/app/template/landing%2CForensic.vm / Item#22240 Batch#0511953
Num Peaks: 311
40 2; 41 57; 42 145; 43 22; 44 64; 
45 27; 46 1; 47 2; 48 1; 49 1; 
50 5; 51 20; 52 6; 53 28; 54 10; 
55 36; 56 24; 57 237; 58 35; 59 3; 
60 1; 61 1; 62 2; 63 9; 64 7; 
65 28; 66 18; 67 42; 68 35; 69 38; 
70 42; 71 18; 72 2; 73 10; 74 3; 
75 3; 76 7; 77 180; 78 36; 79 21; 
80 11; 81 21; 82 28; 83 11; 84 51; 
85 18; 86 2; 87 1; 88 1; 89 3; 
90 4; 91 37; 92 13; 93 62; 94 38; 
95 12; 96 31; 97 258; 98 29; 99 14; 
100 2; 101 1; 102 2; 103 11; 104 67; 
105 31; 106 34; 107 5; 108 19; 109 29; 
110 137; 111 162; 112 19; 113 8; 114 1; 
115 7; 116 5; 117 39; 118 96; 119 30; 
120 14; 121 4; 122 2; 123 3; 124 3; 
125 2; 126 1; 127 2; 128 4; 129 3; 
130 64; 131 50; 132 162; 133 31; 134 7; 
135 7; 136 4; 137 2; 138 4; 139 1; 
140 4; 141 1; 142 1; 143 5; 144 33; 
145 26; 146 34; 147 7; 148 3; 149 7; 
150 6; 151 1; 152 3; 153 8; 154 4; 
155 1; 156 4; 157 3; 158 14; 159 19; 
160 618; 161 77; 162 10; 163 1; 164 1; 
165 1; 166 4; 167 1; 168 1; 169 1; 
170 2; 171 2; 172 66; 173 13; 174 8; 
175 1; 176 1; 177 1; 178 1; 179 1; 
180 8; 181 2; 182 1; 183 1; 184 1; 
185 1; 186 3; 187 5; 188 2; 189 1; 
190 1; 191 1; 192 2; 193 2; 194 1; 
195 2; 196 1; 197 2; 198 1; 199 1; 
200 1; 201 15; 202 14; 203 440; 204 68; 
205 8; 206 12; 207 8; 208 9; 209 2; 
210 1; 211 1; 212 1; 213 1; 214 2; 
215 1; 216 261; 217 41; 218 4; 219 1; 
220 1; 221 1; 222 1; 223 1; 224 1; 
225 1; 226 1; 227 1; 228 1; 229 1; 
230 3; 231 1; 232 1; 233 1; 234 1; 
235 1; 236 1; 237 1; 238 1; 239 1; 
240 1; 241 3; 242 1; 243 3; 244 1; 
245 1; 246 1; 247 1; 248 1; 249 1; 
250 1; 251 1; 252 1; 253 6; 254 2; 
255 2; 256 1; 257 4; 259 999; 260 174; 
261 17; 262 1; 263 1; 264 1; 265 1; 
266 1; 267 1; 268 1; 269 1; 270 1; 
271 1; 272 1; 273 1; 274 1; 275 1; 
276 1; 277 1; 278 1; 279 1; 281 2; 
282 1; 283 1; 284 1; 285 1; 286 1; 
287 1; 288 1; 289 1; 290 1; 291 1; 
292 1; 293 1; 294 1; 295 1; 296 1; 
297 1; 298 1; 299 2; 300 1; 301 1; 
303 1; 305 1; 306 1; 307 1; 308 1; 
309 1; 310 1; 311 1; 312 1; 313 1; 
314 1; 315 1; 316 1; 317 1; 318 1; 
319 1; 321 1; 322 1; 323 1; 324 1; 
325 1; 326 1; 327 4; 328 1; 329 1; 
330 1; 331 1; 332 1; 333 1; 334 1; 
335 1; 336 1; 337 1; 338 1; 339 1; 
341 2; 342 1; 343 1; 344 1; 345 1; 
346 1; 347 1; 348 1; 349 1; 351 1; 
352 1; 353 1; 354 3; 355 2; 356 1; 
357 1; 
