Name: Methamphetamine t-butyl Carbamate
InChIKey: NYMJXPUUUCVJQY-UHFFFAOYSA-N
Synon: tert-Butyl methyl(1-phenylpropan-2-yl)carbamate
Synon: Methamphetamine t-butyl Carbamate
Synon: N-t-Butoxycarbonyl-Methamphetamine
Synon: t-BOC Methamphetamine
Formula: C15H23NO2
MW: 249
ExactMass: 249.172879
CASNO: 0
ID: 4901
Comment: Provided by www.caymanchem.com/app/template/landing%2CForensic.vm / Item#22742 Batch#0510189
Num Peaks: 192
40 7; 41 327; 42 201; 43 104; 44 22; 
45 3; 46 1; 48 1; 49 2; 50 15; 
51 34; 52 12; 53 13; 54 11; 55 37; 
56 161; 57 999; 58 978; 59 43; 60 1; 
61 1; 62 7; 63 34; 64 11; 65 151; 
66 10; 67 1; 68 1; 69 1; 70 4; 
71 6; 72 1; 73 5; 74 5; 75 5; 
76 9; 77 51; 78 27; 79 15; 80 1; 
81 1; 82 1; 83 1; 84 1; 85 1; 
86 1; 87 2; 88 2; 89 47; 90 25; 
91 765; 92 141; 93 10; 94 1; 95 1; 
96 1; 97 1; 98 1; 99 1; 100 1; 
101 6; 102 883; 103 67; 104 18; 105 10; 
106 2; 107 2; 108 1; 109 1; 110 1; 
111 1; 112 1; 113 1; 114 1; 115 53; 
116 17; 117 75; 118 37; 119 139; 120 14; 
121 1; 122 1; 123 1; 124 1; 125 1; 
126 1; 127 1; 128 1; 129 1; 130 5; 
131 5; 132 32; 133 14; 134 16; 135 2; 
136 1; 137 1; 138 1; 139 1; 140 1; 
141 1; 142 1; 143 1; 144 2; 145 1; 
146 10; 147 13; 148 17; 149 2; 150 1; 
151 1; 152 1; 153 1; 154 1; 155 1; 
156 1; 157 1; 158 345; 159 32; 160 3; 
161 1; 162 1; 163 1; 164 1; 165 1; 
166 1; 167 1; 168 1; 169 1; 170 1; 
171 1; 172 1; 173 1; 174 1; 175 1; 
176 100; 177 13; 178 2; 179 1; 180 1; 
181 1; 182 1; 184 1; 185 1; 186 1; 
187 1; 188 1; 189 1; 190 1; 191 1; 
192 1; 193 1; 194 2; 195 1; 196 1; 
197 1; 198 1; 199 1; 203 1; 204 1; 
205 1; 207 1; 208 1; 210 1; 211 1; 
212 1; 213 1; 214 1; 215 1; 217 1; 
220 1; 221 1; 222 1; 223 1; 224 1; 
226 1; 227 1; 229 1; 231 1; 232 1; 
233 1; 234 1; 235 1; 236 1; 238 1; 
239 1; 242 1; 243 1; 244 1; 248 1; 
249 1; 250 1; 
