Name: para-Fluoro Furanyl fentanyl 3-furancarboxamide isomer
InChIKey: XXKBQRKRYOZPGV-UHFFFAOYSA-N
Synon: 4-Fluoro Fu-F 3-furancarboxamide
Synon: p-Fluoro Fu-F 3-furancarboxamide
Synon: 4-Fluoro Furanyl fentanyl 3-furancarboxamide
Synon: p-Fluoro Furanyl fentanyl 3-furancarboxamide
Synon: N-(4-fluorophenyl)-N-(1-phenethylpiperidin-4-yl)furan-3-carboxamide
Formula: C24H25FN2O2
MW: 392
ExactMass: 392.190006
CASNO: 0
ID: 4902
Comment: Provided by www.caymanchem.com/app/template/landing%2CForensic.vm / Item#22751 Batch#0512061
Num Peaks: 349
40 1; 41 21; 42 82; 43 13; 44 25; 
45 1; 46 1; 47 1; 48 1; 49 1; 
50 3; 51 7; 52 3; 53 6; 54 7; 
55 15; 56 11; 57 10; 58 1; 59 1; 
60 1; 61 1; 62 2; 63 6; 64 2; 
65 30; 66 6; 67 35; 68 22; 69 21; 
70 25; 71 3; 72 1; 73 5; 74 2; 
75 13; 76 3; 77 36; 78 14; 79 33; 
80 8; 81 6; 82 18; 83 9; 84 5; 
85 1; 86 1; 87 1; 88 1; 89 8; 
90 4; 91 141; 92 14; 93 4; 94 14; 
95 999; 96 141; 97 16; 98 9; 99 1; 
100 1; 101 2; 102 4; 103 29; 104 19; 
105 100; 106 9; 107 3; 108 3; 109 12; 
110 5; 111 5; 112 1; 113 1; 114 1; 
115 3; 116 1; 117 5; 118 2; 119 1; 
120 2; 121 4; 122 29; 123 9; 124 6; 
125 1; 126 2; 127 1; 128 2; 129 1; 
130 10; 131 4; 132 6; 133 7; 134 5; 
135 14; 136 18; 137 8; 138 5; 139 1; 
140 1; 141 1; 142 1; 143 1; 144 2; 
145 1; 146 4; 147 3; 148 33; 149 23; 
150 27; 151 5; 152 1; 153 1; 154 1; 
155 1; 156 1; 157 1; 158 3; 159 1; 
160 9; 161 3; 162 5; 163 4; 164 9; 
165 1; 166 1; 167 1; 168 1; 169 1; 
170 1; 171 1; 172 1; 173 1; 174 1; 
175 1; 176 56; 177 11; 178 3; 179 1; 
180 1; 181 1; 182 1; 183 1; 184 6; 
185 5; 186 16; 187 4; 188 27; 189 7; 
190 2; 191 2; 192 1; 193 1; 194 1; 
195 1; 196 1; 197 1; 198 1; 199 1; 
200 1; 201 1; 202 1; 203 1; 204 1; 
205 19; 206 14; 207 10; 208 2; 209 1; 
210 1; 211 1; 212 1; 213 1; 214 1; 
215 1; 216 1; 217 1; 218 1; 219 1; 
220 1; 221 1; 222 1; 223 1; 224 1; 
225 1; 226 1; 227 1; 228 1; 229 1; 
230 1; 231 1; 232 1; 233 1; 234 1; 
235 1; 236 1; 237 1; 238 1; 239 1; 
240 1; 241 1; 242 1; 243 1; 244 1; 
245 1; 246 1; 247 1; 248 1; 249 1; 
250 1; 251 1; 252 1; 253 4; 254 1; 
255 1; 256 1; 258 262; 259 44; 260 4; 
261 1; 262 1; 263 1; 264 1; 265 1; 
266 1; 267 1; 268 1; 269 1; 270 1; 
271 1; 272 1; 273 1; 274 1; 275 1; 
276 1; 277 1; 278 1; 279 1; 281 2; 
282 1; 283 1; 284 1; 285 1; 286 1; 
287 1; 288 1; 289 1; 290 1; 291 1; 
292 1; 293 1; 294 1; 295 1; 296 1; 
297 3; 298 1; 299 2; 301 622; 302 117; 
303 13; 304 1; 305 1; 307 1; 308 1; 
309 1; 310 1; 311 1; 312 1; 313 1; 
314 1; 315 1; 316 1; 317 1; 318 1; 
319 1; 320 1; 321 1; 322 1; 323 1; 
324 1; 325 1; 326 1; 327 1; 328 1; 
329 1; 330 1; 331 1; 332 1; 333 1; 
334 1; 335 1; 336 1; 337 1; 338 1; 
339 1; 341 1; 342 1; 343 1; 344 1; 
345 1; 346 1; 347 1; 348 1; 349 1; 
350 1; 351 1; 352 1; 353 1; 354 1; 
355 1; 356 1; 357 1; 358 1; 359 1; 
360 1; 361 1; 362 1; 363 1; 364 1; 
365 1; 366 1; 367 1; 368 1; 369 1; 
370 1; 371 1; 372 1; 373 1; 374 1; 
375 1; 376 1; 377 1; 378 1; 379 1; 
380 1; 381 1; 382 1; 383 1; 384 1; 
385 1; 386 1; 387 1; 388 1; 389 1; 
390 1; 391 1; 392 1; 393 1; 
