Name: 3,4-Methylenedioxy U-47700
InChIKey: UUAVKYBZWVMWSM-KWCCSABGSA-N
Synon: 3,4-MDO-U-47700
Synon: N-((1R,2R)-2-(dimethylamino)cyclohexyl)-N-methylbenzo[d][1,3]dioxole-5-carboxamide
Formula: C17H24N2O3
MW: 304
ExactMass: 304.178692
CASNO: 0
ID: 4903
Comment: Provided by www.caymanchem.com/app/template/landing%2CForensic.vm / Item#22753 Batch#0511960
Num Peaks: 267
40 1; 41 26; 42 121; 43 17; 44 46; 
45 8; 46 4; 47 1; 48 1; 49 1; 
50 4; 51 8; 52 3; 53 16; 54 10; 
55 29; 56 58; 57 12; 58 140; 59 6; 
60 1; 61 3; 62 20; 63 84; 64 12; 
65 209; 66 17; 67 16; 68 42; 69 16; 
70 74; 71 190; 72 17; 73 3; 74 3; 
75 2; 76 2; 77 14; 78 5; 79 41; 
80 10; 81 32; 82 69; 83 34; 84 902; 
85 65; 86 2; 87 1; 88 1; 89 2; 
90 2; 91 55; 92 12; 93 6; 94 19; 
95 15; 96 35; 97 62; 98 70; 99 17; 
100 2; 101 1; 102 1; 103 1; 104 2; 
105 1; 106 2; 107 3; 108 12; 109 10; 
110 156; 111 19; 112 58; 113 6; 114 1; 
115 1; 116 1; 117 2; 118 1; 119 17; 
120 17; 121 221; 122 28; 123 8; 124 187; 
125 999; 126 96; 127 3; 128 1; 129 1; 
130 1; 131 1; 132 1; 133 1; 134 1; 
135 6; 136 1; 137 2; 138 1; 139 5; 
140 1; 141 1; 142 1; 143 1; 144 1; 
145 1; 146 3; 147 6; 148 4; 149 437; 
150 41; 151 6; 152 1; 153 11; 154 3; 
155 23; 156 3; 157 1; 158 1; 159 1; 
160 1; 161 1; 162 13; 163 3; 164 2; 
165 1; 166 1; 167 1; 168 1; 169 4; 
170 1; 171 1; 172 1; 173 1; 174 1; 
175 1; 176 1; 177 1; 178 5; 179 6; 
180 5; 181 1; 182 1; 183 1; 184 1; 
185 1; 186 1; 187 1; 188 1; 189 1; 
190 3; 191 1; 192 18; 193 2; 194 1; 
195 1; 196 1; 197 1; 198 1; 199 1; 
200 1; 201 1; 202 1; 203 1; 204 3; 
205 1; 206 3; 207 1; 208 1; 209 1; 
210 1; 211 1; 212 1; 213 1; 214 1; 
215 1; 216 2; 217 1; 218 1; 219 1; 
220 1; 221 1; 222 1; 223 1; 224 1; 
225 1; 226 1; 227 1; 228 1; 229 1; 
230 2; 231 3; 232 3; 233 1; 234 1; 
235 1; 236 1; 237 1; 238 1; 239 1; 
240 1; 241 1; 242 1; 243 1; 244 1; 
245 1; 246 2; 247 1; 248 1; 249 1; 
250 1; 251 1; 252 1; 253 1; 254 1; 
255 1; 256 1; 257 1; 258 5; 259 2; 
260 12; 261 2; 262 1; 263 1; 264 1; 
265 1; 266 1; 267 1; 268 1; 269 1; 
270 1; 271 2; 272 1; 273 1; 274 1; 
275 1; 276 1; 277 1; 278 1; 279 1; 
280 1; 281 1; 282 1; 283 1; 284 1; 
285 1; 286 3; 287 1; 288 1; 289 1; 
290 1; 291 1; 292 1; 293 1; 294 1; 
295 1; 296 1; 297 1; 298 1; 299 1; 
300 1; 301 1; 302 1; 303 22; 304 8; 
305 1; 306 1; 
