Name: para-Methyl Furanyl fentanyl
InChIKey: KPCWABTXRUWDSW-UHFFFAOYSA-N
Synon: 4-Methyl Fu-F
Synon: p-Methyl Fu-F
Synon: para-Methyl Fu-F
Synon: 4-Methyl Furanyl fentanyl
Synon: p-Methyl Furanyl fentanyl
Synon: N-(1-phenethylpiperidin-4-yl)-N-(p-tolyl)furan-2-carboxamide
Formula: C25H28N2O2
MW: 388
ExactMass: 388.215078
CASNO: 0
ID: 4905
Comment: Provided by www.caymanchem.com/app/template/landing%2CForensic.vm / Item#22713 Batch#0511784
Num Peaks: 336
40 1; 41 41; 42 140; 43 16; 44 33; 
45 2; 46 1; 47 1; 48 1; 49 1; 
50 10; 51 26; 52 14; 53 16; 54 12; 
55 30; 56 16; 57 6; 58 1; 59 1; 
60 1; 61 1; 62 1; 63 15; 64 5; 
65 78; 66 12; 67 47; 68 35; 69 30; 
70 45; 71 4; 72 1; 73 16; 74 5; 
75 7; 76 5; 77 91; 78 45; 79 75; 
80 19; 81 20; 82 27; 83 3; 84 5; 
85 1; 86 1; 87 2; 88 1; 89 23; 
90 14; 91 310; 92 30; 93 8; 94 37; 
95 999; 96 267; 97 30; 98 33; 99 1; 
100 1; 101 2; 102 10; 103 56; 104 52; 
105 200; 106 34; 107 18; 108 8; 109 2; 
110 1; 111 1; 112 1; 113 1; 114 1; 
115 14; 116 9; 117 24; 118 41; 119 16; 
120 7; 121 4; 122 1; 123 1; 124 1; 
125 1; 126 3; 127 4; 128 5; 129 11; 
130 38; 131 25; 132 52; 133 11; 134 9; 
135 9; 136 2; 137 21; 138 8; 139 10; 
140 1; 141 2; 142 4; 143 8; 144 63; 
145 36; 146 51; 147 11; 148 3; 149 2; 
150 1; 151 1; 152 1; 153 1; 154 2; 
155 1; 156 6; 157 6; 158 24; 159 10; 
160 37; 161 5; 162 1; 163 2; 164 2; 
165 1; 166 1; 167 2; 168 1; 169 1; 
170 3; 171 4; 172 186; 173 15; 174 2; 
175 1; 176 1; 177 2; 178 1; 179 1; 
180 1; 181 1; 182 3; 183 4; 184 84; 
185 40; 186 38; 187 15; 188 14; 189 2; 
190 1; 191 1; 192 1; 193 2; 194 1; 
195 2; 196 2; 197 2; 198 1; 199 2; 
200 2; 201 80; 202 34; 203 9; 204 1; 
205 1; 206 1; 207 12; 208 3; 209 2; 
210 1; 211 1; 212 1; 213 1; 214 1; 
215 1; 216 1; 217 1; 218 1; 219 1; 
220 1; 221 1; 222 1; 223 1; 224 12; 
225 3; 226 48; 227 8; 228 1; 229 1; 
230 1; 231 1; 232 1; 234 1; 235 1; 
236 1; 237 1; 238 1; 239 2; 240 1; 
241 1; 242 1; 243 1; 244 1; 245 1; 
246 1; 247 1; 248 1; 249 1; 250 1; 
251 2; 252 1; 253 9; 254 448; 255 80; 
256 10; 257 1; 258 1; 259 1; 260 1; 
261 1; 262 1; 263 1; 265 2; 266 1; 
267 2; 268 1; 269 1; 270 1; 271 1; 
273 1; 275 1; 276 1; 277 1; 278 1; 
279 1; 280 1; 281 8; 282 1; 283 3; 
284 1; 285 1; 286 1; 287 1; 288 1; 
289 1; 290 1; 291 1; 292 1; 293 13; 
294 2; 295 2; 296 1; 297 811; 298 165; 
299 18; 300 1; 301 1; 302 1; 303 1; 
304 1; 305 1; 308 1; 309 1; 310 1; 
311 1; 312 1; 313 1; 314 1; 315 1; 
316 1; 317 1; 318 1; 319 1; 320 1; 
321 1; 322 1; 323 1; 324 1; 325 1; 
326 1; 327 4; 328 2; 329 1; 330 1; 
331 2; 332 1; 333 1; 334 1; 336 1; 
338 1; 339 1; 340 1; 341 1; 342 1; 
343 1; 344 1; 345 1; 346 1; 347 1; 
348 1; 349 1; 351 1; 352 1; 353 1; 
354 1; 355 1; 356 1; 357 1; 358 1; 
359 1; 363 1; 364 1; 365 1; 368 1; 
369 1; 370 1; 371 1; 372 1; 373 1; 
374 1; 375 1; 377 1; 378 1; 379 1; 
380 1; 381 1; 382 1; 383 1; 384 1; 
385 1; 386 4; 387 1; 388 1; 389 1; 
390 1; 
