Name: meta-Methyl Furanyl fentanyl
InChIKey: MAUKPWKPNGATGI-UHFFFAOYSA-N
Synon: 3-methyl Furanyl fentanyl
Synon: m-Methyl Furanyl fentanyl
Synon: N-(1-phenethylpiperidin-4-yl)-N-(m-tolyl)furan-2-carboxamide
Formula: C25H28N2O2
MW: 388
ExactMass: 388.215078
CASNO: 0
ID: 4906
Comment: Provided by www.caymanchem.com/app/template/landing%2CForensic.vm / Item#22844 Batch#0511783
Num Peaks: 343
40 2; 41 35; 42 124; 43 16; 44 33; 
45 1; 46 1; 47 1; 48 1; 49 1; 
50 7; 51 20; 52 10; 53 13; 54 10; 
55 24; 56 16; 57 10; 58 1; 59 1; 
60 1; 61 1; 62 2; 63 14; 64 5; 
65 75; 66 11; 67 47; 68 32; 69 29; 
70 35; 71 4; 72 1; 73 8; 74 4; 
75 4; 76 4; 77 76; 78 36; 79 64; 
80 15; 81 19; 82 25; 83 5; 84 6; 
85 1; 86 1; 87 1; 88 1; 89 21; 
90 14; 91 328; 92 33; 93 10; 94 32; 
95 999; 96 234; 97 25; 98 17; 99 2; 
100 1; 101 1; 102 8; 103 51; 104 45; 
105 177; 106 26; 107 16; 108 7; 109 3; 
110 1; 111 1; 112 1; 113 1; 114 1; 
115 13; 116 8; 117 23; 118 37; 119 16; 
120 9; 121 4; 122 1; 123 1; 124 1; 
125 1; 126 3; 127 6; 128 9; 129 9; 
130 44; 131 24; 132 48; 133 17; 134 7; 
135 5; 136 1; 137 17; 138 8; 139 7; 
140 2; 141 2; 142 3; 143 8; 144 60; 
145 34; 146 52; 147 11; 148 2; 149 8; 
150 1; 151 1; 152 1; 153 1; 154 2; 
155 1; 156 6; 157 5; 158 26; 159 10; 
160 36; 161 4; 162 1; 163 1; 164 1; 
165 2; 166 1; 167 1; 168 2; 169 1; 
170 5; 171 4; 172 189; 173 33; 174 5; 
175 1; 176 1; 177 1; 178 1; 179 1; 
180 1; 181 1; 182 6; 183 1; 184 74; 
185 28; 186 42; 187 13; 188 9; 189 1; 
190 1; 191 2; 192 1; 193 2; 194 1; 
195 2; 196 1; 197 1; 198 2; 199 1; 
200 1; 201 53; 202 26; 203 5; 204 1; 
205 1; 206 1; 207 15; 208 4; 209 3; 
210 1; 211 1; 212 2; 213 1; 214 1; 
215 1; 216 1; 217 1; 218 1; 219 1; 
220 1; 221 1; 222 1; 223 1; 224 11; 
225 3; 226 44; 227 7; 228 1; 229 1; 
230 1; 231 1; 232 1; 233 1; 234 1; 
235 1; 236 1; 237 1; 238 1; 239 1; 
240 1; 241 1; 242 1; 243 1; 244 1; 
245 1; 246 1; 247 1; 248 1; 249 1; 
250 1; 251 1; 252 1; 253 5; 254 501; 
255 90; 256 10; 257 1; 258 1; 259 1; 
260 1; 261 1; 262 1; 263 1; 264 1; 
265 1; 266 1; 267 1; 268 2; 269 1; 
270 1; 271 1; 272 1; 273 1; 274 1; 
275 1; 276 1; 277 1; 278 1; 279 1; 
280 1; 281 6; 282 2; 283 1; 284 1; 
285 1; 286 1; 287 1; 288 1; 289 1; 
290 1; 291 1; 292 1; 293 13; 294 3; 
295 2; 297 917; 298 184; 299 21; 300 1; 
301 1; 302 1; 303 1; 304 1; 305 1; 
306 1; 307 1; 308 1; 309 1; 311 1; 
312 1; 313 1; 314 1; 315 1; 316 1; 
317 1; 318 1; 319 1; 320 1; 321 1; 
322 1; 323 1; 324 1; 325 1; 326 1; 
327 2; 328 1; 329 1; 330 1; 331 2; 
332 1; 333 1; 334 1; 335 1; 337 1; 
338 1; 339 1; 340 1; 341 2; 342 1; 
343 1; 344 1; 345 1; 346 1; 347 1; 
348 1; 351 1; 352 1; 353 1; 355 1; 
356 1; 357 1; 358 1; 359 1; 360 1; 
361 1; 362 1; 363 1; 365 1; 366 1; 
368 1; 369 1; 370 1; 371 1; 372 1; 
373 1; 374 1; 375 1; 376 1; 377 1; 
378 1; 379 1; 380 1; 381 1; 382 1; 
383 1; 384 1; 385 1; 386 3; 387 1; 
388 1; 389 1; 390 1; 
