Name: Thiofuranyl fentanyl
InChIKey: CCHPKGYUIHSQIE-UHFFFAOYSA-N
Synon: Thiophene fentanyl
Synon: N-(1-phenethylpiperidin-4-yl)-N-phenylthiophene-2-carboxamide
Formula: C24H26N2OS
MW: 390
ExactMass: 390.176584
CASNO: 0
ID: 4907
Comment: Provided by www.caymanchem.com/app/template/landing%2CForensic.vm / Item#22802 Batch#0511239
Num Peaks: 345
41 20; 42 76; 43 12; 44 13; 45 4; 
46 1; 47 1; 48 1; 49 1; 50 5; 
51 14; 52 5; 53 7; 54 6; 55 14; 
56 10; 57 12; 58 3; 59 1; 60 1; 
61 1; 62 2; 63 7; 64 3; 65 34; 
66 5; 67 15; 68 18; 69 18; 70 23; 
71 2; 72 1; 73 9; 74 3; 75 3; 
76 4; 77 92; 78 22; 79 36; 80 9; 
81 6; 82 19; 83 43; 84 9; 85 4; 
86 1; 87 1; 88 1; 89 8; 90 6; 
91 142; 92 18; 93 11; 94 16; 95 8; 
96 96; 97 14; 98 9; 99 1; 100 1; 
101 1; 102 3; 103 33; 104 45; 105 111; 
106 15; 107 2; 108 1; 109 1; 110 3; 
111 999; 112 62; 113 48; 114 3; 115 8; 
116 3; 117 16; 118 22; 119 10; 120 4; 
121 1; 122 1; 123 1; 124 1; 125 1; 
126 1; 127 1; 128 3; 129 3; 130 39; 
131 25; 132 38; 133 9; 134 4; 135 4; 
136 1; 137 1; 138 1; 139 1; 140 1; 
141 1; 142 2; 143 2; 144 8; 145 5; 
146 14; 147 4; 148 1; 149 1; 150 1; 
151 1; 152 1; 153 1; 154 3; 155 1; 
156 2; 157 2; 158 64; 159 13; 160 13; 
161 2; 162 1; 163 1; 164 1; 165 1; 
166 1; 167 1; 168 1; 169 1; 170 1; 
171 1; 172 2; 173 3; 174 1; 175 1; 
176 1; 177 1; 178 1; 179 1; 180 1; 
181 1; 182 2; 183 1; 184 11; 185 9; 
186 33; 187 25; 188 17; 189 6; 190 1; 
191 2; 192 1; 193 2; 194 1; 195 1; 
196 1; 197 1; 198 1; 199 1; 200 1; 
201 1; 202 1; 203 17; 204 4; 205 2; 
206 1; 207 23; 208 5; 209 2; 210 1; 
211 1; 212 1; 213 1; 214 1; 215 1; 
216 1; 217 1; 218 1; 219 1; 220 1; 
221 1; 222 1; 223 1; 224 1; 225 1; 
226 1; 227 1; 228 1; 229 1; 230 1; 
231 1; 232 1; 233 1; 234 1; 235 1; 
236 1; 237 1; 238 1; 239 1; 240 1; 
241 1; 242 1; 243 1; 244 1; 245 1; 
246 1; 247 1; 248 1; 249 1; 250 1; 
251 1; 252 1; 253 5; 254 1; 255 1; 
256 208; 257 37; 258 13; 259 2; 260 1; 
261 1; 263 1; 264 1; 265 1; 266 1; 
267 1; 268 1; 269 1; 270 1; 271 1; 
272 1; 273 1; 274 1; 275 1; 276 1; 
277 1; 278 1; 279 7; 280 1; 281 9; 
282 2; 283 1; 284 1; 285 1; 286 1; 
287 1; 288 1; 289 1; 290 1; 291 1; 
292 1; 293 1; 294 1; 295 1; 296 1; 
297 1; 298 1; 299 544; 300 107; 301 37; 
302 5; 303 1; 304 1; 305 1; 306 1; 
307 1; 308 1; 309 1; 310 1; 311 1; 
312 1; 313 1; 314 1; 315 1; 316 1; 
317 1; 318 1; 319 1; 320 1; 321 1; 
322 1; 323 1; 324 1; 325 1; 326 1; 
327 1; 328 1; 329 1; 330 1; 331 1; 
332 1; 333 1; 334 1; 336 1; 337 1; 
338 1; 339 1; 340 1; 341 2; 342 1; 
343 1; 344 1; 345 1; 346 1; 347 1; 
348 1; 350 1; 351 1; 352 1; 353 1; 
354 1; 355 1; 356 1; 357 1; 358 1; 
359 1; 360 1; 361 1; 363 1; 364 1; 
365 1; 366 1; 367 1; 369 1; 370 1; 
371 1; 372 1; 373 1; 374 1; 375 1; 
376 1; 377 1; 378 1; 379 1; 381 1; 
382 1; 383 1; 384 1; 385 1; 386 1; 
387 1; 388 2; 389 1; 390 1; 391 1; 
