Name: para-Fluoro Furanyl fentanyl
InChIKey: MGEQOAJOFFXWTR-UHFFFAOYSA-N
Synon: 4-Fluoro Fu-F
Synon: p-Fluoro Fu-F
Synon: 4-Fluoro Furanyl fentanyl
Synon: p-Fluoro Furanyl fentanyl
Synon: N-(4-fluorophenyl)-N-(1-phenethylpiperidin-4-yl)furan-2-carboxamide
Formula: C24H25FN2O2
MW: 392
ExactMass: 392.190006
CASNO: 0
ID: 4908
Comment: Provided by www.caymanchem.com/app/template/landing%2CForensic.vm / Item#22750 Batch#0511635
Num Peaks: 349
40 1; 41 29; 42 117; 43 18; 44 47; 
45 1; 46 1; 47 1; 48 1; 49 1; 
50 6; 51 14; 52 7; 53 10; 54 9; 
55 22; 56 15; 57 15; 58 1; 59 1; 
60 1; 61 1; 62 3; 63 10; 64 4; 
65 47; 66 8; 67 43; 68 30; 69 29; 
70 33; 71 3; 72 1; 73 5; 74 3; 
75 18; 76 4; 77 51; 78 22; 79 49; 
80 12; 81 17; 82 25; 83 18; 84 7; 
85 1; 86 1; 87 1; 88 1; 89 12; 
90 6; 91 217; 92 20; 93 7; 94 24; 
95 999; 96 194; 97 22; 98 11; 99 1; 
100 1; 101 3; 102 5; 103 43; 104 29; 
105 139; 106 13; 107 5; 108 5; 109 20; 
110 10; 111 9; 112 2; 113 1; 114 1; 
115 5; 116 2; 117 8; 118 2; 119 2; 
120 1; 121 8; 122 38; 123 11; 124 7; 
125 1; 126 7; 127 1; 128 2; 129 1; 
130 14; 131 5; 132 9; 133 10; 134 7; 
135 16; 136 23; 137 20; 138 12; 139 5; 
140 1; 141 1; 142 1; 143 1; 144 4; 
145 1; 146 6; 147 4; 148 49; 149 31; 
150 38; 151 7; 152 1; 153 1; 154 1; 
155 1; 156 2; 157 1; 158 4; 159 1; 
160 15; 161 5; 162 9; 163 6; 164 10; 
165 2; 166 1; 167 1; 168 1; 169 1; 
170 1; 171 1; 172 1; 173 1; 174 2; 
175 3; 176 122; 177 20; 178 3; 179 1; 
180 1; 181 1; 182 2; 183 1; 184 13; 
185 10; 186 23; 187 7; 188 49; 189 11; 
190 3; 191 4; 192 1; 193 2; 194 1; 
195 1; 196 1; 197 1; 198 1; 199 1; 
200 1; 201 1; 202 1; 203 1; 204 1; 
205 41; 206 25; 207 15; 208 3; 209 2; 
210 1; 211 1; 212 1; 213 1; 214 1; 
215 1; 216 1; 217 1; 218 1; 219 1; 
220 1; 221 1; 222 1; 223 1; 224 1; 
225 1; 226 1; 227 1; 228 7; 229 1; 
230 28; 231 4; 232 1; 233 1; 234 1; 
235 1; 236 1; 237 1; 238 1; 239 1; 
240 1; 241 1; 242 1; 243 1; 244 1; 
245 1; 246 1; 247 1; 248 1; 249 1; 
250 1; 251 1; 252 1; 253 4; 254 1; 
255 1; 256 1; 257 1; 258 435; 259 71; 
260 8; 261 1; 262 1; 263 1; 264 1; 
265 1; 266 1; 267 1; 268 1; 269 1; 
270 1; 271 1; 272 1; 273 1; 274 1; 
275 1; 276 1; 277 1; 278 1; 279 1; 
280 1; 281 3; 282 1; 283 1; 284 1; 
285 1; 286 1; 287 1; 288 1; 289 1; 
290 1; 291 1; 292 1; 293 1; 294 1; 
295 1; 296 1; 297 7; 298 2; 299 2; 
300 1; 301 894; 302 171; 303 19; 304 2; 
305 1; 306 1; 308 1; 309 1; 310 1; 
311 1; 312 1; 313 1; 314 1; 315 1; 
316 1; 317 1; 318 1; 319 1; 321 1; 
322 1; 323 1; 324 1; 325 1; 326 1; 
327 1; 328 1; 329 1; 330 1; 331 1; 
332 1; 333 1; 334 1; 335 1; 336 1; 
337 1; 339 1; 340 1; 341 1; 342 1; 
343 1; 344 1; 345 1; 346 1; 347 1; 
348 1; 349 1; 350 1; 351 1; 352 1; 
353 1; 354 1; 355 1; 356 1; 357 1; 
358 1; 359 1; 360 1; 361 1; 362 1; 
363 1; 364 1; 365 1; 366 1; 367 1; 
369 1; 370 1; 371 1; 372 1; 373 1; 
374 1; 375 1; 376 1; 377 1; 378 1; 
379 1; 380 1; 382 1; 383 1; 384 1; 
385 1; 386 1; 387 1; 388 1; 389 1; 
390 2; 391 1; 392 1; 393 1; 
