Name: 3,4-MDMA t-butyl Carbamate
InChIKey: AXMVJRRNQRXHMX-UHFFFAOYSA-N
Synon: 3,4-MDMA t-butyl Carbamate
Synon: 3,4-Methylenedioxymethamphetamine t-butyl Carbamate
Synon: N-t-Butoxycarbonyl-MDMA
Synon: t-BOC-3,4-MDMA
Synon: N-[2-(1,3-benzodioxol-5-yl)-1-methylethyl]-N-methyl-carbamic acid, 1,1-dimethylethyl ester
Formula: C16H23NO4
MW: 293
ExactMass: 293.162708
CASNO: 1228259708
ID: 4909
Comment: Provided by www.caymanchem.com/app/template/landing%2CForensic.vm / Item#22740 Batch#0510187
Num Peaks: 230
41 267; 42 101; 43 46; 44 28; 45 3; 
46 1; 47 1; 48 1; 49 2; 50 23; 
51 91; 52 17; 53 22; 54 9; 55 39; 
56 143; 57 831; 58 999; 59 55; 60 1; 
61 1; 62 8; 63 25; 64 7; 65 28; 
66 7; 67 5; 68 2; 69 1; 70 4; 
71 3; 72 1; 73 3; 74 7; 75 9; 
76 23; 77 280; 78 83; 79 76; 80 9; 
81 1; 82 1; 83 1; 84 1; 85 1; 
86 1; 87 1; 88 1; 89 18; 90 8; 
91 24; 92 6; 93 4; 94 3; 95 1; 
96 1; 97 1; 98 1; 99 1; 100 1; 
101 4; 102 902; 103 90; 104 43; 105 130; 
106 35; 107 9; 108 2; 109 1; 110 5; 
111 1; 112 1; 113 1; 114 1; 115 4; 
116 2; 117 4; 118 9; 119 6; 120 5; 
121 11; 122 9; 123 1; 124 1; 125 1; 
126 1; 127 1; 128 1; 129 1; 130 2; 
131 30; 132 17; 133 33; 134 32; 135 771; 
136 246; 137 22; 138 2; 139 1; 140 1; 
141 1; 142 1; 143 1; 144 1; 145 1; 
146 6; 147 22; 148 15; 149 4; 150 1; 
151 1; 152 1; 153 1; 154 1; 155 1; 
156 1; 157 1; 158 357; 159 34; 160 7; 
161 23; 162 121; 163 155; 164 18; 165 2; 
166 1; 167 1; 169 1; 170 1; 171 1; 
172 1; 173 1; 174 1; 175 1; 176 14; 
177 6; 178 5; 179 1; 180 1; 181 1; 
183 1; 184 1; 186 1; 187 1; 188 1; 
189 1; 190 2; 191 31; 192 18; 193 3; 
194 1; 195 1; 196 1; 197 1; 198 1; 
199 1; 201 1; 202 1; 203 1; 204 1; 
205 1; 206 1; 208 1; 209 1; 210 1; 
212 1; 213 1; 216 1; 217 1; 218 1; 
219 1; 220 124; 221 17; 222 2; 223 1; 
225 1; 226 1; 227 1; 228 1; 229 1; 
231 1; 232 1; 233 1; 234 1; 235 1; 
236 2; 237 1; 238 1; 239 1; 240 1; 
242 1; 243 1; 244 1; 245 1; 247 1; 
249 1; 250 1; 251 1; 252 1; 253 1; 
254 1; 255 1; 256 1; 258 1; 259 1; 
261 1; 262 1; 266 1; 267 1; 269 1; 
270 1; 273 1; 277 1; 279 1; 280 1; 
281 1; 282 1; 284 1; 285 1; 286 1; 
287 1; 289 1; 290 1; 291 1; 292 1; 
293 27; 294 5; 295 1; 296 1; 297 1; 
