Name: Crotonyl fentanyl
InChIKey: VDYXGPCGBKLRDA-XNWCZRBMSA-N
Synon: (2E)-N-phenyl-N-[1-(2-phenylethyl)-4-piperidinyl]-2-butenamide
Formula: C23H28N2O
MW: 348
ExactMass: 348.220163
CASNO: 760930594
ID: 4910
Comment: Provided by www.caymanchem.com/app/template/landing%2CForensic.vm / Item#22801 Batch#0511357
Num Peaks: 306
40 10; 41 176; 42 133; 43 21; 44 41; 
45 1; 46 1; 47 1; 48 1; 49 1; 
50 7; 51 23; 52 8; 53 10; 54 11; 
55 22; 56 21; 57 15; 58 3; 59 1; 
60 1; 61 1; 62 3; 63 13; 64 7; 
65 60; 66 11; 67 26; 68 41; 69 703; 
70 79; 71 7; 72 1; 73 4; 74 3; 
75 4; 76 8; 77 177; 78 39; 79 65; 
80 14; 81 6; 82 25; 83 6; 84 11; 
85 1; 86 1; 87 1; 88 1; 89 14; 
90 10; 91 245; 92 30; 93 40; 94 31; 
95 17; 96 157; 97 18; 98 10; 99 1; 
100 1; 101 1; 102 7; 103 58; 104 87; 
105 217; 106 34; 107 4; 108 2; 109 1; 
110 1; 111 3; 112 1; 113 1; 114 1; 
115 13; 116 7; 117 39; 118 67; 119 22; 
120 10; 121 1; 122 1; 123 1; 124 1; 
125 1; 126 1; 127 1; 128 5; 129 4; 
130 86; 131 58; 132 104; 133 18; 134 10; 
135 3; 136 1; 137 1; 138 1; 139 8; 
140 1; 141 1; 142 2; 143 6; 144 29; 
145 16; 146 481; 147 54; 148 7; 149 1; 
150 1; 151 1; 152 1; 153 1; 154 1; 
155 1; 156 5; 157 3; 158 74; 159 18; 
160 29; 161 13; 162 7; 163 1; 164 1; 
165 1; 166 1; 167 1; 168 1; 169 1; 
170 2; 171 1; 172 6; 173 5; 174 1; 
175 1; 176 1; 177 1; 178 1; 179 1; 
180 1; 181 1; 182 2; 183 1; 184 13; 
185 10; 186 30; 187 26; 188 37; 189 531; 
190 78; 191 5; 192 1; 193 1; 194 1; 
195 1; 196 1; 197 1; 198 1; 199 1; 
200 1; 201 1; 202 1; 203 1; 204 1; 
205 1; 206 1; 207 4; 208 1; 209 1; 
210 1; 211 1; 212 1; 213 1; 214 107; 
215 17; 216 1; 217 1; 218 1; 219 1; 
220 1; 221 1; 222 1; 223 1; 224 1; 
225 1; 226 1; 227 1; 228 5; 229 1; 
230 1; 231 1; 232 1; 233 1; 234 1; 
235 1; 236 1; 237 1; 238 1; 239 1; 
240 1; 241 1; 242 1; 243 1; 244 1; 
245 1; 246 1; 247 1; 248 1; 249 1; 
250 1; 251 1; 252 1; 253 3; 254 1; 
255 2; 256 1; 257 999; 258 177; 259 19; 
260 1; 261 1; 262 1; 263 1; 264 1; 
265 1; 266 1; 267 1; 268 1; 269 1; 
270 1; 271 1; 272 1; 273 1; 274 1; 
275 1; 276 1; 277 1; 278 1; 279 10; 
280 2; 281 2; 282 1; 283 1; 284 1; 
285 1; 286 1; 287 1; 288 1; 289 1; 
290 1; 291 1; 292 1; 293 1; 294 1; 
295 1; 296 1; 297 1; 298 1; 299 1; 
300 1; 301 1; 302 1; 303 1; 304 1; 
305 1; 307 1; 308 1; 309 1; 310 1; 
311 1; 312 1; 313 1; 314 1; 315 1; 
316 1; 317 1; 318 1; 319 1; 320 1; 
322 1; 323 1; 324 1; 325 1; 326 1; 
327 1; 328 1; 329 1; 330 1; 331 1; 
332 1; 333 1; 334 1; 335 1; 338 1; 
339 1; 340 1; 341 1; 342 1; 343 1; 
344 1; 345 1; 346 3; 347 1; 348 1; 
349 1; 
