Name: para-Chloro Furanyl fentanyl
InChIKey: AZXDRBNBIMRBJI-UHFFFAOYSA-N
Synon: p-Chloro Fu-F
Synon: 4-Chloro Fu-F
Synon: p-Chloro Furanyl fentanyl
Synon: 4-Chloro Furanyl fentanyl
Synon: N-(4-chlorophenyl)-N-(1-phenethylpiperidin-4-yl)furan-2-carboxamide
Formula: C24H25ClN2O2
MW: 408
ExactMass: 408.160456
CASNO: 0
ID: 4911
Comment: Provided by www.caymanchem.com/app/template/landing%2CForensic.vm / Item#22807 Batch#0510568
Num Peaks: 352
40 1; 41 36; 42 133; 43 20; 44 55; 
45 2; 47 1; 48 1; 49 1; 50 9; 
51 18; 52 8; 53 12; 54 12; 55 25; 
56 16; 57 10; 58 2; 59 1; 60 1; 
61 1; 62 3; 63 17; 64 6; 65 50; 
66 9; 67 45; 68 32; 69 30; 70 37; 
71 4; 72 1; 73 16; 74 6; 75 23; 
76 8; 77 61; 78 28; 79 54; 80 14; 
81 15; 82 24; 83 5; 84 6; 85 3; 
86 1; 87 1; 88 1; 89 15; 90 13; 
91 214; 92 22; 93 10; 94 29; 95 999; 
96 208; 97 24; 98 22; 99 11; 100 1; 
101 5; 102 11; 103 49; 104 38; 105 152; 
106 14; 107 4; 108 1; 109 2; 110 2; 
111 43; 112 3; 113 15; 114 3; 115 11; 
116 5; 117 16; 118 4; 119 3; 120 1; 
121 1; 122 1; 123 1; 124 3; 125 8; 
126 14; 127 13; 128 8; 129 7; 130 44; 
131 14; 132 13; 133 4; 134 4; 135 5; 
136 1; 137 9; 138 35; 139 17; 140 13; 
141 5; 142 4; 143 4; 144 9; 145 3; 
146 4; 147 3; 148 2; 149 2; 150 1; 
151 5; 152 13; 153 11; 154 9; 155 4; 
156 6; 157 5; 158 7; 159 1; 160 14; 
161 2; 162 1; 163 1; 164 21; 165 20; 
166 29; 167 10; 168 9; 169 2; 170 2; 
171 1; 172 1; 173 1; 174 1; 175 1; 
176 2; 177 3; 178 7; 179 3; 180 8; 
181 2; 182 5; 183 2; 184 19; 185 13; 
186 23; 187 8; 188 7; 189 1; 190 1; 
191 4; 192 84; 193 17; 194 30; 195 7; 
196 1; 197 2; 198 1; 199 1; 200 1; 
201 1; 202 1; 203 1; 204 29; 205 11; 
206 13; 207 19; 208 4; 209 4; 210 1; 
211 2; 212 1; 213 1; 214 1; 215 1; 
216 1; 217 1; 218 1; 219 1; 220 1; 
221 34; 222 18; 223 17; 224 8; 225 2; 
226 1; 227 1; 228 1; 229 1; 230 1; 
231 1; 232 1; 233 1; 234 1; 235 1; 
236 1; 237 1; 238 1; 239 7; 240 1; 
241 1; 242 1; 243 1; 244 4; 245 1; 
246 14; 247 3; 248 5; 249 2; 250 1; 
251 1; 252 1; 253 8; 254 1; 255 1; 
256 1; 257 1; 258 1; 259 1; 260 1; 
261 1; 262 1; 263 1; 264 1; 265 1; 
266 1; 267 1; 268 1; 269 1; 270 1; 
271 1; 272 1; 273 1; 274 258; 275 48; 
276 92; 277 15; 278 2; 279 1; 280 1; 
281 6; 282 5; 283 3; 284 1; 285 1; 
286 1; 287 1; 288 1; 289 1; 290 1; 
291 1; 292 1; 293 1; 294 1; 295 1; 
296 1; 297 1; 298 1; 299 1; 300 1; 
301 1; 302 1; 303 1; 304 1; 305 1; 
306 1; 307 1; 309 1; 310 1; 311 1; 
312 1; 313 6; 314 1; 315 3; 316 1; 
317 562; 318 109; 319 188; 320 35; 321 3; 
322 1; 323 1; 324 1; 325 1; 326 1; 
327 3; 328 1; 329 1; 330 1; 331 2; 
332 1; 333 1; 334 1; 335 1; 338 1; 
340 1; 341 3; 342 1; 343 1; 344 1; 
345 1; 346 1; 347 1; 348 1; 349 1; 
350 1; 351 1; 353 1; 355 1; 356 1; 
357 1; 358 1; 359 1; 361 1; 362 1; 
363 1; 365 1; 366 1; 367 1; 369 1; 
370 1; 371 1; 372 1; 373 1; 374 1; 
375 1; 376 1; 377 1; 378 1; 379 1; 
381 1; 383 1; 385 1; 386 1; 387 1; 
388 1; 389 1; 390 1; 391 1; 392 1; 
393 1; 399 1; 400 1; 401 1; 402 1; 
403 1; 404 1; 405 1; 406 3; 407 1; 
408 1; 409 1; 
