Name: Pseudoephedrine-d3
InChIKey: KWGRBVOPPLSCSI-BMSJAHLVSA-N
Synon: .alpha.S-[(1S)-1-(Methyl-d3-amino)ethyl]-benzenemethanol
Formula: C10H12D3NO
MW: 168
ExactMass: 168.134194
CASNO: 284665254
ID: 4912
Comment: Provided by www.caymanchem.com/app/template/landing%2CForensic.vm / Item#22494 Batch#0509962
Num Peaks: 128
41 9; 42 20; 43 24; 44 15; 45 63; 
46 3; 47 2; 48 1; 49 2; 50 21; 
51 45; 52 15; 53 5; 54 1; 55 4; 
56 3; 57 5; 58 33; 59 50; 60 37; 
61 999; 62 42; 63 13; 64 4; 65 9; 
66 2; 67 1; 68 1; 69 1; 70 1; 
71 1; 72 1; 73 5; 74 13; 75 9; 
76 8; 77 168; 78 48; 79 52; 80 5; 
81 1; 82 1; 83 1; 84 1; 85 1; 
86 1; 87 2; 88 1; 89 13; 90 7; 
91 34; 92 5; 93 3; 94 1; 95 1; 
96 1; 97 1; 98 1; 99 1; 100 1; 
101 1; 102 2; 103 9; 104 4; 105 80; 
106 45; 107 16; 108 1; 109 1; 110 1; 
111 1; 112 1; 113 1; 114 1; 115 21; 
116 7; 117 46; 118 27; 119 4; 120 1; 
121 1; 122 1; 123 1; 124 1; 125 1; 
126 1; 127 1; 128 1; 129 1; 130 4; 
131 4; 132 8; 133 2; 134 9; 135 9; 
136 1; 137 1; 139 1; 140 1; 141 1; 
142 1; 143 1; 144 1; 145 1; 146 1; 
147 2; 148 1; 149 17; 150 8; 151 2; 
152 1; 153 1; 154 1; 155 1; 156 1; 
157 1; 158 1; 159 1; 160 1; 161 1; 
162 1; 163 1; 164 1; 165 1; 166 1; 
167 1; 168 1; 169 1; 
