Name: Norhydrocodone-d3
InChIKey: JGORUXKMRLIJSV-FHLGTVKFSA-N
Synon: 4,5.alpha.-Epoxy-3-(methoxy-d3)-morphinan-6-one
Formula: C17H16D3NO3
MW: 288
ExactMass: 288.155323
CASNO: 1426173172
ID: 4913
Comment: Provided by www.caymanchem.com/app/template/landing%2CForensic.vm / Item#15834 Batch#0508498
Num Peaks: 253
40 10; 41 80; 42 75; 43 37; 44 18; 
45 116; 46 6; 47 1; 48 1; 49 1; 
50 16; 51 45; 52 22; 53 40; 54 41; 
55 117; 56 67; 57 10; 58 6; 59 1; 
60 1; 61 2; 62 16; 63 67; 64 28; 
65 60; 66 21; 67 34; 68 172; 69 35; 
70 48; 71 7; 72 4; 73 11; 74 18; 
75 38; 76 38; 77 143; 78 55; 79 35; 
80 49; 81 18; 82 167; 83 19; 84 10; 
85 3; 86 8; 87 18; 88 18; 89 69; 
90 29; 91 85; 92 33; 93 27; 94 23; 
95 8; 96 10; 97 2; 98 8; 99 4; 
100 5; 101 27; 102 77; 103 102; 104 34; 
105 23; 106 22; 107 15; 108 12; 109 10; 
110 32; 111 6; 112 4; 113 26; 114 59; 
115 310; 116 149; 117 69; 118 38; 119 18; 
120 32; 121 9; 122 13; 123 25; 124 6; 
125 4; 126 26; 127 120; 128 215; 129 109; 
130 74; 131 83; 132 40; 133 18; 134 11; 
135 12; 136 6; 137 4; 138 4; 139 45; 
140 38; 141 91; 142 56; 143 66; 144 89; 
145 41; 146 23; 147 31; 148 45; 149 13; 
150 7; 151 16; 152 51; 153 61; 154 47; 
155 96; 156 59; 157 61; 158 36; 159 41; 
160 34; 161 43; 162 25; 163 10; 164 34; 
165 61; 166 23; 167 34; 168 62; 169 68; 
170 90; 171 62; 172 35; 173 44; 174 40; 
175 15; 176 20; 177 73; 178 262; 179 63; 
180 18; 181 61; 182 45; 183 67; 184 58; 
185 85; 186 54; 187 39; 188 320; 189 85; 
190 84; 191 168; 192 35; 193 15; 194 8; 
195 17; 196 43; 197 76; 198 51; 199 52; 
200 62; 201 133; 202 125; 203 128; 204 70; 
205 43; 206 9; 207 21; 208 9; 209 12; 
210 15; 211 18; 212 29; 213 36; 214 62; 
215 213; 216 154; 217 288; 218 103; 219 46; 
220 8; 221 2; 222 2; 223 3; 224 17; 
225 19; 226 18; 227 35; 228 30; 229 20; 
230 32; 231 146; 232 135; 233 44; 234 5; 
235 2; 236 1; 237 1; 238 1; 239 3; 
240 13; 241 14; 242 53; 243 115; 244 98; 
245 449; 246 91; 247 13; 248 1; 249 1; 
250 1; 251 1; 252 4; 253 9; 254 7; 
255 4; 256 3; 257 4; 258 11; 259 94; 
260 60; 261 12; 262 1; 263 1; 264 1; 
265 1; 266 1; 267 2; 268 3; 269 4; 
270 75; 271 28; 272 6; 273 18; 274 3; 
275 1; 276 1; 277 1; 278 1; 279 1; 
280 1; 281 5; 282 2; 283 1; 284 1; 
285 2; 286 22; 287 85; 288 999; 289 186; 
290 22; 291 2; 292 1; 
