Name: Methamphetamine-d14
InChIKey: MYWUZJCMWCOHBA-QUMROUDOSA-N
Synon: N,.alpha.-di(methyl-d3)-(benzene-d5)-ethan-.alpha.,.beta.,.beta.-d3-amine
Formula: C10HD14N
MW: 163
ExactMass: 163.2083235
CASNO: 0
ID: 4914
Comment: Provided by www.caymanchem.com/app/template/landing%2CForensic.vm / Item#22681 Batch#0510768
Num Peaks: 125
40 1; 41 1; 42 26; 43 4; 44 4; 
45 11; 46 38; 47 12; 48 1; 49 4; 
50 1; 51 1; 52 8; 53 1; 54 19; 
55 1; 56 5; 57 1; 58 4; 59 1; 
60 2; 61 26; 62 24; 63 11; 64 29; 
65 999; 66 78; 67 1; 68 5; 69 5; 
70 78; 71 4; 72 1; 73 2; 74 1; 
75 1; 76 3; 77 1; 78 3; 79 1; 
80 3; 81 3; 82 16; 83 2; 84 9; 
85 1; 86 2; 87 1; 88 1; 89 1; 
90 1; 91 1; 92 1; 93 1; 94 16; 
95 2; 96 7; 97 15; 98 135; 99 13; 
100 1; 101 1; 102 1; 103 1; 104 1; 
105 1; 106 1; 107 1; 108 2; 109 1; 
110 5; 111 1; 112 3; 113 2; 114 2; 
115 1; 116 1; 117 1; 118 1; 119 1; 
120 1; 121 1; 122 8; 123 3; 124 2; 
125 4; 126 8; 127 9; 128 2; 129 1; 
130 1; 131 1; 132 1; 133 1; 134 1; 
135 1; 136 1; 137 1; 138 1; 139 1; 
140 1; 141 1; 142 3; 143 1; 144 2; 
145 20; 146 2; 147 1; 148 1; 149 1; 
150 1; 151 1; 152 1; 153 1; 154 1; 
155 1; 156 1; 157 1; 158 1; 159 1; 
160 1; 161 3; 162 1; 163 1; 164 1; 
