Name: 7'-Methoxy NABUTIE
InChIKey: AEKYOIGTEGFYSI-UHFFFAOYSA-N
Synon: 7'-MeO NABUTIE
Synon: 1-(1-Butyl-7-methoxy-1H-indol-3-yl)-2-(1-naphthalenyl)-ethanone
Formula: C25H25NO2
MW: 371
ExactMass: 371.18853
CASNO: 1438278557
ID: 4915
Comment: Provided by www.caymanchem.com/app/template/landing%2CForensic.vm / Item#22630 Batch#0508175
Num Peaks: 329
40 1; 41 19; 42 1; 43 1; 44 1; 
45 1; 46 1; 47 1; 48 1; 49 1; 
50 1; 51 2; 52 1; 53 1; 54 1; 
55 4; 56 1; 57 7; 58 1; 59 1; 
60 1; 61 1; 62 2; 63 6; 64 1; 
65 3; 66 1; 67 1; 68 1; 69 1; 
70 1; 71 1; 72 1; 73 8; 74 2; 
75 6; 76 10; 77 8; 78 2; 79 1; 
80 1; 81 1; 82 1; 83 1; 84 1; 
85 1; 86 1; 87 1; 88 5; 89 21; 
90 5; 91 6; 92 1; 93 1; 94 1; 
95 1; 96 1; 97 1; 98 1; 99 1; 
100 1; 101 3; 102 14; 103 29; 104 3; 
105 1; 106 1; 107 1; 108 1; 109 1; 
110 1; 111 1; 112 1; 113 2; 114 7; 
115 104; 116 24; 117 13; 118 6; 119 3; 
120 1; 121 1; 122 1; 123 1; 124 1; 
125 1; 126 2; 127 3; 128 12; 129 15; 
130 19; 131 25; 132 4; 133 3; 134 1; 
135 4; 136 1; 137 1; 138 1; 139 29; 
140 11; 141 170; 142 28; 143 17; 144 25; 
145 12; 146 5; 147 2; 148 1; 149 1; 
150 1; 151 1; 152 1; 153 1; 154 4; 
155 2; 156 3; 157 3; 158 14; 159 158; 
160 25; 161 1; 162 1; 163 1; 164 1; 
165 2; 166 1; 167 1; 168 1; 169 1; 
170 4; 171 1; 172 12; 173 12; 174 190; 
175 23; 176 2; 177 1; 178 1; 179 1; 
180 1; 181 1; 182 1; 183 1; 184 2; 
185 1; 186 12; 187 4; 188 2; 189 1; 
190 1; 191 1; 192 1; 193 1; 194 1; 
195 1; 196 1; 197 1; 198 1; 199 1; 
200 5; 201 3; 202 2; 203 1; 204 1; 
205 1; 206 1; 207 10; 208 2; 209 2; 
210 1; 211 1; 212 1; 213 2; 214 1; 
215 1; 216 3; 217 1; 218 1; 219 1; 
220 1; 221 1; 222 1; 223 1; 224 1; 
225 1; 226 3; 227 2; 228 9; 229 1; 
230 999; 231 154; 232 16; 233 1; 234 1; 
235 1; 236 1; 237 1; 238 1; 239 1; 
240 2; 241 2; 242 2; 243 1; 244 1; 
245 1; 246 1; 247 1; 248 1; 249 1; 
250 1; 251 1; 252 1; 253 7; 254 5; 
255 3; 256 1; 257 1; 258 1; 259 1; 
261 1; 262 1; 263 1; 264 1; 265 1; 
266 1; 267 2; 268 1; 269 1; 270 2; 
271 1; 272 1; 273 1; 274 1; 275 1; 
276 1; 277 1; 278 1; 279 1; 280 1; 
281 4; 282 3; 283 1; 284 1; 285 1; 
286 1; 287 1; 288 1; 289 1; 290 1; 
291 1; 292 1; 293 1; 294 1; 295 1; 
296 1; 297 1; 298 1; 299 1; 300 1; 
301 1; 302 1; 303 1; 304 1; 305 1; 
306 1; 307 1; 308 1; 309 1; 310 1; 
311 1; 312 1; 313 1; 314 1; 315 1; 
316 1; 317 1; 318 1; 320 1; 321 1; 
322 1; 323 1; 324 1; 325 1; 326 1; 
327 1; 328 3; 329 1; 330 1; 331 1; 
332 1; 333 1; 334 1; 335 1; 336 1; 
337 1; 338 1; 339 1; 340 1; 341 2; 
342 1; 343 1; 344 1; 345 1; 346 1; 
347 1; 348 1; 349 1; 350 1; 351 1; 
352 1; 353 1; 354 1; 355 3; 356 2; 
357 1; 358 1; 359 1; 360 1; 361 1; 
362 1; 365 1; 367 1; 368 1; 369 1; 
370 1; 371 30; 372 8; 373 1; 
