Name: trans-3-Methyl Thiofentanyl
InChIKey: SRARDYUHGVMEQI-PXNSSMCTSA-N
Synon: N-((3R,4R)-3-methyl-1-(2-(thiophen-2-yl)ethyl)piperidin-4-yl)-N-phenylpropionamide
Formula: C21H28N2OS
MW: 356
ExactMass: 356.192234
CASNO: 0
ID: 4916
Comment: Provided by www.caymanchem.com/app/template/landing%2CForensic.vm / Item#22241 Batch#0511045
Num Peaks: 303
41 37; 42 110; 43 14; 44 27; 45 17; 
46 1; 47 1; 48 1; 49 1; 50 3; 
51 11; 52 3; 53 19; 54 6; 55 28; 
56 16; 57 145; 58 17; 59 2; 60 1; 
61 1; 62 1; 63 5; 64 4; 65 18; 
66 12; 67 27; 68 25; 69 28; 70 23; 
71 11; 72 1; 73 1; 74 1; 75 1; 
76 4; 77 109; 78 21; 79 14; 80 7; 
81 25; 82 19; 83 8; 84 25; 85 10; 
86 2; 87 1; 88 1; 89 1; 90 2; 
91 21; 92 9; 93 45; 94 28; 95 9; 
96 23; 97 168; 98 20; 99 9; 100 1; 
101 1; 102 1; 103 6; 104 39; 105 17; 
106 23; 107 3; 108 13; 109 19; 110 112; 
111 99; 112 11; 113 5; 114 1; 115 4; 
116 3; 117 20; 118 44; 119 16; 120 7; 
121 2; 122 2; 123 2; 124 1; 125 1; 
126 1; 127 1; 128 2; 129 1; 130 34; 
131 27; 132 88; 133 17; 134 4; 135 1; 
136 2; 137 1; 138 2; 139 1; 140 2; 
141 1; 142 1; 143 3; 144 16; 145 13; 
146 28; 147 4; 148 2; 149 6; 150 7; 
151 1; 152 2; 153 5; 154 2; 155 1; 
156 2; 157 2; 158 7; 159 11; 160 260; 
161 33; 162 3; 163 1; 164 1; 165 1; 
166 2; 167 1; 168 1; 169 1; 170 1; 
171 1; 172 20; 173 5; 174 7; 175 1; 
176 1; 177 1; 178 1; 179 1; 180 4; 
181 1; 182 1; 183 1; 184 1; 185 1; 
186 2; 187 2; 188 1; 189 1; 190 1; 
191 1; 192 1; 193 1; 194 1; 195 1; 
196 1; 197 1; 198 1; 199 1; 200 1; 
201 8; 202 9; 203 112; 204 18; 205 3; 
206 8; 207 2; 208 8; 209 2; 210 1; 
211 1; 212 1; 213 1; 214 1; 215 1; 
216 89; 217 14; 218 1; 219 1; 220 1; 
221 1; 222 1; 223 1; 224 1; 225 1; 
226 1; 227 1; 228 1; 229 1; 230 5; 
231 1; 232 1; 233 1; 235 1; 236 1; 
237 1; 238 1; 239 1; 240 1; 241 1; 
242 1; 243 1; 244 1; 245 1; 246 1; 
247 1; 248 1; 249 1; 250 1; 251 1; 
252 1; 253 1; 254 1; 255 1; 256 1; 
257 3; 258 1; 259 999; 260 178; 261 18; 
262 1; 263 1; 265 1; 266 1; 267 1; 
268 1; 269 1; 270 1; 271 1; 272 1; 
273 1; 274 1; 277 1; 278 1; 279 1; 
281 1; 283 1; 284 1; 285 1; 286 1; 
287 1; 288 1; 289 1; 290 1; 291 1; 
294 1; 295 1; 296 1; 297 1; 298 1; 
299 1; 300 1; 301 1; 303 1; 304 1; 
305 1; 306 1; 307 1; 309 1; 310 1; 
311 1; 312 1; 313 1; 314 1; 315 1; 
316 1; 317 1; 318 1; 321 1; 322 1; 
323 1; 324 1; 325 1; 326 1; 327 1; 
328 1; 329 1; 330 1; 331 1; 332 1; 
333 1; 334 1; 335 1; 336 1; 337 1; 
338 1; 339 1; 341 1; 342 1; 343 1; 
344 1; 345 1; 346 1; 347 1; 349 1; 
350 1; 351 1; 352 1; 353 1; 354 2; 
355 1; 356 1; 357 1; 
