Name: ortho-Methylfentanyl
InChIKey: DPAJFOSXYXNYMA-UHFFFAOYSA-N
Synon: N-(2-methylphenyl)-N-[1-(2-phenylethyl)-4-piperidinyl]-propanamide
Synon: 2-Methylfentanyl
Synon: o-Methylfentanyl
Formula: C23H30N2O
MW: 350
ExactMass: 350.235813
CASNO: 1443534
ID: 4919
Comment: Provided by www.caymanchem.com/app/template/landing%2CForensic.vm / Item#22634 Batch#0509212
Num Peaks: 302
40 1; 41 31; 42 124; 43 18; 44 63; 
45 2; 46 1; 47 1; 48 1; 49 1; 
50 5; 51 13; 52 7; 53 9; 54 10; 
55 27; 56 22; 57 179; 58 8; 59 1; 
60 1; 61 1; 62 2; 63 11; 64 4; 
65 69; 66 7; 67 23; 68 28; 69 28; 
70 53; 71 6; 72 1; 73 5; 74 3; 
75 3; 76 5; 77 69; 78 32; 79 62; 
80 15; 81 6; 82 26; 83 5; 84 6; 
85 1; 86 1; 87 1; 88 1; 89 20; 
90 14; 91 308; 92 31; 93 8; 94 18; 
95 22; 96 142; 97 20; 98 9; 99 1; 
100 1; 101 1; 102 6; 103 48; 104 46; 
105 208; 106 44; 107 40; 108 17; 109 2; 
110 1; 111 1; 112 1; 113 1; 114 1; 
115 10; 116 7; 117 42; 118 84; 119 16; 
120 14; 121 1; 122 1; 123 1; 124 1; 
125 1; 126 1; 127 1; 128 4; 129 5; 
130 54; 131 29; 132 57; 133 13; 134 16; 
135 3; 136 1; 137 1; 138 1; 139 10; 
140 1; 141 1; 142 2; 143 8; 144 55; 
145 42; 146 67; 147 10; 148 4; 149 1; 
150 1; 151 1; 152 1; 153 1; 154 1; 
155 1; 156 4; 157 3; 158 14; 159 8; 
160 721; 161 90; 162 9; 163 9; 164 5; 
165 1; 166 1; 167 1; 168 1; 169 1; 
170 2; 171 1; 172 67; 173 19; 174 6; 
175 1; 176 1; 177 1; 178 1; 179 1; 
180 1; 181 1; 182 2; 183 1; 184 11; 
185 9; 186 28; 187 11; 188 22; 189 3; 
190 1; 191 1; 192 1; 193 1; 194 1; 
195 1; 196 1; 197 1; 198 1; 199 1; 
200 1; 201 13; 202 8; 203 404; 204 61; 
205 4; 206 1; 207 12; 208 2; 209 1; 
210 1; 211 1; 212 1; 213 1; 214 1; 
215 1; 216 174; 217 27; 218 2; 219 1; 
220 1; 221 1; 222 1; 223 1; 224 1; 
225 1; 226 1; 227 1; 228 1; 229 1; 
230 5; 231 2; 232 1; 233 1; 234 1; 
235 1; 236 1; 237 1; 238 1; 239 1; 
240 1; 241 1; 242 1; 243 1; 244 1; 
245 1; 246 1; 247 1; 248 1; 249 1; 
250 1; 251 1; 252 1; 253 4; 254 1; 
255 1; 256 1; 257 2; 258 1; 259 999; 
260 180; 261 17; 262 1; 263 1; 264 1; 
265 1; 266 1; 267 1; 268 1; 269 1; 
270 1; 271 1; 272 1; 273 1; 274 1; 
277 1; 278 1; 279 1; 280 1; 281 5; 
282 1; 283 1; 284 1; 285 1; 286 1; 
288 1; 289 1; 290 1; 291 1; 292 1; 
293 2; 294 1; 295 1; 296 1; 297 1; 
299 1; 300 1; 301 1; 303 1; 305 1; 
306 1; 307 1; 309 1; 311 1; 312 1; 
313 1; 314 1; 315 1; 316 1; 317 1; 
318 1; 319 1; 320 1; 321 1; 322 1; 
323 1; 324 1; 325 1; 326 1; 327 1; 
328 1; 329 1; 330 1; 331 1; 332 1; 
333 1; 334 1; 335 1; 336 1; 337 1; 
339 1; 341 1; 342 1; 343 1; 344 1; 
345 1; 346 1; 347 1; 348 4; 349 2; 
350 1; 351 1; 
