Name: Remifentanil Acid
InChIKey: GFJKFSFFMHOISI-UHFFFAOYSA-N
Synon: 4-(Methoxycarbonyl)-4-[(1-oxopropyl)phenylamino]-1-piperidinepropanoic acid
Formula: C19H26N2O5
MW: 362
ExactMass: 362.184172
CASNO: 132875695
ID: 4920
Comment: Provided by www.caymanchem.com/app/template/landing%2CForensic.vm / Item#21926 Batch#0508819
Num Peaks: 252
41 34; 42 199; 43 53; 44 38; 45 21; 
46 2; 47 1; 48 1; 49 2; 50 22; 
51 63; 52 25; 53 81; 54 30; 55 61; 
56 165; 57 373; 58 12; 59 70; 60 2; 
61 6; 62 6; 63 25; 64 29; 65 57; 
66 36; 67 26; 68 28; 69 17; 70 14; 
71 5; 72 6; 73 50; 74 13; 75 11; 
76 23; 77 304; 78 62; 79 20; 80 152; 
81 68; 82 874; 83 103; 84 7; 85 4; 
86 3; 87 2; 88 4; 89 12; 90 14; 
91 76; 92 42; 93 440; 94 97; 95 10; 
96 14; 97 5; 98 9; 99 6; 100 3; 
101 3; 102 6; 103 19; 104 67; 105 38; 
106 46; 107 5; 108 37; 109 56; 110 103; 
111 8; 112 13; 113 76; 114 20; 115 13; 
116 5; 117 85; 118 256; 119 74; 120 31; 
121 6; 122 4; 123 2; 124 13; 125 2; 
126 709; 127 57; 128 15; 129 9; 130 93; 
131 40; 132 113; 133 52; 134 31; 135 8; 
136 1; 137 13; 138 9; 139 17; 140 97; 
141 999; 142 176; 143 38; 144 56; 145 24; 
146 400; 147 65; 148 25; 149 84; 150 268; 
151 32; 152 2; 153 1; 154 9; 155 6; 
156 8; 157 8; 158 66; 159 20; 160 4; 
161 2; 162 5; 163 4; 164 3; 165 8; 
166 1; 167 2; 168 1; 169 1; 170 1; 
171 8; 172 10; 173 68; 174 20; 175 106; 
176 20; 177 16; 178 214; 179 27; 180 1; 
181 2; 182 1; 183 1; 184 1; 185 7; 
186 10; 187 3; 188 3; 189 8; 190 13; 
191 11; 192 8; 193 23; 194 2; 195 3; 
196 2; 197 2; 198 1; 199 1; 200 3; 
201 3; 202 49; 203 10; 204 3; 205 19; 
206 4; 207 84; 208 8; 209 12; 210 4; 
211 1; 212 1; 213 4; 214 2; 215 3; 
216 4; 217 32; 218 6; 219 2; 221 3; 
223 2; 229 1; 230 2; 231 76; 232 13; 
233 25; 234 57; 235 11; 236 1; 238 1; 
239 1; 240 1; 241 1; 247 1; 249 6; 
250 4; 251 1; 252 1; 253 17; 254 2; 
255 4; 256 1; 257 1; 259 14; 260 2; 
261 1; 262 1; 263 1; 265 2; 266 2; 
267 2; 268 1; 269 3; 270 2; 271 1; 
272 5; 273 1; 281 27; 282 7; 283 17; 
284 3; 285 1; 287 1; 290 5; 291 1; 
292 1; 293 1; 295 2; 296 1; 297 1; 
306 1; 313 1; 314 1; 315 1; 324 1; 
325 4; 326 1; 327 8; 328 2; 329 2; 
331 2; 332 2; 333 2; 340 1; 341 14; 
342 2; 343 4; 344 1; 346 4; 355 7; 
356 1; 357 2; 
