Name: 6.beta.-Oxymorphol
InChIKey: AABLHGPVOULICI-LQPBRMSDSA-N
Synon: 14-Hydroxydihydroisomorphine
Synon: (5.alpha.,6.beta.)-4,5-Epoxy-17-methyl-morphinan-3,6,14-triol
Formula: C17H21NO4
MW: 303
ExactMass: 303.147058
CASNO: 54934757
ID: 4921
Comment: Provided by www.caymanchem.com/app/template/landing%2CForensic.vm / Item#21543 Batch#0500979
Num Peaks: 253
41 94; 42 399; 43 157; 44 423; 45 27; 
46 3; 47 5; 48 2; 49 2; 50 14; 
51 45; 52 15; 53 37; 54 18; 55 113; 
56 61; 57 260; 58 278; 59 37; 60 10; 
61 3; 62 7; 63 34; 64 19; 65 75; 
66 20; 67 31; 68 26; 69 32; 70 719; 
71 125; 72 67; 73 55; 74 23; 75 28; 
76 26; 77 137; 78 66; 79 54; 80 17; 
81 34; 82 50; 83 25; 84 46; 85 65; 
86 52; 87 29; 88 13; 89 56; 90 21; 
91 144; 92 30; 93 22; 94 46; 95 23; 
96 73; 97 20; 98 75; 99 26; 100 21; 
101 29; 102 52; 103 86; 104 24; 105 36; 
106 16; 107 46; 108 24; 109 9; 110 13; 
111 9; 112 19; 113 26; 114 43; 115 286; 
116 80; 117 69; 118 48; 119 25; 120 16; 
121 48; 122 24; 123 21; 124 24; 125 3; 
126 23; 127 117; 128 142; 129 67; 130 42; 
131 127; 132 58; 133 31; 134 15; 135 26; 
136 32; 137 18; 138 12; 139 78; 140 27; 
141 53; 142 47; 143 57; 144 84; 145 77; 
146 52; 147 126; 148 51; 149 24; 150 21; 
151 26; 152 56; 153 59; 154 24; 155 42; 
156 31; 157 78; 158 39; 159 47; 160 94; 
161 150; 162 89; 163 30; 164 34; 165 75; 
166 11; 167 20; 168 36; 169 44; 170 31; 
171 113; 172 71; 173 97; 174 125; 175 118; 
176 65; 177 45; 178 30; 179 17; 180 24; 
181 57; 182 24; 183 28; 184 91; 185 97; 
186 88; 187 183; 188 90; 189 74; 190 64; 
191 41; 192 10; 193 16; 194 11; 195 21; 
196 22; 197 32; 198 36; 199 146; 200 142; 
201 100; 202 153; 203 128; 204 55; 205 6; 
206 5; 207 177; 208 21; 209 41; 210 27; 
211 37; 212 39; 213 39; 214 73; 215 81; 
216 413; 217 91; 218 78; 219 13; 220 5; 
221 3; 223 15; 224 14; 225 9; 226 62; 
227 23; 228 212; 229 81; 230 39; 231 39; 
232 48; 233 6; 234 4; 235 6; 236 4; 
237 4; 238 15; 239 7; 240 23; 241 17; 
242 34; 243 8; 244 63; 245 11; 246 144; 
247 60; 248 9; 250 6; 251 2; 252 7; 
253 43; 254 18; 255 7; 256 26; 257 14; 
258 10; 259 30; 260 54; 261 9; 262 3; 
263 1; 265 7; 266 9; 267 37; 268 21; 
269 22; 270 9; 271 4; 272 49; 273 6; 
274 23; 275 17; 276 2; 280 1; 281 49; 
282 17; 283 9; 284 26; 285 28; 286 25; 
287 10; 288 23; 289 4; 293 1; 296 3; 
297 2; 299 1; 300 2; 301 2; 302 54; 
303 999; 304 199; 305 31; 
