Name: 4-MMA-NBOMe
InChIKey: DTFCZLWHKAATQN-UHFFFAOYSA-N
Synon: N-(ortho-methoxybenzyl)-4-Methylmethamphetamine
Synon: N-(2-methoxybenzyl)-N-methyl-1-(p-tolyl)propan-2-amine
Formula: C19H25NO
MW: 283
ExactMass: 283.193615
CASNO: 0
ID: 4922
Comment: Provided by www.caymanchem.com/app/template/landing%2CForensic.vm / Item#18755 Batch#0499606
Num Peaks: 218
41 10; 42 39; 43 2; 44 2; 45 1; 
46 1; 47 1; 48 1; 49 1; 50 5; 
51 17; 52 10; 53 7; 54 3; 55 3; 
56 38; 57 8; 58 3; 59 1; 60 1; 
61 1; 62 2; 63 13; 64 5; 65 74; 
66 6; 67 1; 68 1; 69 1; 70 1; 
71 1; 72 1; 73 1; 74 2; 75 2; 
76 5; 77 91; 78 66; 79 55; 80 4; 
81 1; 82 1; 83 1; 84 1; 85 1; 
86 1; 87 1; 88 1; 89 20; 90 11; 
91 511; 92 43; 93 59; 94 5; 95 1; 
96 1; 97 1; 98 1; 99 1; 100 1; 
101 1; 102 6; 103 42; 104 33; 105 150; 
106 17; 107 8; 108 1; 109 1; 110 1; 
111 1; 112 1; 113 1; 114 1; 115 15; 
116 6; 117 17; 118 6; 119 7; 120 9; 
121 999; 122 88; 123 5; 124 1; 125 1; 
126 1; 127 1; 128 3; 129 2; 130 4; 
131 8; 132 9; 133 6; 134 6; 135 3; 
136 1; 137 1; 138 1; 139 1; 140 1; 
141 1; 142 1; 143 1; 144 4; 145 2; 
146 13; 147 3; 148 4; 149 1; 150 2; 
151 1; 152 1; 153 1; 154 1; 155 1; 
156 1; 157 1; 158 1; 159 1; 160 1; 
161 1; 162 8; 163 1; 164 1; 165 1; 
166 1; 167 1; 168 1; 169 1; 170 1; 
171 1; 172 1; 173 1; 174 1; 175 1; 
176 6; 177 3; 178 702; 179 87; 180 6; 
181 1; 182 1; 183 1; 184 1; 185 1; 
187 1; 188 1; 189 1; 190 1; 191 1; 
192 1; 193 1; 194 1; 195 1; 196 1; 
197 1; 198 1; 200 1; 202 1; 203 1; 
204 1; 205 1; 206 1; 207 1; 208 1; 
209 1; 210 1; 211 1; 212 1; 215 1; 
216 1; 217 1; 218 1; 219 1; 220 1; 
221 1; 222 1; 223 1; 224 1; 225 1; 
226 1; 232 1; 233 1; 234 1; 235 1; 
236 1; 237 1; 238 1; 239 1; 240 1; 
241 1; 246 1; 248 1; 249 1; 250 1; 
251 1; 252 1; 253 1; 254 1; 255 1; 
256 1; 264 1; 265 1; 266 1; 267 1; 
268 1; 269 1; 270 1; 275 1; 277 1; 
278 1; 279 1; 280 1; 281 1; 282 1; 
283 1; 284 1; 285 1; 
