Name: para-Fluoro Tetrahydrofuran fentanyl
InChIKey: DNWBTPZLCFRPRR-UHFFFAOYSA-N
Synon: N-(4-fluorophenyl)-N-(1-phenethylpiperidin-4-yl)tetrahydrofuran-2-carboxamide
Synon: 4-Fluoro Tetrahydrofuran fentanyl
Synon: p-Fluoro Tetrahydrofuran fentanyl
Formula: C24H29FN2O2
MW: 396
ExactMass: 396.221306
CASNO: 0
ID: 4924
Comment: Provided by www.caymanchem.com/app/template/landing%2CForensic.vm / Item#22752 Batch#0510697
Num Peaks: 354
40 5; 41 116; 42 136; 43 213; 44 61; 
45 3; 46 1; 47 1; 48 1; 49 1; 
50 7; 51 13; 52 7; 53 10; 54 11; 
55 42; 56 22; 57 21; 58 3; 59 1; 
60 1; 61 2; 62 4; 63 10; 64 3; 
65 33; 66 4; 67 22; 68 38; 69 61; 
70 61; 71 820; 72 38; 73 10; 74 4; 
75 18; 76 3; 77 54; 78 25; 79 60; 
80 14; 81 9; 82 35; 83 25; 84 16; 
85 2; 86 1; 87 1; 88 1; 89 11; 
90 6; 91 144; 92 17; 93 6; 94 24; 
95 78; 96 169; 97 35; 98 12; 99 1; 
100 1; 101 2; 102 6; 103 52; 104 36; 
105 244; 106 22; 107 4; 108 6; 109 30; 
110 20; 111 32; 112 4; 113 1; 114 1; 
115 5; 116 2; 117 10; 118 4; 119 2; 
120 1; 121 6; 122 46; 123 16; 124 11; 
125 1; 126 1; 127 1; 128 3; 129 3; 
130 19; 131 7; 132 10; 133 5; 134 9; 
135 21; 136 38; 137 32; 138 8; 139 16; 
140 1; 141 1; 142 1; 143 2; 144 5; 
145 1; 146 6; 147 3; 148 48; 149 46; 
150 53; 151 10; 152 3; 153 2; 154 1; 
155 1; 156 2; 157 1; 158 4; 159 1; 
160 15; 161 5; 162 9; 163 10; 164 293; 
165 34; 166 4; 167 1; 168 1; 169 1; 
170 1; 171 1; 172 1; 173 1; 174 2; 
175 1; 176 18; 177 8; 178 5; 179 2; 
180 1; 181 3; 182 3; 183 1; 184 15; 
185 11; 186 34; 187 10; 188 58; 189 10; 
190 3; 191 5; 192 8; 193 4; 194 1; 
195 1; 196 1; 197 1; 198 1; 199 1; 
200 1; 201 1; 202 1; 203 1; 204 1; 
205 19; 206 29; 207 295; 208 42; 209 17; 
210 3; 211 1; 212 1; 213 1; 214 1; 
215 1; 216 1; 217 1; 218 2; 219 1; 
220 3; 221 1; 222 1; 223 1; 224 1; 
225 1; 226 1; 227 1; 228 1; 229 1; 
230 1; 231 5; 232 3; 233 1; 234 1; 
235 1; 236 1; 237 1; 238 1; 239 1; 
240 1; 241 1; 242 1; 243 1; 244 1; 
245 1; 246 1; 247 1; 248 1; 249 1; 
250 1; 251 1; 252 1; 253 5; 254 1; 
255 1; 256 1; 257 1; 258 1; 259 1; 
260 1; 261 1; 262 16; 263 6; 264 1; 
265 1; 266 1; 267 1; 268 1; 269 1; 
270 1; 271 1; 272 1; 273 1; 274 1; 
275 1; 276 1; 277 2; 278 1; 279 1; 
280 1; 281 5; 282 2; 283 1; 284 1; 
285 1; 286 1; 287 1; 288 1; 289 1; 
290 1; 291 1; 292 1; 293 1; 294 1; 
295 1; 296 1; 297 3; 298 1; 299 1; 
300 1; 301 1; 302 1; 303 5; 304 1; 
305 999; 306 193; 307 21; 308 2; 309 1; 
310 1; 311 1; 312 1; 313 1; 314 1; 
315 1; 316 1; 317 1; 319 1; 320 1; 
321 1; 322 1; 323 1; 324 1; 325 2; 
326 1; 327 2; 328 1; 329 1; 330 1; 
331 1; 332 1; 333 1; 334 1; 335 1; 
336 1; 337 1; 338 1; 339 1; 340 1; 
341 1; 342 1; 343 1; 344 1; 345 1; 
346 1; 347 1; 348 1; 349 1; 350 1; 
351 1; 352 1; 353 1; 354 1; 355 1; 
356 1; 357 1; 358 1; 359 1; 360 1; 
361 1; 363 1; 364 1; 366 1; 367 1; 
368 1; 369 1; 370 1; 371 1; 372 1; 
373 1; 374 1; 375 1; 376 1; 377 1; 
378 1; 379 1; 380 1; 381 1; 382 1; 
383 1; 384 1; 385 1; 387 1; 388 1; 
389 1; 390 1; 391 1; 392 1; 393 1; 
394 2; 395 1; 396 1; 397 1; 
