Name: para-Fluoro Cyclopropyl fentanyl
InChIKey: CGLWFPGHBIADCN-UHFFFAOYSA-N
Synon: 4-Fluoro Cyclopropyl fentanyl
Synon: p-Fluoro Cyclopropyl fentanyl
Synon: N-(4-fluorophenyl)-N-(1-phenethylpiperidin-4-yl)cyclopropanecarboxamide
Formula: C23H27FN2O
MW: 366
ExactMass: 366.210741
CASNO: 0
ID: 4925
Comment: Provided by www.caymanchem.com/app/template/landing%2CForensic.vm / Item#22749 Batch#0510698
Num Peaks: 471
40 4; 41 215; 42 139; 43 23; 44 68; 
45 3; 46 1; 47 1; 48 1; 49 1; 
50 7; 51 14; 52 7; 53 9; 54 12; 
55 30; 56 23; 57 21; 58 3; 59 2; 
60 1; 61 2; 62 3; 63 10; 64 3; 
65 40; 66 5; 67 23; 68 40; 69 576; 
70 76; 71 7; 72 1; 73 15; 74 5; 
75 23; 76 5; 77 57; 78 26; 79 58; 
80 14; 81 8; 82 30; 83 20; 84 14; 
85 2; 86 1; 87 1; 88 1; 89 13; 
90 6; 91 193; 92 18; 93 5; 94 21; 
95 83; 96 143; 97 20; 98 8; 99 1; 
100 1; 101 2; 102 6; 103 51; 104 37; 
105 181; 106 17; 107 5; 108 5; 109 25; 
110 13; 111 48; 112 9; 113 1; 114 1; 
115 7; 116 3; 117 10; 118 2; 119 3; 
120 1; 121 6; 122 48; 123 16; 124 11; 
125 1; 126 1; 127 1; 128 2; 129 3; 
130 15; 131 6; 132 11; 133 9; 134 10; 
135 24; 136 41; 137 19; 138 7; 139 5; 
140 1; 141 1; 142 1; 143 2; 144 5; 
145 2; 146 5; 147 5; 148 53; 149 40; 
150 61; 151 11; 152 3; 153 1; 154 1; 
155 1; 156 3; 157 1; 158 2; 159 2; 
160 16; 161 6; 162 16; 163 11; 164 357; 
165 42; 166 4; 167 1; 168 1; 169 1; 
170 1; 171 1; 172 1; 173 1; 174 1; 
175 2; 176 39; 177 14; 178 4; 179 11; 
180 4; 181 1; 182 2; 183 1; 184 11; 
185 9; 186 25; 187 6; 188 15; 189 3; 
190 4; 191 8; 192 2; 193 4; 194 1; 
195 1; 196 1; 197 1; 198 1; 199 1; 
200 1; 201 1; 202 1; 203 1; 204 2; 
205 16; 206 19; 207 504; 208 74; 209 9; 
210 1; 211 1; 212 1; 213 1; 214 1; 
215 1; 216 1; 217 1; 218 2; 219 1; 
220 1; 221 1; 222 1; 223 1; 224 1; 
225 1; 226 1; 227 1; 228 1; 229 1; 
230 1; 231 1; 232 81; 233 13; 234 1; 
235 1; 236 1; 237 1; 238 1; 239 1; 
240 1; 241 1; 242 1; 243 1; 244 1; 
245 1; 246 4; 247 2; 248 1; 249 2; 
250 1; 251 1; 252 1; 253 6; 254 2; 
255 1; 256 1; 257 1; 258 1; 259 1; 
260 1; 261 1; 262 1; 263 1; 264 1; 
265 1; 266 1; 267 2; 268 1; 269 1; 
270 1; 271 1; 272 1; 273 1; 274 1; 
275 999; 276 182; 277 17; 278 1; 279 1; 
280 1; 281 13; 282 4; 283 3; 284 1; 
285 1; 286 1; 287 1; 288 1; 289 1; 
290 1; 291 1; 292 1; 293 1; 294 1; 
295 1; 296 1; 297 2; 298 1; 299 1; 
300 1; 301 1; 303 1; 304 1; 305 1; 
306 1; 307 1; 308 1; 309 1; 310 1; 
311 1; 312 1; 313 1; 314 1; 315 1; 
316 1; 317 1; 319 1; 320 1; 322 1; 
323 1; 324 1; 325 2; 326 1; 327 3; 
328 1; 329 1; 330 1; 331 2; 332 1; 
333 1; 334 1; 335 1; 336 1; 337 1; 
339 1; 340 1; 341 3; 342 1; 343 1; 
344 1; 345 1; 346 1; 347 1; 348 1; 
349 1; 350 1; 351 1; 353 1; 354 1; 
355 1; 356 1; 357 1; 358 1; 359 1; 
360 1; 362 1; 363 1; 364 4; 365 2; 
366 1; 367 1; 368 1; 369 1; 370 1; 
371 1; 372 1; 373 1; 374 1; 375 1; 
376 1; 377 1; 378 1; 379 1; 381 1; 
383 1; 384 1; 385 1; 386 1; 387 1; 
388 1; 389 1; 390 1; 391 1; 392 1; 
393 1; 394 1; 395 1; 396 1; 397 1; 
398 1; 399 1; 400 1; 401 1; 402 1; 
403 1; 404 1; 405 1; 406 1; 407 1; 
408 1; 409 1; 410 1; 411 1; 413 1; 
414 1; 415 1; 416 1; 417 1; 418 1; 
420 1; 421 1; 422 1; 425 1; 428 1; 
429 1; 430 1; 431 1; 432 1; 433 1; 
436 1; 437 1; 438 1; 439 1; 440 1; 
441 1; 442 1; 443 1; 446 1; 449 1; 
450 1; 451 1; 452 1; 453 1; 454 1; 
455 1; 457 1; 460 1; 461 1; 462 1; 
463 1; 464 1; 466 1; 467 1; 468 1; 
469 1; 470 1; 472 1; 474 1; 475 1; 
476 1; 478 1; 479 1; 480 1; 481 1; 
483 1; 490 1; 491 1; 497 1; 499 1; 
500 1; 501 1; 503 1; 504 1; 505 1; 
506 1; 510 1; 511 1; 515 1; 520 1; 
521 1; 524 1; 526 1; 527 1; 529 1; 
532 1; 535 1; 536 1; 537 1; 541 1; 
543 1; 544 1; 549 1; 550 1; 552 1; 
553 1; 554 1; 555 1; 556 1; 557 1; 
558 1; 559 1; 561 1; 562 1; 563 1; 
565 1; 568 1; 572 1; 574 1; 579 1; 
580 1; 583 1; 585 1; 586 1; 588 1; 
592 1; 593 1; 594 1; 595 1; 596 1; 
598 1; 
