Name: 6-Methoxytryptamine
InChIKey: VOCGEKMEZOPDFP-UHFFFAOYSA-N
Formula: C11H14N2O
MW: 190
ExactMass: 190.110613
CASNO: 0
ID: 538
Comment: DEA SWL / Sigma lot M7384
Num Peaks: 84
40 2; 41 3; 42 3; 43 1; 50 10; 
51 20; 52 10; 53 4; 54 3; 55 1; 
59 3; 60 1; 61 2; 62 14; 63 41; 
64 13; 65 13; 66 2; 67 2; 68 1; 
73 5; 74 10; 75 17; 76 20; 77 31; 
78 11; 79 4; 80 2; 86 3; 87 8; 
88 7; 89 97; 90 85; 91 25; 92 5; 
93 1; 95 1; 98 2; 99 1; 100 2; 
101 11; 102 32; 103 23; 104 14; 105 3; 
113 1; 114 3; 115 7; 116 35; 117 273; 
118 60; 119 8; 120 1; 127 2; 128 27; 
129 30; 130 56; 131 10; 132 16; 133 3; 
140 1; 142 2; 143 5; 144 14; 145 294; 
146 201; 147 25; 148 2; 156 1; 157 2; 
158 21; 159 25; 160 999; 161 625; 162 67; 
163 5; 172 4; 173 10; 174 3; 175 1; 
188 3; 190 236; 191 29; 192 2; 
