Name: Letrozole
Synon: Femara
InChIKey: HPJKCIUCZWXJDR-UHFFFAOYSA-N
Formula: C17H11N5
MW: 285
ExactMass: 285.101446
CASNO: 112809515
ID: 552
Comment: DEA SWL
Num Peaks: 149
41 12; 42 7; 43 3; 45 2; 49 2; 
50 70; 51 101; 52 30; 53 10; 54 12; 
55 2; 56 2; 61 9; 62 34; 63 76; 
64 47; 65 9; 66 1; 68 4; 69 8; 
70 58; 71 2; 73 3; 74 36; 75 135; 
76 108; 77 22; 78 3; 81 31; 85 3; 
86 15; 87 31; 88 47; 89 24; 90 20; 
91 2; 95 25; 98 8; 99 20; 100 30; 
101 36; 102 311; 103 53; 104 12; 108 10; 
110 4; 111 10; 112 13; 113 31; 114 34; 
115 18; 116 39; 117 4; 118 5; 119 2; 
122 1; 123 5; 124 7; 125 10; 126 15; 
127 25; 128 23; 129 253; 130 92; 131 19; 
132 1; 135 2; 136 4; 137 17; 138 22; 
139 20; 140 66; 141 10; 142 40; 143 61; 
144 37; 145 3; 148 1; 149 6; 150 17; 
151 19; 152 9; 153 18; 154 13; 155 15; 
156 194; 157 103; 158 10; 161 10; 162 24; 
163 84; 164 90; 165 33; 166 6; 167 2; 
168 2; 169 1; 174 3; 175 19; 176 25; 
177 69; 178 12; 179 1; 181 1; 182 5; 
183 108; 184 13; 186 3; 187 11; 188 130; 
189 159; 190 776; 191 126; 192 10; 200 1; 
201 6; 202 32; 203 11; 204 4; 205 2; 
213 9; 214 12; 215 404; 216 275; 217 999; 
218 168; 219 14; 228 2; 229 3; 230 36; 
231 8; 232 3; 241 2; 242 1; 243 2; 
244 1; 255 2; 256 2; 257 50; 258 43; 
259 10; 260 1; 268 1; 269 2; 283 1; 
284 164; 285 363; 286 69; 287 7; 
