Name: Methandriol 3-Acetate
InChIKey: HKJDAKOHPSORBF-UHFFFAOYSA-N
Formula: C22H33O3
MW: 345
ExactMass: 345.24297
CASNO: 0
ID: 565
Comment: DEA SWL
Num Peaks: 192
41 112; 43 729; 44 19; 45 15; 50 1; 
51 5; 52 3; 53 47; 54 1; 55 138; 
56 9; 57 54; 58 29; 59 14; 60 2; 
61 27; 62 1; 63 2; 65 40; 66 15; 
67 157; 68 21; 69 47; 71 104; 72 14; 
73 2; 77 127; 78 38; 79 230; 80 34; 
81 254; 82 23; 83 31; 84 4; 85 23; 
86 2; 87 1; 89 3; 91 376; 92 76; 
93 206; 94 47; 95 112; 96 12; 97 21; 
98 5; 99 4; 100 1; 101 1; 102 4; 
103 38; 104 21; 105 386; 106 130; 107 228; 
108 77; 109 83; 110 14; 111 12; 112 2; 
113 3; 115 73; 116 35; 117 161; 118 84; 
119 197; 120 134; 121 112; 122 35; 123 49; 
124 6; 125 7; 127 18; 128 74; 129 124; 
130 58; 131 185; 132 52; 133 134; 134 33; 
135 55; 136 11; 137 8; 138 1; 139 2; 
141 49; 142 45; 143 234; 144 94; 145 314; 
146 68; 147 134; 148 33; 149 28; 150 9; 
151 6; 152 7; 153 12; 154 10; 155 42; 
156 43; 157 135; 158 174; 159 174; 160 82; 
161 79; 162 42; 163 39; 164 7; 165 23; 
166 7; 167 10; 168 7; 169 52; 170 28; 
171 89; 172 41; 173 87; 174 30; 175 23; 
176 6; 177 8; 178 8; 179 7; 180 3; 
181 8; 182 7; 183 55; 184 23; 185 57; 
186 44; 187 37; 188 11; 189 5; 190 1; 
191 2; 192 2; 193 2; 194 1; 195 6; 
197 315; 198 71; 199 90; 200 30; 201 27; 
202 7; 203 3; 205 5; 206 1; 207 2; 
209 3; 211 123; 213 715; 214 142; 215 45; 
216 8; 217 2; 223 1; 225 24; 226 180; 
227 58; 228 73; 229 22; 230 4; 231 1; 
232 1; 237 2; 239 28; 240 16; 241 5; 
242 1; 243 9; 244 4; 245 1; 251 2; 
253 966; 254 200; 255 22; 256 2; 257 1; 
258 1; 268 328; 269 76; 271 231; 272 48; 
273 5; 284 1; 286 999; 287 218; 288 24; 
289 1; 303 3; 
