Name: Methylpseudoephedrine
InChIKey: FMCGSUUBYTWNDP-UHFFFAOYSA-N
Formula: C11H17NO
MW: 179
ExactMass: 179.131014
CASNO: 0
ID: 569
Comment: DEA SWL
Num Peaks: 57
40 2; 41 6; 42 52; 43 12; 44 51; 
45 2; 46 1; 50 9; 51 24; 52 7; 
53 4; 54 4; 55 8; 56 45; 57 22; 
58 39; 59 1; 62 1; 63 5; 64 1; 
65 5; 66 1; 70 32; 72 999; 73 46; 
74 4; 75 2; 77 71; 78 19; 79 24; 
80 1; 87 1; 89 4; 90 1; 91 14; 
92 1; 102 3; 103 4; 105 22; 106 5; 
107 4; 115 9; 116 3; 117 10; 118 5; 
119 1; 120 2; 130 1; 131 1; 132 1; 
133 2; 134 1; 144 1; 146 2; 147 1; 
148 2; 162 1; 
