Name: 5-Methoxy-N,N-diethyltryptamine
Synon: 5-MeO-DET
Synon: TIHKAL #36
InChIKey: MJFXDKIZSXEKCT-UHFFFAOYSA-N
Formula: C15H22N2O
MW: 246
ExactMass: 246.173213
CASNO: 0
ID: 573
Comment: DEA SWL / SWGDRUG Monograph available
Num Peaks: 77
41 2; 42 16; 43 5; 44 1; 50 1; 
51 4; 52 3; 53 1; 54 2; 55 1; 
56 17; 57 8; 58 61; 59 2; 62 1; 
63 7; 64 2; 65 2; 70 3; 71 2; 
72 2; 74 1; 75 3; 76 4; 77 12; 
78 3; 79 1; 80 1; 84 3; 86 999; 
87 63; 88 2; 89 17; 90 14; 91 3; 
101 2; 102 8; 103 10; 104 5; 105 1; 
114 1; 115 8; 116 11; 117 49; 118 6; 
119 1; 127 1; 128 6; 129 6; 130 30; 
131 11; 132 3; 133 1; 141 1; 142 3; 
143 8; 144 8; 145 48; 146 8; 147 1; 
156 1; 157 1; 158 8; 159 12; 160 68; 
161 10; 162 1; 171 1; 172 2; 173 7; 
174 20; 175 2; 187 1; 201 1; 229 1; 
246 14; 247 2; 
