Name: Testosterone Isobutyrate
InChIKey: PYHZLMFTKOTWGQ-UHFFFAOYSA-N
Formula: C23H34O3
MW: 358
ExactMass: 358.250795
CASNO: 0
ID: 578
Comment: DEA SWL
Num Peaks: 228
40 16; 41 246; 42 30; 43 999; 44 34; 
45 8; 50 3; 51 10; 52 7; 53 60; 
54 13; 55 214; 56 13; 57 25; 64 3; 
65 41; 66 18; 67 157; 68 12; 69 36; 
70 12; 71 697; 72 26; 73 4; 75 2; 
76 5; 77 137; 78 33; 79 241; 80 26; 
81 134; 82 15; 83 28; 84 3; 85 7; 
86 4; 87 4; 89 5; 90 7; 91 308; 
92 62; 93 195; 94 66; 95 144; 96 21; 
97 48; 98 5; 99 4; 100 3; 101 5; 
102 3; 103 32; 104 24; 105 246; 106 56; 
107 159; 108 46; 109 123; 110 33; 111 48; 
112 2; 113 9; 115 47; 116 33; 117 76; 
118 29; 119 150; 120 53; 121 115; 122 76; 
123 179; 124 768; 125 80; 126 7; 127 16; 
128 34; 129 50; 130 26; 131 138; 132 57; 
133 151; 134 119; 135 79; 136 46; 137 66; 
138 26; 139 3; 141 17; 142 15; 143 51; 
144 58; 145 121; 146 237; 147 606; 148 152; 
149 97; 150 11; 151 4; 152 4; 153 6; 
154 3; 155 17; 156 7; 157 34; 158 29; 
159 80; 160 45; 161 64; 162 47; 163 33; 
164 16; 165 28; 166 5; 167 5; 168 6; 
169 14; 170 9; 171 36; 172 32; 173 58; 
174 42; 175 31; 176 21; 177 11; 178 8; 
179 4; 180 2; 181 10; 182 7; 183 16; 
184 8; 185 131; 186 43; 187 41; 188 23; 
189 21; 190 4; 191 3; 193 5; 195 11; 
196 6; 197 12; 198 6; 199 37; 200 36; 
201 26; 202 11; 203 12; 204 4; 205 4; 
207 1; 208 6; 209 15; 210 4; 211 22; 
212 7; 213 108; 214 33; 215 19; 216 6; 
217 3; 218 3; 221 3; 223 4; 224 9; 
225 7; 226 14; 227 48; 228 241; 229 74; 
230 160; 231 39; 232 8; 233 3; 234 4; 
235 3; 237 24; 238 5; 239 2; 240 2; 
241 13; 242 17; 243 23; 244 10; 245 33; 
246 15; 251 10; 252 21; 253 39; 254 9; 
255 48; 256 8; 257 3; 260 17; 261 3; 
269 10; 270 73; 271 39; 272 12; 273 101; 
274 28; 275 6; 276 3; 281 3; 287 16; 
288 87; 289 26; 290 3; 298 2; 301 6; 
302 2; 315 4; 316 119; 317 31; 318 3; 
325 7; 329 3; 330 9; 332 2; 340 10; 
341 5; 342 2; 343 23; 344 5; 355 2; 
358 151; 359 41; 360 7; 
