Name: 1-(o-Fluorophenyl)piperazine
Synon: oFPP
Synon: 1-(2-Fluorophenyl)piperazine
Synon: ortho-fluorophenylpiperazine
Synon: ortho-FPP
Synon: 2-FPP
InChIKey: IVTZRJKKXSKXKO-UHFFFAOYSA-N
Formula: C10H13FN2
MW: 180
ExactMass: 180.1062765
CASNO: 1011161
ID: 599
Comment: DEA SWL
Num Peaks: 86
38 2; 39 5; 40 2; 41 9; 42 23; 
43 5; 44 3; 45 1; 50 9; 51 12; 
52 4; 53 1; 54 7; 55 5; 56 89; 
57 50; 58 3; 61 1; 62 2; 63 5; 
64 2; 65 1; 68 5; 69 8; 70 4; 
74 6; 75 47; 76 6; 77 28; 78 3; 
81 4; 82 3; 83 13; 84 1; 85 1; 
89 3; 90 8; 91 9; 92 1; 93 2; 
94 7; 95 87; 96 13; 97 3; 101 2; 
102 16; 103 3; 104 2; 105 1; 107 3; 
108 2; 109 61; 110 8; 111 3; 112 1; 
116 1; 117 8; 118 4; 121 3; 122 198; 
123 129; 124 51; 125 15; 126 1; 130 2; 
131 2; 132 1; 134 1; 135 5; 136 8; 
137 8; 138 999; 139 86; 140 3; 148 2; 
149 2; 150 8; 151 2; 152 1; 163 1; 
177 1; 178 3; 179 3; 180 256; 181 29; 
182 1; 
