Name: 1-(4-Chlorophenyl)piperazine
Synon: pCPP
Synon: para-chlorophenylpiperazine
InChIKey: UNEIHNMKASENIG-UHFFFAOYSA-N
Formula: C10H13ClN2
MW: 196
ExactMass: 196.076726
CASNO: 38869464
ID: 600
Comment: DEA SWL
Num Peaks: 110
36 1; 37 2; 38 5; 39 10; 40 3; 
41 15; 42 38; 43 11; 44 6; 49 2; 
50 31; 51 34; 52 9; 53 3; 54 12; 
55 8; 56 124; 57 56; 58 3; 61 4; 
62 7; 63 20; 64 6; 65 5; 66 1; 
68 2; 69 2; 72 1; 73 9; 74 17; 
75 83; 76 24; 77 41; 78 9; 79 1; 
81 1; 83 1; 84 2; 85 10; 86 2; 
87 4; 88 2; 89 14; 90 10; 91 8; 
92 2; 97 1; 98 9; 99 10; 100 1; 
101 3; 102 7; 103 7; 104 11; 105 8; 
106 2; 110 1; 111 133; 112 16; 113 44; 
114 5; 115 1; 116 2; 117 11; 118 27; 
119 40; 120 4; 124 1; 125 43; 126 5; 
127 15; 128 2; 129 1; 130 8; 131 7; 
132 3; 133 2; 137 1; 138 161; 139 151; 
140 93; 141 59; 142 14; 143 4; 145 1; 
146 1; 151 1; 152 3; 153 4; 154 999; 
155 91; 156 320; 157 30; 158 1; 159 1; 
160 1; 161 1; 164 1; 165 1; 166 7; 
167 2; 168 3; 179 1; 193 1; 194 2; 
195 3; 196 197; 197 24; 198 62; 199 7; 
