Name: 1-(3-Chlorophenyl)piperazine
Synon: mCPP
Synon: meta-chlorophenylpiperazine
InChIKey: VHFVKMTVMIZMIK-UHFFFAOYSA-N
Formula: C10H13ClN2
MW: 196
ExactMass: 196.076726
CASNO: 65369768
ID: 601
Comment: DEA SWL
Num Peaks: 113
36 1; 37 1; 38 5; 39 10; 40 3; 
41 16; 42 40; 43 12; 44 7; 49 2; 
50 27; 51 36; 52 9; 53 3; 54 13; 
55 9; 56 133; 57 60; 58 4; 61 4; 
62 6; 63 20; 64 7; 65 7; 66 1; 
67 1; 68 2; 69 1; 73 7; 74 16; 
75 81; 76 24; 77 48; 78 11; 79 2; 
80 1; 81 1; 83 2; 84 2; 85 10; 
86 2; 87 3; 88 1; 89 13; 90 8; 
91 11; 92 2; 93 1; 97 1; 98 10; 
99 10; 100 1; 101 3; 102 7; 103 6; 
104 14; 105 8; 106 3; 110 1; 111 127; 
112 22; 113 42; 114 7; 115 1; 116 2; 
117 12; 118 27; 119 29; 120 4; 124 1; 
125 42; 126 5; 127 15; 128 2; 129 1; 
130 8; 131 7; 132 4; 133 2; 137 1; 
138 133; 139 117; 140 80; 141 50; 142 13; 
143 4; 145 2; 146 1; 151 1; 152 3; 
153 5; 154 999; 155 92; 156 318; 157 29; 
158 1; 159 1; 160 1; 161 1; 164 1; 
165 1; 166 8; 167 2; 168 3; 179 1; 
181 2; 193 1; 194 2; 195 3; 196 196; 
197 23; 198 63; 199 7; 
