Name: 1-(2-Chlorophenyl)piperazine
Synon: oCPP
Synon: ortho-chlorophenylpiperazine
InChIKey: PWZDJIUQHUGFRJ-UHFFFAOYSA-N
Formula: C10H13ClN2
MW: 196
ExactMass: 196.076726
CASNO: 41202328
ID: 602
Comment: DEA SWL
Num Peaks: 113
36 1; 37 3; 38 8; 39 20; 40 6; 
41 27; 42 65; 43 17; 44 10; 49 4; 
50 43; 51 68; 52 16; 53 4; 54 21; 
55 12; 56 215; 57 120; 58 7; 61 5; 
62 9; 63 27; 64 12; 65 15; 66 3; 
67 1; 68 4; 69 2; 72 1; 73 11; 
74 23; 75 109; 76 29; 77 118; 78 18; 
79 5; 80 1; 81 4; 83 2; 84 4; 
85 14; 86 3; 87 5; 88 2; 89 20; 
90 13; 91 28; 92 4; 93 1; 97 1; 
98 10; 99 12; 100 1; 101 4; 102 16; 
103 10; 104 34; 105 14; 106 9; 110 2; 
111 130; 112 14; 113 43; 114 4; 115 2; 
116 3; 117 21; 118 28; 119 11; 120 2; 
124 1; 125 64; 126 6; 127 22; 128 3; 
129 1; 130 15; 131 13; 132 53; 133 8; 
137 1; 138 201; 139 171; 140 129; 141 74; 
142 22; 143 6; 144 1; 145 5; 146 1; 
151 1; 152 3; 153 5; 154 999; 155 93; 
156 313; 157 29; 158 1; 159 4; 160 30; 
161 101; 162 11; 164 1; 166 6; 167 1; 
168 3; 179 1; 194 2; 195 2; 196 104; 
197 12; 198 32; 199 3; 
