Name: Reduced Pyrilamine Birch by-product by "Nazi" method
InChIKey: ASGDHXIUDARBEX-UHFFFAOYSA-N
Formula: C12H22N2O
MW: 210
ExactMass: 210.173213
CASNO: 0
ID: 612
Comment: DEA SWL / Unconfirmed structure
Num Peaks: 71
40 11; 41 31; 42 95; 43 38; 44 169; 
45 34; 50 4; 51 12; 52 12; 53 16; 
54 8; 55 17; 56 24; 57 21; 58 999; 
59 118; 60 43; 63 7; 64 3; 65 33; 
66 8; 67 11; 68 5; 69 3; 70 8; 
71 10; 72 28; 73 3; 77 74; 78 33; 
79 52; 80 17; 81 3; 83 2; 85 10; 
87 5; 88 4; 89 46; 90 8; 91 95; 
92 18; 93 10; 94 8; 95 7; 96 3; 
105 2; 106 8; 107 28; 108 29; 109 7; 
110 3; 117 2; 120 6; 121 221; 122 68; 
123 68; 124 6; 133 3; 134 5; 136 9; 
138 28; 139 2; 150 9; 151 18; 152 6; 
160 2; 166 2; 195 5; 209 23; 210 50; 
211 8; 
