Name: Reduced Pyrilamine by "Nazi" method
InChIKey: QJYMFFDAQJBYQH-UHFFFAOYSA-N
Formula: C12H20N2O
MW: 208
ExactMass: 208.157563
CASNO: 0
ID: 613
Comment: DEA SWL / Unconfirmed structure
Num Peaks: 73
40 5; 41 16; 42 100; 43 30; 44 31; 
45 9; 50 9; 51 29; 52 21; 53 8; 
54 4; 55 5; 56 22; 57 24; 58 999; 
59 238; 60 26; 61 1; 62 3; 63 13; 
64 9; 65 21; 66 4; 67 3; 69 3; 
70 5; 71 6; 72 11; 73 9; 74 2; 
75 2; 76 4; 77 81; 78 124; 79 15; 
80 2; 81 1; 83 2; 85 10; 89 31; 
90 19; 91 47; 92 9; 93 5; 94 3; 
102 2; 103 2; 104 3; 105 5; 106 15; 
107 7; 109 1; 117 2; 118 3; 119 4; 
121 784; 122 68; 123 4; 132 2; 133 2; 
134 15; 135 8; 136 68; 137 3; 147 1; 
148 12; 149 7; 150 23; 151 4; 162 1; 
163 2; 205 1; 208 7; 
