Name: 2-Chloro-4,5-dimethoxyphenethylamine
InChIKey: DHMSGUTWLHFESS-UHFFFAOYSA-N
Formula: C10H14ClNO2
MW: 215
ExactMass: 215.071306
CASNO: 0
ID: 615
Comment: DEA SWL
Num Peaks: 124
41 11; 42 24; 43 20; 44 2; 45 7; 
46 5; 49 8; 50 58; 51 77; 52 21; 
53 37; 54 7; 55 6; 61 9; 62 29; 
63 108; 64 46; 65 76; 66 18; 67 13; 
68 5; 73 44; 74 32; 75 84; 76 28; 
77 182; 78 44; 79 64; 80 9; 85 14; 
86 12; 87 10; 88 6; 89 105; 90 21; 
91 60; 92 61; 93 25; 94 16; 95 5; 
98 5; 99 99; 100 17; 101 45; 102 13; 
103 9; 104 17; 105 51; 106 24; 107 206; 
108 92; 109 13; 111 25; 112 59; 113 33; 
114 29; 115 17; 116 7; 117 10; 118 10; 
119 15; 120 33; 121 19; 122 13; 123 12; 
124 32; 125 50; 126 15; 127 23; 128 36; 
129 12; 130 12; 131 5; 132 13; 133 15; 
134 13; 135 32; 136 23; 137 7; 138 6; 
139 49; 140 91; 141 161; 142 66; 143 90; 
144 13; 145 14; 147 24; 148 13; 149 11; 
150 8; 151 53; 152 20; 153 4; 154 8; 
155 42; 156 22; 157 15; 158 7; 162 7; 
163 6; 164 97; 165 18; 168 4; 169 42; 
170 19; 171 241; 172 29; 173 72; 174 6; 
177 5; 178 14; 179 946; 180 158; 181 16; 
183 7; 185 387; 186 999; 187 203; 188 308; 
189 30; 198 8; 207 7; 213 6; 
