Name: 4-Hydroxy-3-methoxymethamphetamine
Synon: HMMA
InChIKey: UVDWYWYWOMOEFX-UHFFFAOYSA-N
Formula: C11H17NO2
MW: 195
ExactMass: 195.125929
CASNO: 0
ID: 616
Comment: DEA SWL / Lipomed lot 417.1B1.12L1
Num Peaks: 70
40 4; 41 7; 42 25; 43 12; 44 3; 
50 3; 51 16; 52 7; 53 8; 54 3; 
55 9; 56 39; 57 13; 58 999; 59 36; 
62 1; 63 4; 64 2; 65 14; 66 12; 
67 3; 69 4; 70 1; 75 1; 76 1; 
77 17; 78 6; 79 6; 80 2; 81 2; 
83 2; 89 2; 90 2; 91 7; 92 1; 
93 2; 94 24; 95 3; 103 4; 104 1; 
105 6; 106 3; 107 5; 108 1; 109 1; 
118 1; 119 1; 120 1; 121 1; 122 18; 
123 6; 124 1; 131 1; 132 1; 133 2; 
134 1; 135 2; 136 1; 137 33; 138 11; 
148 1; 149 1; 150 1; 164 1; 165 2; 
178 1; 179 1; 180 2; 194 1; 195 4; 
