Name: Oxymetholone Methanol Adduct
InChIKey: GSPGTOVABZDOTE-FAFSLGBUSA-N
Formula: C22H34O3
MW: 346
ExactMass: 346.250795
CASNO: 0
ID: 638
Comment: DEA SWL / prepared from Oxymetholone standard
Num Peaks: 261
40 37; 41 411; 42 122; 43 786; 44 35; 
45 119; 46 4; 50 3; 51 17; 52 20; 
53 171; 54 72; 55 474; 56 55; 57 168; 
58 92; 59 60; 60 10; 61 11; 63 3; 
64 3; 65 92; 66 38; 67 425; 68 82; 
69 266; 70 393; 71 482; 72 56; 73 29; 
74 5; 75 6; 76 6; 77 304; 78 81; 
79 508; 80 100; 81 470; 82 130; 83 160; 
84 36; 85 146; 86 17; 87 9; 89 8; 
91 624; 92 93; 93 407; 94 95; 95 324; 
96 76; 97 115; 98 372; 99 999; 100 60; 
101 40; 102 11; 103 61; 104 32; 105 524; 
106 135; 107 367; 108 129; 109 249; 110 53; 
111 88; 112 53; 113 127; 114 480; 115 192; 
116 42; 117 132; 118 70; 119 293; 120 122; 
121 267; 122 101; 123 230; 124 56; 125 189; 
126 24; 127 27; 128 54; 129 87; 130 40; 
131 156; 132 47; 133 197; 134 117; 135 236; 
136 91; 137 211; 138 81; 139 112; 140 14; 
141 35; 142 28; 143 87; 144 45; 145 194; 
146 65; 147 171; 148 77; 149 95; 150 68; 
151 297; 152 80; 153 127; 154 28; 155 40; 
156 11; 157 83; 158 63; 159 376; 160 132; 
161 211; 162 134; 163 96; 164 127; 165 109; 
166 76; 167 50; 168 9; 169 31; 170 20; 
171 61; 172 226; 173 155; 174 657; 175 311; 
176 59; 177 58; 178 13; 179 27; 180 6; 
181 11; 182 6; 183 26; 184 12; 185 46; 
186 30; 187 55; 188 41; 189 43; 190 31; 
191 33; 192 7; 193 22; 194 6; 195 13; 
196 5; 197 32; 198 13; 199 128; 200 31; 
201 41; 202 11; 203 20; 204 9; 205 18; 
206 6; 207 35; 208 9; 209 19; 210 4; 
211 18; 212 16; 213 51; 214 175; 215 213; 
216 57; 217 21; 219 11; 220 12; 221 15; 
223 15; 224 4; 225 32; 226 6; 227 28; 
228 26; 229 26; 230 11; 231 19; 232 44; 
233 26; 234 6; 235 5; 237 8; 238 14; 
239 25; 240 5; 241 39; 242 10; 243 19; 
244 9; 245 14; 246 6; 247 9; 250 4; 
253 10; 254 17; 255 29; 256 50; 257 29; 
258 11; 259 5; 260 9; 261 16; 262 16; 
263 12; 264 6; 265 10; 267 10; 268 3; 
270 8; 271 22; 272 14; 273 69; 274 25; 
275 88; 276 29; 277 5; 281 40; 282 14; 
283 3; 285 9; 286 12; 287 4; 288 74; 
289 105; 290 20; 291 2; 292 3; 295 5; 
296 23; 297 13; 299 14; 300 3; 301 4; 
303 10; 304 3; 313 51; 314 39; 315 13; 
316 4; 318 2; 327 3; 328 14; 329 4; 
331 41; 332 15; 333 4; 334 2; 337 3; 
339 5; 342 8; 345 3; 346 445; 347 95; 
348 14; 
