Name: Sildenafil
Synon: Viagra
InChIKey: BNRNXUUZRGQAQC-UHFFFAOYSA-N
Formula: C22H30N6O4S
MW: 474
ExactMass: 474.204924
CASNO: 139755832
ID: 644
Comment: DEA SCL / LOT# 98068-QCS-08
Num Peaks: 151
41 7; 42 37; 43 23; 44 22; 45 1; 
51 1; 52 1; 53 4; 54 5; 55 11; 
56 190; 57 19; 58 34; 59 1; 60 2; 
63 3; 64 4; 65 1; 66 2; 67 7; 
68 10; 69 7; 70 58; 71 28; 72 20; 
73 4; 75 1; 76 1; 77 2; 78 2; 
79 2; 80 3; 81 3; 82 2; 83 4; 
84 7; 85 5; 89 1; 90 4; 91 4; 
92 2; 93 2; 94 2; 95 8; 96 6; 
97 24; 98 17; 99 999; 100 66; 101 4; 
102 3; 103 2; 104 2; 105 1; 106 1; 
107 1; 113 4; 115 2; 116 2; 117 3; 
118 3; 119 4; 120 3; 121 1; 122 1; 
128 2; 129 4; 130 2; 131 2; 132 1; 
133 2; 134 1; 135 1; 136 25; 137 2; 
142 1; 143 2; 144 2; 145 3; 146 2; 
147 1; 155 2; 156 2; 157 2; 158 2; 
164 1; 166 7; 167 1; 169 1; 170 2; 
171 2; 183 1; 184 2; 185 2; 186 1; 
193 1; 196 1; 197 1; 198 1; 199 1; 
207 3; 208 1; 211 2; 212 1; 224 1; 
225 3; 226 2; 227 2; 238 2; 239 5; 
240 2; 253 6; 254 6; 255 3; 256 1; 
267 3; 268 2; 269 1; 278 2; 281 3; 
282 6; 283 19; 284 4; 296 2; 297 4; 
298 1; 310 2; 311 18; 312 23; 313 6; 
325 2; 326 2; 338 5; 339 2; 344 1; 
354 4; 368 3; 376 1; 377 1; 381 20; 
382 5; 404 219; 405 50; 406 16; 407 3; 
410 9; 411 2; 432 1; 473 2; 474 4; 
475 1; 
