Name: HU-331
Synon: 3-hydroxy-2-[(1R,6R)-3-methyl-6-(1-methylethenyl)-2-cyclohexen-1-yl]-5-pentyl-2,5-cyclohexadiene-1,4-dione
InChIKey: WDXXEUARVHTWQF-SJORKVTESA-N
Formula: C21H28O3
MW: 328
ExactMass: 328.203844
CASNO: 137252256
ID: 658
Comment: Jason Nawyn
Num Peaks: 197
39 46; 40 28; 41 127; 42 4; 43 62; 
51 10; 52 7; 53 68; 54 4; 55 85; 
57 5; 65 46; 66 13; 67 102; 68 30; 
69 59; 77 127; 78 39; 79 123; 80 53; 
81 50; 82 7; 83 7; 89 4; 91 170; 
92 21; 93 57; 94 8; 95 43; 96 14; 
102 3; 103 36; 104 3; 105 89; 106 14; 
107 90; 108 53; 109 101; 110 4; 115 83; 
116 23; 117 54; 118 5; 119 88; 120 36; 
121 64; 122 10; 123 29; 127 25; 128 66; 
129 51; 130 10; 131 43; 132 15; 133 51; 
134 26; 135 43; 136 10; 137 8; 139 14; 
140 3; 141 32; 142 15; 143 29; 144 11; 
145 26; 146 4; 147 52; 148 12; 149 18; 
150 8; 151 5; 152 56; 153 24; 154 8; 
155 11; 156 3; 157 20; 158 14; 159 26; 
160 12; 161 74; 162 43; 163 86; 164 34; 
165 35; 166 17; 167 9; 169 9; 171 25; 
173 14; 174 9; 175 99; 176 64; 177 55; 
178 19; 179 13; 180 5; 181 27; 183 10; 
184 3; 185 20; 186 31; 187 46; 188 9; 
189 78; 190 79; 191 72; 192 13; 193 16; 
195 27; 196 19; 197 27; 198 6; 199 23; 
201 17; 202 10; 203 210; 204 287; 205 46; 
209 126; 210 34; 211 44; 212 9; 213 34; 
214 19; 215 29; 216 15; 217 106; 218 17; 
220 172; 221 43; 222 28; 223 58; 224 21; 
225 54; 226 18; 227 44; 228 10; 229 25; 
230 33; 231 70; 232 50; 233 28; 234 16; 
235 7; 237 293; 238 61; 239 47; 240 132; 
241 107; 242 21; 243 55; 244 15; 245 64; 
246 25; 247 279; 248 60; 249 17; 253 18; 
254 12; 255 15; 256 10; 257 21; 259 17; 
260 157; 261 25; 265 3; 267 13; 269 3; 
271 22; 272 35; 273 62; 274 5; 275 5; 
283 7; 285 59; 286 46; 287 50; 293 73; 
294 17; 295 17; 296 24; 297 8; 299 25; 
300 5; 310 87; 311 755; 312 188; 313 999; 
314 224; 315 48; 327 2; 328 224; 329 61; 
330 58; 331 19; 
