Name: CB-25
Synon: N-cyclopropyl-11-(3-hydroxy-5-pentylphenoxy)-undecanamide
InChIKey: XFHZHCKWTBGPFD-UHFFFAOYSA-N
Formula: C25H41NO3
MW: 403
ExactMass: 403.308643
CASNO: 869376636
ID: 661
Comment: Jason Nawyn
Num Peaks: 244
38 1; 39 24; 40 3; 41 184; 42 24; 
43 133; 50 1; 51 6; 52 4; 53 22; 
54 17; 55 334; 56 206; 57 603; 58 352; 
59 15; 60 2; 63 2; 64 1; 65 18; 
66 11; 67 89; 68 16; 69 186; 70 20; 
71 39; 72 5; 76 1; 77 39; 78 17; 
79 40; 80 10; 81 79; 82 18; 83 96; 
84 57; 85 17; 86 3; 87 1; 89 2; 
90 2; 91 27; 92 5; 93 31; 94 17; 
95 80; 96 23; 97 50; 98 23; 99 67; 
100 7; 101 2; 102 1; 103 3; 104 2; 
105 17; 106 18; 107 95; 108 22; 109 31; 
110 18; 111 72; 112 52; 113 7; 114 3; 
115 3; 116 2; 117 4; 118 1; 119 3; 
120 9; 121 27; 122 11; 123 219; 124 999; 
125 115; 126 18; 127 3; 128 3; 129 1; 
130 1; 131 5; 132 2; 134 4; 136 35; 
137 141; 138 136; 139 17; 140 5; 141 4; 
142 1; 145 4; 146 7; 148 9; 149 99; 
150 31; 151 32; 152 14; 153 3; 154 5; 
155 1; 159 2; 160 2; 161 6; 162 6; 
163 42; 164 29; 165 17; 166 14; 167 44; 
168 10; 169 1; 173 1; 174 1; 175 5; 
176 35; 177 17; 178 34; 179 32; 180 165; 
181 255; 182 36; 183 4; 184 6; 185 1; 
187 1; 189 3; 190 3; 192 7; 193 23; 
194 18; 196 5; 198 2; 201 2; 202 19; 
203 13; 204 4; 205 13; 206 11; 210 1; 
211 1; 212 1; 215 1; 216 1; 217 7; 
218 2; 219 29; 220 34; 221 4; 222 7; 
223 2; 224 183; 225 30; 226 7; 227 1; 
229 1; 230 1; 231 2; 232 1; 233 7; 
234 5; 235 6; 236 6; 237 1; 240 1; 
243 1; 244 1; 245 2; 246 2; 247 30; 
248 8; 250 3; 257 2; 259 1; 260 1; 
261 9; 262 73; 263 17; 264 6; 271 1; 
272 1; 273 1; 274 5; 275 23; 276 23; 
277 17; 278 5; 279 1; 287 2; 288 1; 
289 5; 290 153; 291 39; 292 7; 293 1; 
299 1; 300 1; 301 7; 302 5; 303 25; 
304 57; 305 31; 306 6; 307 1; 314 1; 
315 3; 316 4; 317 8; 318 83; 319 23; 
320 5; 329 1; 330 6; 332 14; 333 4; 
334 1; 344 4; 345 10; 346 181; 347 179; 
348 39; 349 5; 357 13; 358 9; 359 3; 
360 52; 361 20; 362 4; 363 1; 371 2; 
372 1; 374 126; 375 51; 376 10; 377 1; 
385 17; 386 8; 387 1; 388 7; 389 1; 
401 1; 402 12; 403 747; 404 210; 
