Name: N-methyl-N-acetyl-3,4-methylenedioxybenzylamine
InChIKey: JIWDGIYBLGMPRV-UHFFFAOYSA-N
Formula: C11H13NO3
MW: 207
ExactMass: 207.089543
CASNO: 0
ID: 668
Comment: ENFSI
Num Peaks: 93
37 2; 38 8; 39 29; 40 4; 41 11; 
42 178; 43 219; 44 81; 45 2; 49 1; 
50 31; 51 138; 52 19; 53 19; 54 4; 
55 6; 56 48; 57 5; 58 5; 61 4; 
62 17; 63 43; 64 17; 65 53; 66 10; 
67 10; 68 3; 70 1; 72 12; 73 2; 
74 8; 75 8; 76 20; 77 214; 78 39; 
79 40; 80 10; 81 2; 85 1; 86 1; 
87 1; 89 9; 90 5; 91 15; 92 8; 
93 57; 94 7; 95 23; 96 2; 103 2; 
104 13; 105 61; 106 34; 107 11; 108 4; 
117 3; 118 5; 119 5; 120 9; 121 25; 
122 11; 123 34; 124 3; 132 3; 133 4; 
134 25; 135 999; 136 147; 137 13; 138 1; 
146 6; 147 9; 148 21; 149 54; 150 693; 
151 72; 152 6; 162 37; 163 7; 164 174; 
165 21; 166 2; 175 2; 176 3; 177 1; 
178 1; 190 1; 192 30; 193 3; 206 17; 
207 500; 208 63; 209 6; 
