Name: Di[1-(3,4-methylenedioxyphenyl)-2-propyl]amine
InChIKey: ODCWHKDDEIOJLN-UHFFFAOYSA-N
Formula: C20H23NO4
MW: 341
ExactMass: 341.162708
CASNO: 0
ID: 670
Comment: ENFSI
Num Peaks: 39
39 22; 40 17; 41 16; 42 34; 43 12; 
44 127; 50 5; 51 74; 52 6; 55 9; 
56 13; 63 16; 64 5; 65 35; 70 132; 
71 12; 76 4; 77 203; 78 44; 79 74; 
89 14; 91 24; 103 60; 104 14; 105 201; 
106 12; 121 10; 122 5; 133 145; 135 354; 
136 36; 147 22; 148 23; 162 17; 163 938; 
164 113; 204 17; 206 999; 207 154; 
