Name: Di[1-(3,4-methylenedioxyphenyl)-2-propyl]methylamine
InChIKey: IGEKELIKBPAUSL-UHFFFAOYSA-N
Formula: C21H25NO4
MW: 355
ExactMass: 355.178358
CASNO: 0
ID: 671
Comment: ENFSI
Num Peaks: 73
39 14; 40 4; 41 12; 42 51; 43 9; 
44 6; 50 8; 51 51; 52 7; 53 14; 
54 3; 55 19; 56 46; 57 13; 58 137; 
59 4; 63 16; 64 4; 65 24; 66 4; 
67 3; 68 4; 69 4; 70 36; 75 3; 
76 9; 77 144; 78 30; 79 60; 84 20; 
85 10; 89 16; 90 5; 91 16; 92 4; 
93 4; 102 6; 103 42; 104 16; 105 181; 
106 19; 107 5; 110 4; 115 6; 116 2; 
117 3; 118 3; 119 4; 121 15; 122 12; 
131 11; 132 5; 133 126; 134 19; 135 288; 
136 29; 146 2; 147 21; 148 20; 149 12; 
160 3; 161 7; 162 36; 163 758; 164 91; 
165 7; 192 3; 204 6; 207 3; 218 8; 
220 999; 221 148; 222 14; 
