Name: 4-Methoxyphenylpropane-2-ol
InChIKey: TXIWFQCAXKAOBZ-UHFFFAOYSA-N
Formula: C10H14O2
MW: 166
ExactMass: 166.09938
CASNO: 0
ID: 674
Comment: ENFSI / side reaction synthesis PMMA by reductive amination from 1-(4-methoxyphenyl)-2-propanone
Num Peaks: 75
38 3; 39 21; 40 2; 41 8; 42 2; 
43 26; 44 3; 45 68; 46 1; 50 14; 
51 39; 52 30; 53 17; 54 1; 55 7; 
57 2; 61 1; 62 7; 63 24; 64 10; 
65 34; 66 4; 67 2; 68 1; 74 4; 
75 6; 76 7; 77 132; 78 119; 79 46; 
80 5; 81 2; 86 1; 87 1; 89 32; 
90 25; 91 113; 92 27; 93 7; 94 2; 
95 1; 102 3; 103 8; 104 2; 105 9; 
106 15; 107 180; 108 23; 109 5; 115 10; 
116 2; 117 4; 118 2; 119 5; 121 999; 
122 607; 123 57; 124 3; 131 2; 132 4; 
133 4; 134 1; 135 2; 136 1; 147 4; 
148 5; 149 4; 150 1; 151 13; 152 1; 
164 1; 165 3; 166 133; 167 15; 168 1; 
