Name: 3-Methoxy-4-hydroxy-methyl-nitrostyrene
InChIKey: WTPFTLSSHUTSCO-SNAWJCMRSA-N
Formula: C10H11NO4
MW: 209
ExactMass: 209.068808
CASNO: 0
ID: 676
Comment: ENFSI / nitrostyrene intermediate from vanillin and nitroethane
Num Peaks: 98
37 36; 38 84; 39 284; 40 73; 41 113; 
42 28; 43 84; 44 25; 45 20; 46 33; 
50 198; 51 363; 52 232; 53 242; 54 36; 
55 146; 56 21; 57 19; 61 28; 62 121; 
63 225; 64 93; 65 401; 66 72; 67 60; 
68 23; 69 90; 74 66; 75 64; 76 80; 
77 501; 78 106; 79 149; 80 61; 81 192; 
82 59; 83 21; 84 45; 85 17; 89 101; 
90 61; 91 667; 92 145; 93 74; 94 68; 
95 33; 96 20; 97 46; 98 23; 101 24; 
102 132; 103 999; 104 113; 105 127; 106 50; 
107 49; 108 101; 109 154; 110 42; 111 17; 
112 24; 115 27; 118 55; 119 210; 120 74; 
121 28; 122 46; 123 75; 124 136; 125 47; 
127 19; 130 22; 131 208; 132 81; 133 68; 
134 38; 135 27; 136 28; 137 32; 138 32; 
139 21; 140 40; 147 463; 148 91; 149 38; 
150 18; 151 396; 152 270; 153 111; 162 771; 
163 114; 164 59; 177 31; 178 29; 192 52; 
193 18; 209 640; 210 77; 
