Name: 4-Methyl-5-(4-methoxyphenyl)pyrimidine
InChIKey: QTSOLMHKDAQWCD-UHFFFAOYSA-N
Formula: C12H12N2O
MW: 200
ExactMass: 200.094963
CASNO: 0
ID: 677
Comment: ENFSI / Leuckart Impurity in Illicit 4-Methoxyamphetamine. J Forensic Sci 1999; 44(6): 1237 - 1242;For.Sci.Int. 115 (2001) 53-67
Num Peaks: 103
37 9; 38 17; 39 50; 40 12; 41 13; 
42 24; 43 14; 44 49; 45 4; 50 52; 
51 74; 52 22; 53 18; 55 21; 56 8; 
57 10; 58 56; 61 13; 62 55; 63 127; 
64 23; 65 24; 66 17; 67 4; 69 8; 
70 4; 71 4; 72 14; 73 6; 74 37; 
75 55; 76 37; 77 129; 78 25; 79 21; 
83 4; 85 9; 86 12; 87 15; 88 33; 
89 195; 90 18; 91 14; 92 7; 94 4; 
98 10; 99 4; 100 12; 101 34; 102 64; 
103 93; 104 15; 105 5; 107 5; 110 8; 
111 4; 112 7; 113 11; 114 26; 115 64; 
117 304; 118 33; 119 5; 121 33; 122 9; 
126 4; 127 8; 128 22; 129 11; 130 61; 
131 49; 132 156; 133 19; 135 6; 140 14; 
141 13; 142 43; 143 17; 144 5; 145 21; 
146 11; 147 5; 148 20; 149 5; 155 25; 
156 32; 157 82; 158 34; 159 6; 167 7; 
168 52; 169 71; 170 15; 171 4; 172 8; 
183 5; 184 32; 185 153; 186 20; 199 150; 
200 999; 201 147; 202 9; 
