Name: 3,4-Methylenedioxybenzoyl-3,4-methylenedioxymethamphetamine
Synon: 3,4-MDbenzoylMDMA
InChIKey: HWLAKECUQCFOQQ-UHFFFAOYSA-N
Formula: C19H19NO5
MW: 341
ExactMass: 341.126322
CASNO: 0
ID: 681
Comment: ENFSI / MDMA impurity; synthesised from piperonyl chloride and MDMA; N-[2-(1,3-benzodioxol-5-yl)-1-methylethyl]-N-methyl-1,3-benzodioxol
Num Peaks: 72
38 1; 39 8; 41 1; 42 11; 50 3; 
51 20; 52 3; 53 5; 54 1; 55 1; 
56 15; 57 2; 58 5; 62 7; 63 35; 
64 5; 65 80; 66 5; 74 1; 75 1; 
76 3; 77 44; 78 9; 79 10; 80 1; 
89 3; 90 1; 91 27; 92 5; 93 1; 
102 1; 103 7; 104 7; 105 14; 106 3; 
107 1; 117 1; 118 1; 119 13; 120 8; 
121 107; 122 10; 123 1; 131 6; 132 3; 
133 1; 135 53; 136 6; 139 1; 146 1; 
147 3; 149 999; 150 91; 151 9; 152 1; 
160 1; 161 7; 162 215; 163 24; 164 2; 
176 1; 177 1; 178 1; 180 4; 191 2; 
192 1; 204 1; 206 191; 207 26; 208 2; 
341 7; 342 1; 
