Name: 4-Methyl-5-benzylpyrimidine
InChIKey: MHCDKYGCKNLARH-UHFFFAOYSA-N
Formula: C12H12N2
MW: 184
ExactMass: 184.100048
CASNO: 0
ID: 690
Comment: ENFSI / Leuckart impurity 1-M-3-PP synthese
Num Peaks: 69
38 10; 39 56; 40 22; 41 6; 43 4; 
44 7; 50 21; 51 67; 52 65; 53 70; 
54 9; 62 8; 63 49; 64 16; 65 133; 
66 23; 67 4; 69 3; 74 10; 75 12; 
76 10; 77 75; 78 43; 79 38; 80 81; 
81 39; 82 4; 83 6; 86 3; 89 29; 
90 16; 91 471; 92 48; 93 5; 101 3; 
102 19; 103 38; 104 12; 105 28; 106 24; 
107 396; 108 24; 115 22; 116 7; 117 5; 
118 7; 126 5; 127 19; 128 35; 129 23; 
130 18; 131 3; 140 4; 141 5; 142 9; 
149 6; 153 4; 154 15; 155 13; 156 45; 
157 20; 168 90; 169 109; 170 7; 181 29; 
182 24; 183 999; 184 723; 185 104; 
