Name: N-formyl-1-phenylethylamine
InChIKey: CDHCCWRMWKZBGE-UHFFFAOYSA-N
Formula: C9H11NO
MW: 149
ExactMass: 149.084064
CASNO: 0
ID: 697
Comment: ENFSI / Leuckart intermediate 1-PEA from acetophenone
Num Peaks: 73
37 6; 38 15; 39 65; 40 10; 41 22; 
42 212; 43 26; 44 97; 45 8; 46 9; 
50 100; 51 210; 52 60; 53 36; 54 8; 
59 5; 60 5; 61 9; 62 20; 63 56; 
64 14; 65 46; 66 9; 67 3; 68 2; 
70 3; 71 16; 72 55; 73 11; 74 39; 
75 36; 76 49; 77 557; 78 250; 79 689; 
80 50; 81 3; 86 5; 87 4; 88 3; 
89 23; 90 9; 91 77; 92 12; 93 10; 
94 5; 98 4; 99 3; 101 6; 102 35; 
103 213; 104 436; 105 273; 106 679; 107 172; 
108 14; 116 6; 117 8; 118 23; 119 12; 
120 122; 121 25; 130 43; 131 51; 132 40; 
134 679; 135 66; 136 5; 146 5; 148 702; 
149 999; 150 103; 151 8; 
