Name: N-formyl-4-methylthioamphetamine
InChIKey: PSGLTJGRSQLNST-UHFFFAOYSA-N
Formula: C11H15NOS
MW: 209
ExactMass: 209.087435
CASNO: 0
ID: 704
Comment: ENFSI / impurity found in illicit 4-MTA tablets (NFI)
Num Peaks: 121
37 1; 38 3; 39 42; 40 7; 41 15; 
42 63; 43 19; 44 578; 45 61; 46 8; 
47 10; 48 1; 50 14; 51 33; 52 12; 
53 8; 54 3; 55 7; 56 5; 57 8; 
58 8; 59 4; 60 2; 61 3; 62 12; 
63 44; 64 14; 65 41; 66 6; 67 5; 
68 1; 69 30; 70 9; 71 13; 72 494; 
73 22; 74 8; 75 6; 76 7; 77 56; 
78 93; 79 23; 80 4; 81 3; 82 9; 
83 13; 84 8; 85 5; 86 2; 87 3; 
88 1; 89 55; 90 18; 91 129; 92 15; 
93 8; 94 4; 95 7; 96 8; 97 6; 
98 1; 99 1; 101 1; 102 9; 103 12; 
104 10; 105 9; 106 4; 107 3; 108 9; 
109 12; 110 8; 111 2; 115 63; 116 33; 
117 135; 118 25; 119 10; 120 3; 121 137; 
122 197; 123 106; 124 42; 125 7; 126 1; 
127 1; 128 2; 129 2; 130 8; 131 4; 
132 3; 133 6; 134 15; 135 21; 136 7; 
137 643; 138 160; 139 37; 140 6; 141 1; 
145 1; 146 3; 147 8; 148 6; 149 24; 
150 13; 151 5; 152 1; 153 1; 161 2; 
162 3; 163 12; 164 999; 165 133; 166 56; 
167 7; 180 2; 207 1; 209 63; 210 9; 
211 4; 
