Name: 2-Oxo-MDMA
Synon: 2-(1,3-benzodioxol-5-yl)-N-[2-(1,3-benzodioxol-5-yl)-1-methylethyl]-N-methylacetamide
InChIKey: JUFHNHIUMKMPJZ-UHFFFAOYSA-N
Formula: C20H21NO5
MW: 355
ExactMass: 355.141973
CASNO: 0
ID: 708
Comment: ENFSI / theoretical possible impurity in MDMA
Num Peaks: 80
39 15; 40 2; 41 4; 42 28; 43 3; 
44 2; 50 16; 51 108; 52 14; 53 11; 
54 2; 55 7; 56 38; 58 999; 59 38; 
62 3; 63 12; 64 3; 65 21; 66 4; 
67 5; 73 3; 74 3; 75 6; 76 33; 
77 284; 78 53; 79 64; 80 5; 89 10; 
90 4; 91 11; 92 4; 93 3; 102 4; 
103 28; 104 27; 105 115; 106 21; 107 5; 
115 2; 117 2; 118 3; 119 3; 120 2; 
121 6; 122 4; 131 17; 132 8; 133 22; 
134 40; 135 831; 136 87; 137 8; 146 2; 
147 16; 148 10; 149 3; 160 3; 162 931; 
163 131; 164 13; 176 3; 178 9; 191 6; 
192 13; 193 10; 194 19; 195 2; 204 2; 
207 20; 208 4; 209 3; 220 168; 221 23; 
222 2; 281 8; 282 2; 355 26; 356 5; 
