Name: 4-tert-Butylmethamphetamine
Synon: 4-t-BMA
InChIKey: FJMRPGMPHQWPRI-UHFFFAOYSA-N
Formula: C14H23N
MW: 205
ExactMass: 205.18305
CASNO: 0
ID: 709
Comment: ENFSI
Num Peaks: 62
39 6; 40 1; 41 15; 42 15; 43 6; 
44 6; 51 4; 52 1; 53 3; 54 1; 
55 2; 56 40; 57 21; 58 999; 59 36; 
61 1; 63 3; 64 2; 65 6; 66 1; 
67 1; 70 1; 72 1; 74 12; 75 1; 
77 6; 78 2; 79 2; 81 2; 89 3; 
90 1; 91 21; 92 4; 95 4; 102 2; 
103 4; 104 4; 105 6; 115 19; 116 6; 
117 33; 118 3; 119 2; 127 2; 128 4; 
129 3; 130 1; 131 6; 132 12; 133 6; 
134 2; 141 1; 145 2; 147 7; 148 2; 
159 2; 174 2; 175 1; 188 2; 189 1; 
190 2; 204 1; 
