Name: N-acetyl-4-tert-butylmethamphetamine
Synon: N-acetyl-4-tBMA
InChIKey: HOHRREDKQLUDTC-UHFFFAOYSA-N
Formula: C16H25NO
MW: 247
ExactMass: 247.193614
CASNO: 0
ID: 710
Comment: ENFSI
Num Peaks: 85
39 9; 40 1; 41 25; 42 29; 43 79; 
44 29; 45 5; 50 1; 51 5; 52 1; 
53 5; 54 1; 55 8; 56 43; 57 38; 
58 999; 59 32; 60 4; 62 1; 63 3; 
64 2; 65 9; 66 1; 67 1; 69 1; 
70 1; 71 3; 74 8; 75 1; 76 1; 
77 11; 78 5; 79 4; 84 4; 86 12; 
87 2; 89 5; 90 2; 91 41; 92 5; 
93 1; 98 1; 99 3; 100 530; 101 33; 
102 4; 103 5; 104 7; 105 15; 106 1; 
107 1; 115 32; 116 13; 117 70; 118 8; 
119 4; 120 1; 127 3; 128 9; 129 7; 
130 3; 131 16; 132 28; 133 8; 134 1; 
141 1; 142 1; 143 2; 144 2; 145 4; 
146 1; 147 14; 148 4; 158 1; 159 86; 
160 11; 173 2; 174 116; 175 20; 176 2; 
188 2; 190 2; 204 2; 207 1; 247 1; 
