Name: N-[2-(4-tert-butylphenyl)-1-methylethyl]formamide
Synon: N-formyl-4-t-BA
InChIKey: KTCQFCWDIIZYNV-UHFFFAOYSA-N
Formula: C14H21NO
MW: 219
ExactMass: 219.162314
CASNO: 0
ID: 715
Comment: ENFSI / originating from P2P impurity
Num Peaks: 96
40 9; 41 83; 42 42; 43 18; 44 493; 
45 16; 46 3; 50 5; 51 22; 52 8; 
53 16; 54 4; 55 18; 56 12; 57 57; 
58 7; 59 2; 62 4; 63 22; 64 13; 
65 31; 67 39; 69 2; 70 4; 71 3; 
72 999; 73 35; 75 6; 76 7; 77 43; 
78 21; 79 20; 80 3; 81 6; 87 2; 
89 29; 90 10; 91 159; 92 18; 93 12; 
94 3; 95 3; 101 2; 102 18; 103 29; 
104 33; 105 85; 106 6; 107 8; 113 2; 
114 3; 115 129; 116 46; 117 269; 118 38; 
119 34; 120 7; 126 2; 127 10; 128 38; 
129 26; 130 13; 131 74; 132 120; 133 195; 
134 22; 135 1; 139 2; 140 1; 141 8; 
142 4; 143 11; 144 6; 145 13; 147 129; 
148 23; 149 3; 156 1; 157 4; 159 913; 
160 123; 161 12; 162 4; 172 1; 174 957; 
175 128; 176 10; 186 1; 188 2; 189 2; 
190 1; 202 7; 203 2; 204 4; 217 3; 
219 2; 
