Name: 1-(4-tert-Butylphenyl)-2-propanone
Synon: 4-t-B-P2P
InChIKey: HSNJERRVXUNQLS-UHFFFAOYSA-N
Formula: C13H18O
MW: 190
ExactMass: 190.135765
CASNO: 0
ID: 716
Comment: ENFSI / impurity in clandestine P2P
Num Peaks: 87
40 6; 41 65; 42 10; 43 454; 44 6; 
45 2; 50 12; 51 37; 52 11; 53 23; 
55 35; 56 1; 57 26; 58 3; 59 1; 
62 11; 63 33; 64 23; 65 65; 66 12; 
67 3; 69 3; 71 1; 74 4; 75 8; 
76 7; 77 61; 78 31; 79 23; 80 2; 
81 2; 86 1; 87 4; 88 3; 89 42; 
90 14; 91 201; 92 22; 93 25; 94 2; 
95 1; 101 3; 102 13; 103 35; 104 42; 
105 210; 106 20; 107 34; 108 3; 113 2; 
114 3; 115 181; 116 61; 117 330; 118 34; 
119 130; 120 12; 121 1; 126 2; 127 13; 
128 37; 129 25; 130 5; 131 76; 132 267; 
133 334; 134 42; 135 5; 141 3; 142 5; 
143 2; 144 1; 145 11; 146 3; 147 999; 
148 157; 149 11; 157 4; 158 1; 159 9; 
173 1; 175 449; 176 59; 177 5; 190 275; 
191 40; 192 2; 
