Name: 1-(3,4-methylenedioxyphenyl)-1,3-dimethoxypropane
InChIKey: VOZSCGCMLWLARD-UHFFFAOYSA-N
Formula: C12H16O4
MW: 224
ExactMass: 224.104859
CASNO: 0
ID: 717
Comment: ENFSI / PMK impurity (Wacker oxidation)
Num Peaks: 71
37 3; 38 4; 39 26; 41 6; 42 6; 
43 14; 45 185; 46 4; 50 13; 51 39; 
52 6; 53 19; 55 7; 59 34; 61 4; 
62 14; 63 40; 64 16; 65 33; 66 4; 
71 3; 73 4; 74 5; 75 5; 76 6; 
77 47; 78 10; 79 19; 81 6; 87 5; 
89 18; 90 7; 91 35; 92 9; 93 7; 
95 4; 102 4; 103 21; 104 5; 105 7; 
107 20; 108 3; 119 38; 120 6; 121 36; 
122 6; 131 24; 132 6; 135 50; 136 11; 
147 45; 148 31; 149 184; 150 172; 151 21; 
159 3; 160 3; 161 17; 162 13; 163 6; 
165 999; 166 107; 167 11; 177 4; 178 5; 
191 10; 192 18; 193 7; 209 6; 224 66; 
225 4; 
