Name: 1-(3,4-methylenedioxyphenyl)-1-methoxypropane
InChIKey: PBFANQACQQLPPK-UHFFFAOYSA-N
Formula: C11H14O3
MW: 194
ExactMass: 194.094295
CASNO: 0
ID: 719
Comment: ENFSI / PMK impurity
Num Peaks: 78
37 1; 38 6; 39 28; 40 2; 41 12; 
42 1; 43 5; 45 9; 50 14; 51 35; 
52 9; 53 17; 54 1; 55 5; 57 7; 
61 2; 62 11; 63 40; 64 15; 65 26; 
66 4; 67 2; 69 1; 73 3; 74 5; 
75 4; 76 7; 77 51; 78 12; 79 29; 
80 3; 81 1; 83 9; 87 1; 89 14; 
90 3; 91 18; 92 10; 93 3; 94 1; 
102 4; 103 18; 104 7; 105 26; 106 3; 
107 20; 108 2; 109 1; 115 1; 118 1; 
119 29; 120 6; 121 25; 122 6; 123 1; 
131 8; 132 2; 133 14; 134 2; 135 41; 
136 6; 137 1; 147 18; 148 20; 149 150; 
150 206; 151 18; 152 2; 161 3; 162 6; 
163 22; 165 999; 166 102; 167 11; 193 1; 
194 74; 195 8; 196 1; 
