Name: 3,4-Methylenedioxyphenylacetic acid, methyl ester
InChIKey: HEMYXNDMAAOTCK-UHFFFAOYSA-N
Formula: C10H10O4
MW: 194
ExactMass: 194.057909
CASNO: 0
ID: 723
Comment: ENFSI
Num Peaks: 57
37 2; 38 10; 39 21; 40 1; 42 2; 
43 1; 44 1; 45 1; 49 2; 50 44; 
51 136; 52 13; 53 17; 54 2; 55 2; 
59 13; 61 2; 62 8; 63 13; 64 4; 
65 11; 66 3; 67 33; 73 1; 74 12; 
75 10; 76 26; 77 175; 78 25; 79 36; 
80 3; 89 1; 91 2; 92 2; 93 2; 
94 1; 104 5; 105 60; 106 10; 107 2; 
119 1; 120 1; 121 2; 122 1; 133 2; 
135 999; 136 91; 137 8; 149 3; 150 3; 
162 4; 163 1; 165 1; 179 1; 194 241; 
195 27; 196 3; 
