Name: 3,4-Methylenedioxyphenylacetic acid, isopropyl ester
InChIKey: PNGCJNRFEJPSJH-UHFFFAOYSA-N
Formula: C12H14O4
MW: 222
ExactMass: 222.089209
CASNO: 0
ID: 725
Comment: ENFSI
Num Peaks: 57
37 1; 38 5; 39 23; 40 3; 41 43; 
42 6; 43 168; 44 8; 45 4; 49 1; 
50 26; 51 98; 52 10; 53 9; 54 1; 
55 2; 59 1; 62 4; 63 6; 64 2; 
65 7; 66 2; 67 18; 74 5; 75 5; 
76 21; 77 124; 78 20; 79 21; 80 1; 
89 1; 92 1; 93 2; 104 4; 105 37; 
106 8; 107 2; 108 1; 121 1; 122 1; 
133 1; 134 19; 135 999; 136 96; 137 8; 
138 1; 149 1; 151 1; 162 7; 163 6; 
179 3; 180 13; 181 1; 207 1; 222 159; 
223 21; 224 2; 
