Name: Piperonyl ethyl ether
InChIKey: INKUOAYIYPIBQI-UHFFFAOYSA-N
Formula: C10H12O3
MW: 180
ExactMass: 180.078644
CASNO: 0
ID: 726
Comment: ENFSI / prepared from piperonyl alcohol and ethanol (+conc. H2SO4)
Num Peaks: 68
37 4; 38 15; 39 67; 40 6; 41 5; 
42 4; 43 10; 44 2; 45 1; 49 2; 
50 47; 51 185; 52 22; 53 30; 54 2; 
55 8; 58 4; 59 2; 61 6; 62 25; 
63 57; 64 16; 65 157; 66 21; 67 19; 
69 2; 73 1; 74 10; 75 10; 76 22; 
77 236; 78 76; 79 51; 80 5; 81 2; 
83 4; 89 1; 90 1; 91 14; 92 5; 
93 216; 94 26; 95 8; 103 1; 104 4; 
105 66; 106 83; 107 11; 108 1; 119 4; 
120 2; 121 45; 122 36; 123 66; 124 4; 
133 3; 135 999; 136 300; 137 26; 138 1; 
149 27; 150 14; 151 60; 152 5; 179 32; 
180 274; 181 31; 182 3; 
