Name: N-Isopropyl-3,4-methylenedioxyamphetamine
Synon: N-Isopropyl-MDA
InChIKey: XKEVWMVUIDDRMC-UHFFFAOYSA-N
Formula: C13H19NO2
MW: 221
ExactMass: 221.141579
CASNO: 0
ID: 728
Comment: ENFSI / formed from MDA and acetone, reduced with NaBH4
Num Peaks: 83
38 2; 39 18; 40 2; 41 36; 42 43; 
43 42; 44 466; 45 12; 50 10; 51 53; 
52 9; 53 9; 54 2; 55 4; 56 14; 
57 3; 58 5; 62 4; 63 13; 64 4; 
65 13; 66 3; 67 3; 68 3; 69 1; 
70 33; 71 7; 74 2; 75 3; 76 8; 
77 101; 78 27; 79 26; 80 3; 81 1; 
82 1; 84 12; 86 999; 87 64; 88 2; 
89 10; 90 3; 91 10; 92 2; 93 2; 
94 1; 102 4; 103 28; 104 12; 105 44; 
106 14; 107 5; 115 2; 116 1; 117 2; 
118 3; 119 2; 120 3; 121 6; 122 3; 
130 1; 131 10; 132 4; 133 15; 134 7; 
135 142; 136 23; 137 2; 146 1; 147 9; 
148 7; 149 1; 160 1; 161 6; 162 7; 
163 38; 164 9; 165 1; 178 3; 190 1; 
204 1; 206 6; 220 2; 
