Name: 1-(3,4-methylenedioxyphenyl)ethane-1-ol
InChIKey: ZHKALZZEGVFZQA-UHFFFAOYSA-N
Formula: C9H10O3
MW: 166
ExactMass: 166.062994
CASNO: 0
ID: 730
Comment: ENFSI / byproduct reduction of 3,4-MDacetofenon
Num Peaks: 80
37 11; 38 32; 39 161; 40 14; 41 16; 
42 9; 43 262; 44 8; 45 32; 46 3; 
47 2; 49 4; 50 41; 51 67; 52 22; 
53 62; 54 6; 55 17; 60 3; 61 17; 
62 60; 63 138; 64 40; 65 431; 66 38; 
67 10; 68 2; 69 6; 73 4; 74 24; 
75 110; 77 65; 78 13; 79 25; 80 2; 
81 4; 82 12; 85 1; 86 2; 87 3; 
88 2; 89 43; 90 10; 91 93; 93 999; 
94 79; 95 25; 96 2; 103 1; 105 4; 
106 1; 107 20; 108 11; 109 3; 117 1; 
118 1; 119 43; 120 8; 121 109; 122 39; 
123 313; 124 25; 125 2; 135 20; 136 15; 
137 2; 145 1; 147 56; 148 52; 149 126; 
150 32; 151 849; 152 76; 153 7; 163 1; 
164 3; 165 17; 166 655; 167 68; 168 7; 
