Name: 1-(3,4-methylenedioxyphenyl)ethane-1-ol, acetyl
InChIKey: VGXGLMJZXIJPIV-UHFFFAOYSA-N
Formula: C11H12O4
MW: 208
ExactMass: 208.073559
CASNO: 0
ID: 733
Comment: ENFSI
Num Peaks: 88
37 6; 38 21; 39 105; 40 12; 41 24; 
42 17; 43 570; 44 17; 45 17; 49 2; 
50 33; 51 64; 52 21; 53 40; 54 2; 
55 10; 59 1; 60 9; 61 11; 62 48; 
63 135; 64 37; 65 227; 66 20; 67 5; 
68 1; 69 4; 73 6; 74 28; 75 9; 
76 8; 77 46; 78 17; 79 19; 80 2; 
81 2; 85 1; 86 3; 87 4; 88 3; 
89 116; 90 35; 91 388; 92 45; 93 145; 
94 11; 95 5; 101 1; 102 2; 103 4; 
104 1; 105 4; 106 3; 107 15; 108 6; 
109 1; 117 4; 118 6; 119 309; 120 36; 
121 74; 122 18; 123 72; 124 5; 131 4; 
133 1; 134 1; 135 25; 136 50; 137 7; 
145 3; 147 641; 148 772; 149 999; 150 121; 
151 408; 152 37; 153 4; 163 1; 164 9; 
165 52; 166 434; 167 44; 168 4; 193 5; 
208 499; 209 62; 210 7; 
