Name: N-formyl-3,4,5-trimethoxymethamphetamine
InChIKey: UIEMYGGRILYTOS-UHFFFAOYSA-N
Formula: C14H21NO4
MW: 267
ExactMass: 267.147058
CASNO: 0
ID: 734
Comment: ENFSI
Num Peaks: 168
36 3; 37 2; 38 8; 39 47; 40 19; 
41 32; 42 85; 43 94; 44 62; 45 20; 
47 2; 50 16; 51 53; 52 35; 53 32; 
54 15; 55 24; 56 127; 57 42; 58 847; 
59 36; 60 20; 61 2; 62 8; 63 31; 
64 20; 65 72; 66 19; 67 16; 68 8; 
69 13; 70 22; 71 14; 72 99; 73 10; 
74 8; 75 8; 76 14; 77 93; 78 42; 
79 50; 80 26; 81 13; 82 24; 83 11; 
84 6; 85 15; 86 999; 87 206; 88 13; 
89 25; 90 18; 91 51; 92 18; 93 56; 
94 18; 95 26; 96 10; 97 12; 98 5; 
99 6; 100 17; 101 6; 102 4; 103 24; 
104 16; 105 43; 106 28; 107 39; 108 16; 
109 15; 110 9; 111 4; 112 6; 113 5; 
114 5; 115 75; 116 9; 117 9; 118 14; 
119 15; 120 26; 121 39; 122 25; 123 30; 
124 12; 125 5; 126 5; 127 4; 128 5; 
129 3; 130 11; 131 16; 132 10; 133 20; 
134 14; 135 133; 136 67; 137 37; 138 24; 
139 7; 140 3; 141 3; 142 4; 145 3; 
146 7; 147 21; 148 77; 149 53; 150 42; 
151 66; 152 14; 153 5; 154 2; 159 3; 
160 5; 161 11; 162 77; 163 21; 164 16; 
165 44; 166 21; 167 44; 168 6; 169 2; 
173 2; 174 4; 175 5; 176 9; 177 15; 
178 33; 179 10; 180 4; 181 347; 182 52; 
183 7; 188 3; 189 2; 190 6; 191 5; 
192 19; 193 133; 194 24; 195 4; 202 2; 
204 2; 205 6; 206 4; 207 12; 208 623; 
209 86; 210 12; 215 2; 216 2; 218 2; 
219 2; 221 2; 230 4; 233 2; 235 6; 
236 4; 237 4; 238 2; 248 7; 249 2; 
250 2; 267 48; 268 8; 
