Name: 2,2,3,4-tetramethyl-5-(3,4-methylenedioxy)phenyloxazolidine
InChIKey: ZMXYMFRARSGSQF-UHFFFAOYSA-N
Formula: C14H19NO3
MW: 249
ExactMass: 249.136494
CASNO: 0
ID: 736
Comment: ENFSI / oxazolidine from alpha.hydroxy-MDMA and acetone found as impurity in MDMA sample
Num Peaks: 109
38 6; 39 39; 40 14; 41 47; 42 112; 
43 110; 44 30; 47 4; 50 34; 51 39; 
52 10; 53 18; 54 11; 55 20; 56 326; 
57 39; 58 118; 59 6; 61 4; 62 12; 
63 47; 64 13; 65 59; 66 11; 67 5; 
68 16; 69 12; 70 35; 71 331; 72 23; 
74 9; 75 13; 76 84; 77 84; 78 30; 
79 13; 80 4; 81 4; 82 6; 83 17; 
84 288; 85 23; 87 4; 88 8; 89 21; 
90 7; 91 59; 92 9; 93 16; 94 7; 
96 5; 98 14; 99 999; 100 76; 101 6; 
102 14; 103 55; 104 60; 105 21; 106 5; 
107 4; 108 4; 109 4; 115 5; 117 109; 
118 34; 119 24; 120 4; 121 26; 122 7; 
123 3; 128 4; 130 7; 131 36; 132 30; 
133 10; 134 322; 135 90; 136 16; 144 4; 
145 5; 146 63; 147 42; 148 22; 149 69; 
150 29; 151 15; 159 4; 160 37; 161 19; 
162 36; 163 104; 164 18; 165 5; 174 7; 
175 11; 176 23; 177 101; 178 12; 188 5; 
190 34; 191 45; 192 532; 193 70; 194 7; 
228 4; 229 6; 234 31; 235 5; 
