Name: 3,4-Methylenedioxyphenylpropan-2-ol, formyl
InChIKey: RVNUCUMDGDAUEI-UHFFFAOYSA-N
Formula: C11H12O4
MW: 208
ExactMass: 208.073559
CASNO: 0
ID: 738
Comment: ENFSI / found as impurity in MDP-2-P
Num Peaks: 66
38 10; 39 45; 40 4; 41 12; 42 4; 
43 19; 44 5; 45 82; 46 2; 50 34; 
51 146; 52 29; 53 24; 55 13; 61 2; 
62 19; 63 36; 64 14; 65 23; 66 8; 
67 11; 74 12; 75 14; 76 18; 77 249; 
78 76; 79 63; 80 6; 81 1; 82 1; 
83 2; 89 22; 90 5; 91 19; 92 7; 
93 7; 102 11; 103 50; 104 80; 105 117; 
106 39; 107 30; 108 1; 119 9; 121 15; 
122 21; 131 75; 132 39; 133 33; 134 11; 
135 999; 136 95; 137 3; 147 22; 148 13; 
151 2; 161 77; 162 824; 163 138; 164 14; 
165 3; 166 3; 179 2; 194 2; 208 112; 
209 14; 
