Name: N-methyl,N-acetyl-3,4-methylenedioxyphenylalanine
InChIKey: PYQUQXPNAIIXPV-JTQLQIEISA-N
Formula: C13H15NO5
MW: 265
ExactMass: 265.095022
CASNO: 0
ID: 740
Comment: ENFSI / acetylated byproduct in MDMA synthesis from PMK impurity 3,4-(methylenedioxy)-phenylpropionicacid-2-one
Num Peaks: 117
38 2; 39 19; 40 6; 41 11; 42 124; 
43 203; 44 29; 45 84; 46 2; 50 12; 
51 74; 52 12; 53 9; 54 9; 55 15; 
56 124; 57 31; 58 155; 59 18; 60 4; 
62 6; 63 18; 64 5; 65 19; 66 3; 
67 3; 68 2; 69 1; 70 7; 71 5; 
72 10; 73 10; 74 11; 75 5; 76 11; 
77 129; 78 35; 79 24; 80 4; 81 3; 
82 7; 83 3; 85 3; 86 5; 87 7; 
88 999; 89 66; 90 9; 91 27; 92 5; 
93 3; 94 2; 95 1; 96 1; 98 3; 
99 2; 100 28; 101 2; 102 11; 103 27; 
104 14; 105 36; 106 13; 107 11; 108 2; 
114 1; 115 3; 116 2; 117 6; 118 11; 
119 18; 120 25; 121 9; 122 4; 128 6; 
129 2; 130 205; 131 78; 132 18; 133 8; 
134 8; 135 188; 136 58; 137 9; 145 3; 
146 6; 147 33; 148 32; 149 17; 150 3; 
151 2; 159 5; 160 41; 161 73; 162 64; 
163 18; 164 3; 165 12; 166 1; 174 2; 
175 3; 176 17; 177 21; 178 167; 179 19; 
180 2; 189 1; 190 4; 191 29; 192 638; 
193 75; 194 8; 207 3; 220 7; 221 1; 
265 6; 266 1; 
