Name: N-methyl-3,4-methylenedioxyphenylalanine
InChIKey: ISDRODXSCQLUGO-QMMMGPOBSA-N
Formula: C11H13NO4
MW: 223
ExactMass: 223.084458
CASNO: 0
ID: 741
Comment: ENFSI / byproduct in MDMA synthesis from PMK impurity 3,4-(methylenedioxy)-phenylpropionicacid-2-one
Num Peaks: 93
38 2; 39 12; 40 3; 41 9; 42 67; 
43 7; 44 24; 45 51; 46 1; 50 9; 
51 48; 52 9; 53 8; 54 4; 55 9; 
56 125; 57 29; 58 102; 59 22; 60 2; 
62 4; 63 13; 64 4; 65 14; 66 3; 
67 3; 68 1; 70 1; 71 1; 72 7; 
73 9; 74 4; 75 3; 76 7; 77 72; 
78 19; 79 17; 80 3; 81 1; 83 2; 
85 2; 86 7; 88 999; 89 93; 90 6; 
91 15; 92 3; 93 3; 94 2; 95 1; 
96 1; 102 3; 103 7; 104 7; 105 17; 
106 7; 107 13; 108 1; 117 3; 118 7; 
119 7; 120 31; 121 9; 122 3; 130 1; 
131 5; 132 4; 133 4; 134 3; 135 98; 
136 27; 137 5; 145 1; 146 3; 147 7; 
148 18; 149 6; 150 2; 159 1; 160 3; 
161 3; 162 4; 163 12; 164 38; 165 5; 
176 3; 177 8; 178 105; 179 13; 180 1; 
190 1; 191 1; 221 1; 
