Name: N-cyclohexyl-piperonylamine
InChIKey: FBAHREKIQKXPBS-UHFFFAOYSA-N
Formula: C14H19NO2
MW: 233
ExactMass: 233.141579
CASNO: 0
ID: 744
Comment: ENFSI / byproduct found in MDA tablets originating from Colombia; PMK from piperonal nitropropene route with cyclohexylamine as catalyst
Num Peaks: 90
38 2; 39 24; 40 3; 41 39; 42 6; 
43 9; 44 2; 50 8; 51 60; 52 9; 
53 12; 54 9; 55 32; 56 11; 57 1; 
59 5; 62 3; 63 11; 64 4; 65 23; 
66 5; 67 8; 68 4; 69 1; 70 1; 
74 2; 75 2; 76 7; 77 131; 78 20; 
79 26; 80 4; 81 5; 82 3; 83 4; 
88 3; 89 2; 90 3; 91 5; 92 3; 
93 8; 95 34; 98 138; 99 10; 102 1; 
103 1; 104 3; 105 42; 106 10; 107 2; 
111 1; 112 2; 117 1; 118 3; 119 2; 
120 2; 121 8; 122 3; 123 2; 130 1; 
131 1; 132 1; 133 1; 135 999; 136 120; 
137 10; 146 2; 147 2; 148 14; 149 6; 
150 25; 151 3; 160 9; 161 2; 162 3; 
163 1; 174 2; 176 12; 177 3; 188 1; 
190 101; 191 14; 192 1; 202 1; 203 2; 
204 7; 205 1; 232 8; 233 23; 234 4; 
