Name: N-acetyl-N-cyclohexyl-piperonylamine
InChIKey: BVZRZOIVKHVRJN-UHFFFAOYSA-N
Formula: C16H21NO3
MW: 275
ExactMass: 275.152143
CASNO: 0
ID: 745
Comment: ENFSI
Num Peaks: 109
38 2; 39 32; 40 5; 41 64; 42 15; 
43 175; 44 8; 50 12; 51 89; 52 11; 
53 20; 54 13; 55 62; 56 15; 57 1; 
60 2; 62 4; 63 14; 64 7; 65 37; 
66 7; 67 15; 68 4; 69 3; 70 2; 
71 3; 72 2; 74 2; 75 4; 76 15; 
77 240; 78 33; 79 51; 80 6; 81 14; 
82 5; 83 10; 84 1; 89 4; 90 6; 
91 8; 92 5; 93 38; 94 5; 95 16; 
96 3; 97 1; 98 63; 99 4; 102 1; 
103 4; 104 6; 105 72; 106 14; 107 4; 
108 1; 109 1; 110 1; 112 2; 115 1; 
116 1; 117 3; 118 4; 119 4; 120 8; 
121 21; 122 8; 123 20; 124 2; 130 1; 
131 2; 132 1; 133 2; 135 878; 136 98; 
137 9; 138 1; 140 49; 141 4; 144 1; 
146 2; 147 4; 148 20; 150 999; 151 124; 
152 12; 159 1; 160 3; 161 1; 162 2; 
163 1; 173 1; 174 2; 175 1; 176 4; 
177 1; 188 2; 190 2; 192 259; 193 132; 
194 14; 195 1; 202 2; 216 2; 232 3; 
274 2; 275 174; 276 32; 277 4; 
