Name: 3,4-Dimethyl-5-phenyloxazolidine
InChIKey: POZQVPIDBKNJTK-UHFFFAOYSA-N
Formula: C11H15NO
MW: 177
ExactMass: 177.115364
CASNO: 0
ID: 747
Comment: ENFSI / oxazolidine from pseudoephedrine and formaldehyde; J.For.Sci.2000;45(4):898-901
Num Peaks: 74
38 3; 39 25; 40 4; 41 17; 42 77; 
43 68; 44 12; 50 19; 51 49; 52 13; 
53 4; 54 11; 55 12; 56 371; 57 17; 
58 5; 61 1; 62 7; 63 26; 64 8; 
65 26; 66 3; 68 2; 70 70; 71 999; 
72 62; 73 2; 74 6; 75 6; 76 7; 
77 90; 78 25; 79 14; 81 5; 84 2; 
86 2; 87 2; 89 49; 90 31; 91 124; 
92 13; 93 1; 94 1; 98 2; 102 6; 
103 16; 104 6; 105 69; 106 12; 107 1; 
114 1; 115 42; 116 18; 117 81; 118 18; 
119 13; 120 1; 128 1; 129 1; 130 17; 
131 21; 132 30; 133 18; 134 7; 135 1; 
144 4; 145 1; 146 9; 147 1; 148 24; 
149 3; 160 1; 162 2; 176 1; 
