Name: N,N-diethyl-3,4-methylenedioxyamphetamine
Synon: N,N-diethyl-MDA
InChIKey: GZLCKGPJQIRGOI-UHFFFAOYSA-N
Formula: C14H21NO2
MW: 235
ExactMass: 235.157228
CASNO: 0
ID: 756
Comment: ENFSI / synthesised from N-ethyl-MDA and acetaldehyde; NaBH4 reduction in methanol
Num Peaks: 76
40 1; 41 6; 42 27; 43 2; 44 79; 
45 2; 50 4; 51 25; 52 4; 53 4; 
54 3; 55 4; 56 29; 57 5; 58 2; 
62 1; 63 6; 64 2; 65 6; 66 1; 
67 1; 68 2; 70 19; 71 4; 72 56; 
73 3; 74 1; 75 1; 76 3; 77 43; 
78 10; 79 10; 80 1; 84 4; 85 1; 
86 1; 89 5; 90 1; 91 6; 92 1; 
98 4; 100 999; 101 75; 102 4; 103 11; 
104 5; 105 20; 106 3; 107 1; 110 1; 
115 1; 117 1; 118 1; 119 1; 121 2; 
122 1; 131 4; 132 2; 133 5; 134 2; 
135 43; 136 6; 146 1; 147 4; 148 3; 
149 2; 160 1; 161 2; 162 4; 163 9; 
164 1; 174 1; 190 1; 218 1; 220 2; 
234 1; 
