Name: N-methyl-N-isopropyl-3,4-methylenedioxyamphetamine
Synon: N-methyl,N-isopropyl-MDA
InChIKey: BKAJYEXZTWRPRC-UHFFFAOYSA-N
Formula: C14H21NO2
MW: 235
ExactMass: 235.157228
CASNO: 0
ID: 757
Comment: ENFSI / impurity found in clandestine MDMA samples. Synthesised from MDMA and acetone; NaBH4 reduction in methanol. Rt 12.53
Num Peaks: 82
41 29; 42 47; 43 38; 44 7; 50 5; 
51 36; 52 5; 53 5; 54 4; 55 5; 
56 61; 57 15; 58 624; 59 24; 62 2; 
63 8; 64 3; 65 9; 66 1; 67 1; 
68 2; 70 10; 71 2; 72 2; 74 1; 
75 2; 76 4; 77 59; 78 15; 79 14; 
80 1; 82 1; 84 10; 85 2; 89 8; 
90 3; 91 7; 92 1; 93 1; 98 3; 
100 999; 101 71; 102 6; 103 16; 104 8; 
105 29; 106 4; 107 1; 110 4; 115 1; 
116 1; 117 1; 118 2; 119 1; 120 3; 
121 4; 122 2; 131 7; 132 2; 133 10; 
134 3; 135 68; 136 11; 137 1; 146 1; 
147 7; 148 5; 149 1; 159 1; 160 1; 
161 3; 162 7; 163 25; 164 2; 176 2; 
177 2; 178 4; 192 3; 204 2; 207 1; 
218 3; 220 3; 
