Name: Diacetyl-Hydroxyethyl-3,4-methylenedioxyamphetamine
Synon: Diacetyl-MDHOET
InChIKey: AMQJZCMVDJIAPJ-UHFFFAOYSA-N
Formula: C16H21NO5
MW: 307
ExactMass: 307.141973
CASNO: 0
ID: 759
Comment: ENFSI
Num Peaks: 108
38 1; 39 10; 40 2; 41 16; 42 42; 
43 327; 44 38; 45 24; 50 7; 51 44; 
52 6; 53 8; 54 7; 55 10; 56 91; 
57 30; 58 13; 60 14; 61 2; 62 2; 
63 9; 64 3; 65 12; 66 2; 67 1; 
68 5; 69 9; 70 87; 71 7; 72 3; 
73 1; 74 2; 75 2; 76 5; 77 83; 
78 22; 79 23; 80 1; 84 1; 85 2; 
86 54; 87 332; 88 175; 89 17; 90 4; 
91 11; 92 2; 93 1; 99 1; 100 2; 
102 5; 103 27; 104 23; 105 49; 106 8; 
107 3; 112 34; 113 3; 114 1; 115 3; 
116 1; 117 2; 118 3; 119 3; 120 1; 
121 5; 122 3; 128 13; 129 4; 130 999; 
131 93; 132 18; 133 19; 134 6; 135 160; 
136 22; 137 2; 145 2; 146 3; 147 12; 
148 8; 149 4; 159 1; 160 2; 161 23; 
162 781; 163 121; 164 10; 165 1; 172 121; 
173 10; 174 3; 175 1; 176 1; 177 1; 
178 3; 179 1; 190 2; 191 1; 192 3; 
204 1; 206 1; 207 1; 234 5; 248 1; 
263 1; 264 1; 307 1; 
