Name: N-acetyl-4-methoxymethamphetamine
InChIKey: BYTCUSAPEDXPGB-UHFFFAOYSA-N
Formula: C13H19NO2
MW: 221
ExactMass: 221.141579
CASNO: 0
ID: 769
Comment: ENFSI
Num Peaks: 77
38 1; 39 11; 40 2; 41 11; 42 43; 
43 92; 44 4; 50 5; 51 16; 52 13; 
53 6; 54 3; 55 6; 56 47; 57 19; 
58 999; 59 39; 62 2; 63 9; 64 4; 
65 15; 66 1; 67 1; 70 1; 71 4; 
72 1; 74 2; 75 1; 76 2; 77 46; 
78 52; 79 11; 80 1; 89 13; 90 6; 
91 36; 92 5; 93 2; 94 2; 100 310; 
101 19; 102 3; 103 8; 104 3; 105 8; 
106 7; 107 6; 108 3; 109 1; 111 1; 
115 10; 116 5; 117 15; 118 3; 119 4; 
120 2; 121 121; 122 17; 123 1; 130 1; 
131 4; 132 3; 133 12; 134 4; 135 1; 
146 2; 147 35; 148 434; 149 55; 150 4; 
151 1; 162 4; 163 2; 164 3; 177 2; 
178 4; 221 1; 
