Name: N-acetyl-MMDMA
InChIKey: LCCFDCOFWNMPJE-UHFFFAOYSA-N
Formula: C14H19NO4
MW: 265
ExactMass: 265.131409
CASNO: 0
ID: 770
Comment: ENFSI
Num Peaks: 117
38 3; 39 14; 40 3; 41 11; 42 33; 
43 102; 44 8; 45 3; 50 7; 51 18; 
52 7; 53 16; 54 4; 55 9; 56 55; 
57 16; 58 999; 59 39; 60 1; 62 2; 
63 15; 64 22; 65 17; 66 7; 67 5; 
68 1; 69 3; 70 4; 71 6; 72 1; 
73 1; 74 3; 75 3; 76 6; 77 44; 
78 10; 79 15; 80 3; 81 2; 82 2; 
83 1; 84 1; 85 2; 86 1; 87 1; 
89 5; 90 3; 91 19; 92 25; 93 5; 
94 6; 95 4; 97 1; 98 1; 100 253; 
101 16; 102 3; 103 8; 104 4; 105 9; 
106 4; 107 6; 108 2; 109 2; 110 1; 
111 1; 115 1; 116 1; 117 1; 118 3; 
119 10; 120 23; 121 7; 122 10; 123 2; 
125 1; 131 7; 132 3; 133 9; 134 5; 
135 8; 136 3; 137 1; 145 1; 146 1; 
147 5; 148 3; 149 3; 150 4; 151 5; 
152 2; 161 7; 162 4; 163 3; 164 3; 
165 83; 166 15; 167 2; 176 2; 177 4; 
178 3; 179 1; 181 1; 190 1; 191 8; 
192 397; 193 54; 194 6; 204 1; 206 1; 
207 2; 208 7; 209 1; 221 1; 222 3; 
265 5; 266 1; 
