Name: N-formyl-MMDMA
Synon: N-formyl-N-methyl-1-(3-methoxy-4,5-methylenedioxyphenyl)-2-propanamine
InChIKey: JWIRUTLTOMQGAV-UHFFFAOYSA-N
Formula: C13H17NO4
MW: 251
ExactMass: 251.115758
CASNO: 0
ID: 776
Comment: ENFSI / from PMK impurity originating from sassefras oil
Num Peaks: 88
36 12; 38 15; 39 46; 40 46; 41 28; 
42 85; 43 46; 44 54; 47 6; 50 21; 
51 47; 52 17; 53 42; 54 16; 55 18; 
56 146; 57 25; 58 762; 59 26; 62 10; 
63 32; 64 46; 65 31; 66 14; 67 10; 
70 6; 71 8; 72 10; 75 9; 76 16; 
77 78; 78 19; 79 29; 81 7; 83 20; 
85 15; 86 999; 87 65; 88 7; 89 18; 
91 30; 92 25; 93 10; 94 9; 101 6; 
103 22; 104 15; 105 16; 106 6; 107 9; 
108 6; 115 8; 117 6; 118 8; 119 13; 
120 35; 121 15; 122 17; 131 13; 132 9; 
133 18; 134 9; 135 61; 136 11; 137 6; 
147 36; 148 7; 149 15; 151 15; 152 8; 
161 9; 162 22; 163 17; 164 17; 165 189; 
166 38; 167 8; 177 9; 178 11; 181 9; 
188 25; 190 33; 191 11; 192 576; 193 75; 
194 13; 208 18; 251 23; 
