Name: N-formyl-4-methoxymethamphetamine
InChIKey: OTNWJGCKMWSEST-UHFFFAOYSA-N
Formula: C12H17NO2
MW: 207
ExactMass: 207.125929
CASNO: 0
ID: 779
Comment: ENFSI
Num Peaks: 50
36 20; 39 42; 40 111; 41 40; 42 101; 
43 52; 44 109; 47 17; 50 31; 51 49; 
52 29; 53 29; 55 14; 56 96; 57 23; 
58 794; 59 42; 62 15; 63 56; 64 17; 
65 43; 76 13; 77 109; 78 91; 79 28; 
83 52; 85 39; 86 999; 87 56; 89 28; 
90 18; 91 65; 103 15; 105 37; 106 14; 
107 14; 115 18; 117 36; 118 18; 121 313; 
122 45; 134 21; 135 60; 136 22; 147 58; 
148 754; 149 123; 150 20; 162 16; 207 18; 
