Name: 2-Chloro-4,5-methylenedioxyphenylpropan-2-one
InChIKey: ZELNDXTZPZLUJM-UHFFFAOYSA-N
Formula: C10H9ClO3
MW: 212
ExactMass: 212.024022
CASNO: 0
ID: 780
Comment: ENFSI
Num Peaks: 100
36 1; 37 5; 38 10; 39 16; 40 2; 
41 2; 43 291; 44 9; 45 1; 47 1; 
50 71; 51 57; 52 5; 53 28; 54 1; 
55 3; 56 1; 60 3; 61 15; 62 18; 
63 26; 64 6; 65 8; 66 2; 67 1; 
69 2; 71 1; 72 2; 73 12; 74 40; 
75 187; 76 43; 77 140; 78 19; 79 5; 
84 26; 85 24; 86 6; 87 13; 88 2; 
89 12; 90 4; 91 9; 92 2; 93 1; 
96 1; 97 3; 98 2; 99 10; 100 1; 
101 4; 102 3; 103 5; 104 4; 105 9; 
106 1; 108 1; 109 1; 111 100; 112 17; 
113 61; 114 6; 115 11; 118 1; 119 5; 
123 1; 125 3; 126 1; 133 19; 134 6; 
135 20; 136 3; 137 1; 139 29; 140 6; 
141 12; 142 2; 147 10; 148 2; 149 2; 
155 1; 161 1; 167 2; 169 999; 170 143; 
171 331; 172 44; 173 4; 175 5; 176 10; 
177 16; 178 1; 181 1; 183 1; 196 1; 
212 189; 213 21; 214 62; 215 6; 216 1; 
