Name: N-(-3,4-Methylenedioxyphenylisopropyl)benzaldimine
InChIKey: BIGIWWQLVZORFF-WOJGMQOQSA-N
Formula: C17H17NO2
MW: 267
ExactMass: 267.125929
CASNO: 0
ID: 783
Comment: ENFSI / intermediate in the synthesis of MDMA from MDA and benzaldehyde; Journal of the CLIC  Vol. 8 (1) 1998, pp 25-26
Num Peaks: 72
37 1; 38 5; 39 28; 40 3; 41 6; 
42 2; 44 1; 50 20; 51 82; 52 14; 
53 9; 54 17; 55 3; 61 1; 62 8; 
63 27; 64 10; 65 33; 66 4; 67 1; 
74 4; 75 6; 76 14; 77 138; 78 28; 
79 52; 80 4; 87 1; 89 53; 90 43; 
91 35; 92 3; 93 1; 101 1; 102 5; 
103 43; 104 31; 105 298; 106 29; 107 2; 
115 6; 116 4; 117 26; 118 3; 119 1; 
121 5; 122 2; 126 1; 128 1; 130 20; 
132 999; 133 106; 134 8; 135 84; 136 8; 
139 1; 147 7; 148 4; 149 1; 152 2; 
161 3; 162 4; 163 2; 164 1; 165 4; 
166 1; 167 1; 190 1; 194 1; 224 1; 
267 29; 268 6; 
