Name: N-acetyl-.alpha.-methoxy-3,4-methylenedioxymethamphetamine
Synon: N-acetyl-.alpha.-methoxy-MDMA
InChIKey: JGTPTMRACUVVFT-UHFFFAOYSA-N
Formula: C14H19NO4
MW: 265
ExactMass: 265.131409
CASNO: 0
ID: 785
Comment: ENFSI
Num Peaks: 104
38 3; 39 13; 40 2; 41 7; 42 32; 
43 99; 44 7; 45 3; 50 8; 51 20; 
52 6; 53 9; 54 4; 55 6; 56 57; 
57 13; 58 999; 59 38; 60 1; 61 1; 
62 6; 63 25; 64 11; 65 26; 66 5; 
67 1; 68 1; 69 1; 70 2; 71 2; 
72 1; 73 1; 74 3; 75 4; 76 11; 
77 46; 78 13; 79 17; 80 2; 81 1; 
82 1; 86 1; 87 1; 89 6; 90 2; 
91 21; 92 10; 93 3; 94 2; 95 1; 
100 354; 101 23; 102 8; 103 21; 104 12; 
105 8; 106 2; 107 10; 108 2; 109 1; 
115 1; 117 4; 118 6; 119 33; 120 7; 
121 24; 122 5; 123 1; 130 1; 131 14; 
132 8; 133 5; 134 4; 135 30; 136 7; 
137 1; 145 1; 146 3; 147 5; 148 2; 
149 153; 150 138; 151 13; 152 1; 159 1; 
160 10; 161 9; 162 28; 163 5; 165 843; 
166 86; 167 9; 174 1; 175 2; 176 2; 
177 5; 178 1; 190 3; 191 26; 192 183; 
193 23; 194 2; 234 1; 265 2; 
