Name: 1-(2,5-dimethoxyphenyl)-2-nitroethene
InChIKey: IRRZIWHEPWPPJF-AATRIKPKSA-N
Formula: C10H11NO4
MW: 209
ExactMass: 209.068808
CASNO: 0
ID: 786
Comment: ENFSI / 2C-B intermediate
Num Peaks: 115
37 31; 38 61; 39 128; 40 31; 41 51; 
42 15; 43 19; 44 13; 46 12; 49 13; 
50 169; 51 383; 52 93; 53 180; 54 73; 
55 67; 56 15; 57 9; 58 9; 59 36; 
61 33; 62 158; 63 353; 64 159; 65 303; 
66 74; 67 60; 68 26; 69 69; 71 14; 
73 9; 74 95; 75 84; 76 148; 77 616; 
78 146; 79 307; 80 66; 81 35; 82 66; 
83 27; 84 27; 85 67; 86 29; 87 46; 
88 38; 89 179; 90 114; 91 295; 92 205; 
93 106; 94 68; 95 174; 96 20; 98 23; 
99 5; 100 7; 101 17; 102 31; 103 119; 
104 53; 105 316; 106 146; 107 108; 108 111; 
109 96; 110 45; 111 66; 112 7; 113 8; 
115 7; 116 35; 117 29; 118 95; 119 267; 
120 161; 121 116; 122 44; 123 109; 124 20; 
125 17; 126 5; 130 21; 131 46; 132 40; 
133 572; 134 183; 135 132; 136 106; 137 76; 
138 32; 139 33; 146 32; 147 494; 148 552; 
149 109; 150 118; 151 97; 152 16; 160 9; 
161 88; 162 999; 163 117; 164 40; 165 52; 
166 203; 167 29; 177 233; 178 108; 179 61; 
180 7; 194 9; 209 956; 210 98; 211 16; 
