Name: 2,5-Dimethoxy-4-bromobenzylamine
InChIKey: QLPHYDUVAFPRGJ-UHFFFAOYSA-N
Formula: C9H12BrNO2
MW: 245
ExactMass: 245.005141
CASNO: 0
ID: 787
Comment: ENFSI / 2C-B impurity
Num Peaks: 133
38 25; 39 45; 41 24; 42 24; 43 27; 
44 21; 50 46; 51 68; 52 47; 53 116; 
54 52; 55 31; 60 20; 61 34; 62 58; 
63 100; 64 55; 65 73; 66 43; 67 37; 
68 17; 69 21; 70 20; 73 22; 74 45; 
75 49; 76 55; 77 90; 78 69; 79 91; 
80 62; 81 31; 82 30; 83 57; 86 19; 
87 21; 89 35; 90 39; 91 65; 92 58; 
93 52; 94 26; 95 28; 96 17; 104 57; 
105 61; 106 69; 107 78; 108 193; 109 51; 
110 18; 115 19; 116 19; 118 26; 119 74; 
120 46; 121 40; 122 57; 123 121; 124 87; 
125 21; 129 30; 131 39; 133 26; 134 54; 
135 44; 136 119; 137 28; 138 41; 139 24; 
141 27; 142 20; 143 53; 144 25; 145 43; 
146 18; 148 28; 149 26; 150 39; 151 104; 
152 22; 155 26; 157 50; 158 35; 159 38; 
160 35; 164 24; 166 143; 167 32; 168 21; 
169 35; 170 47; 171 44; 172 64; 173 49; 
174 35; 175 31; 183 37; 184 30; 185 61; 
186 75; 187 75; 188 91; 189 38; 190 47; 
197 24; 198 25; 199 72; 200 32; 201 143; 
202 65; 203 102; 204 45; 205 19; 212 108; 
213 295; 214 999; 215 421; 216 953; 217 137; 
218 81; 227 35; 228 60; 229 156; 230 165; 
231 131; 232 119; 233 22; 244 178; 245 428; 
246 190; 247 427; 248 55; 
