Name: N-acetyl-3,4-dimethoxyamphetamine
InChIKey: NTOZOVMFISCEJC-UHFFFAOYSA-N
Formula: C13H19NO3
MW: 237
ExactMass: 237.136494
CASNO: 0
ID: 792
Comment: ENFSI
Num Peaks: 124
38 4; 39 36; 40 8; 41 20; 42 44; 
43 172; 44 999; 45 37; 50 9; 51 31; 
52 12; 53 14; 54 4; 55 13; 56 7; 
57 10; 58 18; 59 4; 60 5; 61 1; 
62 5; 63 16; 64 8; 65 57; 66 12; 
67 8; 68 2; 69 5; 70 3; 71 2; 
72 1; 73 1; 74 1; 75 3; 76 5; 
77 60; 78 51; 79 36; 80 9; 81 6; 
82 6; 83 5; 84 3; 85 3; 86 179; 
87 9; 88 2; 89 22; 90 31; 91 70; 
92 14; 93 9; 94 13; 95 7; 96 2; 
97 2; 98 2; 99 3; 100 3; 102 4; 
103 16; 104 11; 105 45; 106 57; 107 128; 
108 30; 109 13; 110 2; 111 1; 115 13; 
116 5; 117 11; 118 10; 119 16; 120 8; 
121 19; 122 11; 123 7; 124 2; 130 2; 
131 9; 132 7; 133 7; 134 6; 135 52; 
136 16; 137 40; 138 9; 139 2; 140 1; 
143 1; 145 2; 146 6; 147 28; 148 14; 
149 30; 150 6; 151 336; 152 106; 153 10; 
154 1; 157 1; 159 1; 161 6; 162 55; 
163 93; 164 15; 165 4; 174 1; 175 1; 
176 25; 178 930; 179 121; 180 14; 181 1; 
191 1; 192 1; 194 4; 206 1; 207 1; 
221 2; 235 1; 237 33; 238 5; 
