Name: 2-Acetoxy-1-phenyl-1-propene (cis and trans)
Synon: E,Z -enol acetates of P-2-P (BMK)
InChIKey: XIWPHNOSEHOQDL-GZBRSKDKSA-N
Formula: C11H12O2
MW: 176
ExactMass: 176.08373
CASNO: 0
ID: 802
Comment: ENFSI / byproduct synthesis of BMK from phenylacetic acid; J.For.Sci.,Vol.37 (5) 1992,pp 1311-1318 & J.For.Sci.Vol.37 (1) 1992,301-3229
Num Peaks: 59
37 2; 38 9; 39 41; 40 4; 41 4; 
42 3; 43 415; 44 7; 45 1; 49 1; 
50 12; 51 38; 52 8; 53 4; 55 5; 
57 1; 58 4; 61 2; 62 23; 63 65; 
64 21; 65 36; 66 4; 73 1; 74 10; 
75 5; 76 5; 77 89; 78 23; 79 40; 
80 2; 86 3; 87 7; 88 1; 89 102; 
90 87; 91 421; 92 57; 94 1; 102 6; 
103 30; 104 4; 105 75; 106 5; 107 1; 
115 68; 116 53; 117 20; 118 30; 119 90; 
120 7; 131 7; 132 3; 133 59; 134 999; 
135 101; 136 4; 176 54; 177 6; 
