Name: N-formyl-3,4-methylenedioxyamphetamine
Synon: N-formyl-MDA
InChIKey: WGGJEXIHYZZZGU-UHFFFAOYSA-N
Formula: C11H13NO3
MW: 207
ExactMass: 207.089543
CASNO: 0
ID: 806
Comment: ENFSI
Num Peaks: 89
37 2; 38 9; 39 35; 40 8; 41 12; 
42 52; 43 13; 44 377; 45 11; 46 2; 
49 2; 50 38; 51 145; 52 27; 53 24; 
54 5; 55 6; 56 5; 57 3; 58 2; 
60 1; 61 4; 62 14; 63 38; 64 11; 
65 24; 66 8; 67 11; 68 2; 69 2; 
70 1; 72 588; 73 26; 74 12; 75 12; 
76 28; 77 254; 78 78; 79 54; 80 8; 
82 38; 87 1; 89 15; 90 6; 91 14; 
92 3; 93 4; 94 2; 101 2; 102 9; 
103 30; 104 47; 105 75; 106 33; 107 11; 
108 1; 115 3; 116 3; 117 3; 118 5; 
119 5; 120 3; 121 12; 122 8; 123 1; 
130 2; 131 40; 132 25; 133 10; 135 817; 
136 222; 137 21; 138 1; 146 2; 147 7; 
148 6; 149 1; 151 1; 159 1; 161 39; 
162 999; 163 116; 164 13; 177 1; 178 4; 
205 1; 207 124; 208 16; 209 2; 
