Name: Dimethyl-3,5-di-(3,4-methylenedioxy)phenylpyridine
InChIKey: GLPZXDMOBFRCTA-UHFFFAOYSA-N
Formula: C21H17NO4
MW: 347
ExactMass: 347.115759
CASNO: 0
ID: 807
Comment: ENFSI
Num Peaks: 179
38 2; 39 10; 40 3; 41 2; 42 6; 
43 2; 44 8; 50 8; 51 16; 52 5; 
53 7; 55 4; 62 13; 63 25; 64 3; 
65 6; 69 2; 70 3; 74 10; 75 23; 
76 24; 77 14; 78 4; 79 2; 82 14; 
83 2; 86 5; 87 14; 88 25; 89 18; 
90 2; 91 2; 94 7; 95 37; 96 6; 
98 3; 99 5; 100 9; 101 23; 102 38; 
103 2; 105 2; 106 1; 108 9; 109 7; 
110 1; 111 3; 112 1; 113 6; 114 36; 
115 12; 116 5; 117 1; 120 1; 121 4; 
122 2; 123 4; 124 2; 125 3; 126 7; 
127 6; 128 5; 129 3; 130 8; 131 3; 
135 14; 136 1; 137 2; 138 7; 139 11; 
140 4; 141 3; 144 62; 145 2; 146 2; 
147 2; 148 8; 149 4; 150 9; 151 5; 
152 9; 153 3; 154 1; 158 3; 159 5; 
160 6; 161 2; 162 7; 163 15; 164 18; 
165 8; 166 4; 167 5; 168 4; 173 65; 
174 83; 175 3; 176 9; 177 6; 178 5; 
186 1; 187 15; 188 14; 189 31; 190 16; 
191 19; 192 10; 193 3; 200 3; 201 6; 
202 13; 203 9; 204 18; 205 6; 206 2; 
207 11; 214 7; 215 11; 216 11; 217 7; 
218 11; 219 3; 220 3; 226 1; 227 3; 
228 22; 229 9; 230 20; 231 10; 232 6; 
233 2; 234 2; 242 1; 243 1; 244 8; 
245 3; 246 3; 247 2; 248 1; 250 2; 
251 1; 257 2; 258 14; 259 7; 260 8; 
261 1; 262 3; 263 2; 264 6; 265 1; 
272 2; 273 2; 274 13; 275 8; 276 7; 
277 6; 278 5; 281 3; 286 5; 287 5; 
288 69; 289 28; 290 10; 291 1; 302 7; 
303 3; 304 2; 316 35; 317 13; 318 13; 
319 1; 331 4; 332 4; 345 1; 346 201; 
347 999; 348 228; 349 34; 350 2; 
