Name: N-[-(3,4-Methylenedioxy)phenylmethyl]-3,4-(methylenedioxy)benzaldimine
InChIKey: PAUSTGHYFOPLGX-REZTVBANSA-N
Formula: C16H13NO4
MW: 283
ExactMass: 283.084457
CASNO: 0
ID: 808
Comment: ENFSI / prepared from piperonal and ammonia
Num Peaks: 99
37 1; 38 6; 39 16; 40 1; 41 1; 
42 1; 44 1; 50 26; 51 98; 52 13; 
53 11; 54 1; 55 2; 61 2; 62 15; 
63 38; 64 9; 65 36; 66 4; 67 3; 
70 2; 74 5; 75 10; 76 38; 77 181; 
78 29; 79 31; 80 3; 83 1; 84 7; 
87 1; 88 2; 89 6; 90 5; 91 7; 
92 3; 93 2; 98 3; 99 1; 101 1; 
102 4; 103 7; 104 18; 105 55; 106 16; 
107 2; 112 5; 113 5; 114 1; 115 3; 
116 1; 117 1; 118 3; 119 1; 120 4; 
121 21; 122 4; 127 14; 128 1; 130 1; 
131 3; 132 2; 133 2; 134 19; 135 999; 
136 137; 137 12; 138 2; 139 13; 140 5; 
142 5; 146 13; 147 5; 148 11; 149 2; 
150 6; 151 1; 160 11; 161 32; 162 7; 
164 1; 165 1; 166 2; 167 3; 168 1; 
194 1; 195 1; 196 1; 197 1; 224 4; 
225 2; 253 1; 254 2; 255 2; 266 1; 
282 21; 283 183; 284 33; 285 4; 
