Name: N-formyl-di[1-(3,4-methylenedioxyphenyl)-2-propyl]amine
InChIKey: OVAYMMMZKLHCPX-UHFFFAOYSA-N
Formula: C21H23NO5
MW: 369
ExactMass: 369.157623
CASNO: 0
ID: 810
Comment: ENFSI
Num Peaks: 90
39 18; 40 4; 41 14; 42 22; 43 8; 
44 36; 50 9; 51 64; 52 9; 53 10; 
54 5; 55 20; 56 8; 63 18; 64 5; 
65 22; 66 5; 67 6; 68 6; 69 4; 
70 127; 71 7; 72 43; 73 3; 74 3; 
75 4; 76 10; 77 170; 78 40; 79 70; 
80 6; 84 5; 89 18; 90 7; 91 21; 
92 4; 93 4; 94 3; 98 4; 99 2; 
101 3; 102 7; 103 50; 104 36; 105 189; 
106 24; 107 6; 115 8; 117 3; 118 3; 
119 3; 121 16; 122 13; 131 23; 132 11; 
133 111; 134 18; 135 327; 136 114; 137 11; 
144 2; 147 24; 148 23; 149 9; 159 6; 
160 4; 161 25; 162 999; 163 639; 164 69; 
165 7; 178 3; 189 30; 190 8; 191 13; 
204 2; 205 2; 206 46; 207 39; 208 7; 
214 2; 216 8; 218 3; 234 197; 235 30; 
236 3; 281 2; 346 10; 347 9; 369 6; 
