Name: N-methyl-3,4-(methylenedioxy)benzylamine
InChIKey: CEPGPPSMCRKGFJ-UHFFFAOYSA-N
Formula: C9H11NO2
MW: 165
ExactMass: 165.078979
CASNO: 0
ID: 819
Comment: ENFSI / synthesised from piperonal and methylamine by reduction with NaBH4; ref. A.M.A.Verweij,For.Sci.Rev.,Vol.4,No.2,Dec.1992
Num Peaks: 80
37 7; 38 19; 39 58; 40 7; 41 15; 
42 295; 43 47; 44 277; 45 7; 47 1; 
49 4; 50 61; 51 193; 52 37; 53 39; 
54 8; 55 6; 56 2; 57 1; 58 2; 
60 3; 61 9; 62 32; 63 75; 64 30; 
65 86; 66 19; 67 19; 68 11; 74 15; 
75 13; 76 24; 77 258; 78 63; 79 55; 
80 19; 82 47; 88 1; 89 2; 90 8; 
91 18; 92 12; 93 34; 94 8; 95 9; 
103 1; 104 13; 105 75; 106 62; 107 23; 
108 5; 109 1; 116 1; 117 2; 118 19; 
119 4; 120 24; 121 103; 122 39; 123 17; 
124 6; 132 1; 133 4; 134 73; 135 999; 
136 358; 137 32; 138 2; 146 4; 147 4; 
148 21; 149 23; 150 10; 151 1; 162 19; 
163 10; 164 478; 165 453; 166 48; 167 3; 
