Name: N-ethyl,N-methyl-3,4-methylenedioxyamphetamine
Synon: N-ethyl,N-methylMDA
InChIKey: PJEINQKGVYYODI-UHFFFAOYSA-N
Formula: C13H19NO2
MW: 221
ExactMass: 221.141579
CASNO: 0
ID: 823
Comment: ENFSI / A.M.A.Verweij,For.Sci.Rev.,Vol.4,No.2,Dec.1992; synthesised from MDMA and acetaldehyde; NaBH4 reduction in methanol
Num Peaks: 75
41 6; 42 34; 43 8; 44 5; 50 6; 
51 29; 52 5; 53 6; 54 3; 55 4; 
56 37; 57 11; 58 143; 59 6; 62 3; 
63 8; 64 2; 65 6; 66 1; 67 1; 
68 1; 70 9; 71 4; 72 1; 74 1; 
75 1; 76 3; 77 45; 78 13; 79 9; 
80 1; 84 6; 85 6; 86 999; 87 65; 
88 2; 89 6; 90 2; 91 6; 92 1; 
102 2; 103 12; 104 4; 105 17; 106 3; 
107 1; 115 1; 117 1; 118 1; 119 2; 
120 1; 121 2; 122 1; 130 1; 131 3; 
132 2; 133 4; 134 1; 135 37; 136 5; 
146 1; 147 5; 148 5; 149 2; 160 1; 
161 2; 162 4; 163 7; 176 1; 177 1; 
190 1; 204 1; 205 1; 206 3; 220 1; 
