Name: 4-Isopropyl-1,6-dimethyl-1,2,3,4-tetrahydronaphthalene
InChIKey: PGTJIOWQJWHTJJ-UHFFFAOYSA-N
Formula: C15H22
MW: 202
ExactMass: 202.172151
CASNO: 0
ID: 831
Comment: ENFSI / PMK impurity (decomposition); Microgram, Vol. XXVI, No. 9, September 1993, pp 209-213
Num Peaks: 63
38 4; 39 26; 40 13; 41 27; 42 5; 
43 47; 44 10; 50 11; 51 39; 52 6; 
53 11; 55 5; 57 4; 63 20; 64 5; 
65 18; 67 8; 74 4; 75 7; 76 10; 
77 72; 78 10; 79 18; 89 7; 91 32; 
92 4; 102 6; 103 10; 105 65; 106 4; 
115 69; 116 20; 117 31; 118 5; 119 15; 
126 4; 127 24; 128 104; 129 98; 130 28; 
131 83; 132 12; 135 226; 136 22; 139 4; 
141 40; 142 32; 143 52; 144 74; 145 31; 
149 10; 152 5; 153 8; 155 5; 157 19; 
159 999; 160 138; 161 8; 178 53; 179 6; 
191 7; 202 106; 203 16; 
