Name: 4-Methylthiophenylmethanol
InChIKey: MTXQKSQYMREAGJ-UHFFFAOYSA-N
Formula: C8H10OS
MW: 154
ExactMass: 154.045236
CASNO: 0
ID: 833
Comment: ENFSI / impurity found in illicit 4-MTA tablets (NFI)
Num Peaks: 102
37 6; 38 20; 39 92; 40 9; 41 17; 
42 2; 43 3; 44 3; 45 191; 46 22; 
47 37; 48 8; 49 10; 50 104; 51 187; 
52 47; 53 40; 54 4; 55 14; 56 2; 
57 14; 58 35; 59 12; 60 6; 61 17; 
62 40; 63 104; 64 17; 65 94; 66 65; 
67 33; 68 5; 69 103; 70 20; 71 29; 
72 8; 73 8; 74 42; 75 29; 76 30; 
77 497; 78 194; 79 640; 80 42; 81 19; 
82 40; 83 11; 84 20; 85 16; 86 9; 
87 7; 88 2; 89 51; 90 11; 91 79; 
92 13; 93 17; 94 8; 95 23; 96 7; 
97 13; 98 1; 99 1; 102 1; 103 4; 
104 7; 105 59; 106 21; 107 371; 108 87; 
109 430; 110 170; 111 75; 112 11; 113 2; 
117 1; 118 1; 119 1; 120 2; 121 95; 
122 143; 123 46; 124 21; 125 201; 126 20; 
127 9; 134 4; 135 28; 136 10; 137 340; 
138 46; 139 68; 140 7; 141 3; 151 40; 
152 21; 153 187; 154 999; 155 104; 156 52; 
157 5; 159 1; 
