Name: 1-(4-methylthiophenyl)-2-propanone
InChIKey: RYFZDEIJXAESAA-UHFFFAOYSA-N
Formula: C10H12OS
MW: 180
ExactMass: 180.060886
CASNO: 0
ID: 834
Comment: ENFSI / impurity 4-MTA tablet
Num Peaks: 80
37 2; 38 7; 39 26; 40 5; 41 4; 
42 5; 43 159; 44 10; 45 34; 46 4; 
47 5; 50 12; 51 29; 52 10; 53 3; 
55 2; 57 3; 58 3; 59 3; 61 4; 
62 14; 63 45; 64 13; 65 17; 66 2; 
68 4; 69 17; 70 9; 71 7; 74 4; 
75 4; 76 5; 77 47; 78 73; 79 12; 
81 3; 82 5; 83 3; 85 3; 87 5; 
89 46; 90 11; 91 46; 92 5; 93 6; 
94 2; 95 8; 96 4; 97 4; 102 4; 
103 8; 104 6; 105 6; 106 2; 109 4; 
115 4; 116 2; 117 2; 118 2; 120 2; 
121 119; 122 198; 123 52; 124 13; 125 4; 
131 5; 132 2; 134 5; 135 11; 137 999; 
138 107; 139 53; 140 5; 147 3; 149 4; 
154 2; 164 3; 180 184; 181 22; 182 8; 
