Name: 4-Benzylpyrimidine
InChIKey: BXACYQRHBZMYQH-UHFFFAOYSA-N
Formula: C11H10N2
MW: 170
ExactMass: 170.084398
CASNO: 0
ID: 841
Comment: ENFSI / Leuckart impurity amphetamine synthesis
Num Peaks: 46
37 11; 38 14; 39 38; 40 15; 41 19; 
42 11; 43 11; 44 136; 50 19; 51 47; 
52 47; 53 18; 57 18; 59 13; 62 22; 
63 45; 64 18; 65 82; 70 17; 72 127; 
75 11; 77 29; 78 13; 84 21; 85 20; 
89 48; 90 16; 91 152; 92 28; 93 11; 
94 14; 102 19; 113 11; 114 18; 115 125; 
116 66; 117 36; 118 105; 119 12; 140 19; 
142 60; 143 32; 168 67; 169 999; 170 388; 
171 47; 
