Name: 3,5-Diphenyl-4-methyl-3-penten-2-one
InChIKey: CKQFBKNGJPGQNJ-JXAWBTAJSA-N
Formula: C18H18O
MW: 250
ExactMass: 250.135765
CASNO: 0
ID: 844
Comment: ENFSI / 1.impurity 2.byproduct synth BMK (phenylacetic acid); [1] J.For,Sci.Soc. Vol.2111979,225-23 [2] J.For.Sci.Vol.37(1) 1992,301-3229
Num Peaks: 78
38 2; 39 37; 40 6; 41 6; 43 20; 
44 1; 50 7; 51 25; 52 6; 53 23; 
54 2; 55 2; 62 5; 63 28; 64 7; 
65 99; 66 7; 67 7; 68 1; 74 2; 
75 4; 76 4; 77 27; 78 6; 79 4; 
81 1; 82 1; 86 1; 87 2; 88 1; 
89 25; 90 12; 91 366; 92 26; 93 1; 
101 2; 102 6; 103 15; 104 2; 105 7; 
106 1; 107 1; 113 1; 114 2; 115 85; 
116 56; 117 13; 118 3; 119 2; 126 2; 
127 14; 128 35; 129 52; 130 21; 131 150; 
132 16; 139 1; 141 145; 142 17; 143 4; 
144 184; 145 21; 146 1; 152 1; 156 1; 
157 8; 158 20; 159 999; 160 125; 161 9; 
165 1; 178 1; 202 2; 203 1; 215 1; 
232 1; 250 12; 251 2; 
