Name: 1,5-diphenyl-4-methyl-4-penten-2-one
InChIKey: NGFDVDWVZOOAQZ-NTCAYCPXSA-N
Formula: C18H18O
MW: 250
ExactMass: 250.135765
CASNO: 0
ID: 845
Comment: ENFSI / 1.impurity 2.byproduct synth BMK (phenylacetic acid); [1] J.For,Sci.Soc. Vol.2111979,225-23 [2] J.For.Sci.Vol.37(1) 1992,301-3229
Num Peaks: 71
38 2; 39 33; 40 4; 41 9; 42 1; 
43 3; 46 4; 50 10; 51 34; 52 7; 
53 21; 61 1; 62 5; 63 29; 64 10; 
65 100; 66 7; 67 1; 72 2; 74 3; 
75 4; 76 5; 77 41; 78 8; 79 5; 
86 1; 87 3; 88 3; 89 41; 90 18; 
91 999; 92 75; 93 3; 101 2; 102 9; 
103 20; 104 3; 105 5; 113 2; 114 4; 
115 145; 116 90; 117 15; 118 28; 119 44; 
120 4; 126 2; 127 19; 128 50; 129 87; 
130 25; 131 564; 132 84; 133 6; 141 11; 
142 2; 144 8; 152 1; 157 2; 158 116; 
159 147; 160 16; 161 8; 165 1; 178 2; 
203 2; 215 2; 232 3; 250 107; 251 22; 
252 2; 
