Name: 2,6-Dimethyl-3,5-diphenylpyridine
InChIKey: DUVKIARMJGMWRU-UHFFFAOYSA-N
Formula: C19H17N
MW: 259
ExactMass: 259.136099
CASNO: 0
ID: 847
Comment: ENFSI / amphetamine Leuckart impurity; For.Sci.Rev. 1:1; 1989 pp 1-11
Num Peaks: 142
38 1; 39 19; 40 3; 41 3; 42 20; 
43 1; 44 1; 50 12; 51 31; 52 10; 
53 2; 62 8; 63 31; 64 5; 65 10; 
66 2; 69 1; 74 10; 75 16; 76 19; 
77 35; 78 8; 79 1; 82 4; 83 5; 
86 4; 87 10; 88 14; 89 33; 90 4; 
91 12; 92 1; 95 23; 98 3; 99 4; 
100 7; 101 30; 102 30; 103 13; 104 2; 
105 1; 107 14; 108 23; 110 3; 111 2; 
112 2; 113 12; 114 20; 115 161; 119 1; 
121 21; 122 15; 123 2; 125 1; 126 13; 
127 25; 128 20; 129 18; 130 20; 137 4; 
138 4; 139 34; 140 12; 141 8; 142 2; 
143 1; 149 1; 150 8; 151 9; 152 17; 
153 11; 154 2; 155 1; 156 1; 157 1; 
161 2; 162 3; 163 11; 164 5; 165 17; 
166 8; 167 8; 168 2; 174 2; 175 3; 
176 10; 177 6; 178 12; 179 4; 180 18; 
181 18; 182 13; 183 2; 186 1; 187 9; 
188 5; 189 29; 190 9; 191 6; 199 1; 
200 11; 201 13; 202 81; 203 28; 204 8; 
205 2; 206 1; 207 1; 211 2; 212 1; 
213 18; 214 10; 215 92; 216 29; 217 25; 
218 12; 219 1; 226 5; 227 13; 228 15; 
229 9; 230 7; 231 5; 232 3; 239 3; 
240 9; 241 27; 242 40; 243 95; 244 49; 
245 8; 252 1; 253 2; 254 15; 255 16; 
256 37; 257 66; 258 896; 259 999; 260 184; 
261 17; 262 1; 
