Name: N,N-di(beta-phenyl-isopropyl)methylamine
InChIKey: HJNVYHKUBNVMDC-UHFFFAOYSA-N
Formula: C19H25N
MW: 267
ExactMass: 267.1987
CASNO: 0
ID: 849
Comment: ENFSI / from Leuckart amphetamine synthesised by NBI
Num Peaks: 45
30 10; 32 1; 39 20; 40 6; 41 43; 
42 43; 43 5; 44 1; 50 4; 51 13; 
54 4; 56 33; 57 11; 58 260; 59 9; 
63 9; 65 47; 70 19; 77 23; 78 13; 
79 13; 84 16; 85 4; 89 11; 91 612; 
92 50; 103 15; 104 8; 105 6; 115 30; 
116 7; 117 36; 118 22; 119 127; 120 15; 
132 5; 134 8; 144 5; 148 7; 160 7; 
174 8; 176 999; 177 137; 178 8; 252 4; 
