Name: 2,4-Dimethyl-3-phenyl-6-(phenylmethyl)pyridine
InChIKey: XUANHCMLDHHHBV-UHFFFAOYSA-N
Formula: C20H19N
MW: 273
ExactMass: 273.15175
CASNO: 0
ID: 850
Comment: ENFSI / Leuckart impurity amphetamine synthesis; For.Sci.Rev. 1:1; 1989 pp 1-11
Num Peaks: 118
38 8; 39 82; 40 10; 41 28; 42 13; 
44 12; 50 28; 51 73; 52 21; 53 10; 
62 22; 63 59; 64 17; 65 86; 66 10; 
72 9; 74 11; 75 19; 76 19; 77 75; 
78 18; 79 6; 86 8; 87 5; 88 9; 
89 53; 90 13; 91 106; 92 10; 95 8; 
96 9; 98 5; 100 5; 101 15; 102 30; 
103 12; 104 7; 106 6; 109 16; 113 12; 
114 20; 115 155; 116 46; 117 9; 118 8; 
121 25; 122 25; 123 7; 126 15; 127 47; 
128 52; 130 5; 135 10; 136 18; 137 18; 
138 6; 139 22; 140 23; 141 25; 142 5; 
150 8; 151 12; 152 47; 153 32; 154 13; 
155 9; 156 5; 164 5; 165 15; 166 39; 
167 42; 168 13; 169 5; 176 7; 177 6; 
178 13; 179 14; 180 34; 181 21; 189 8; 
190 7; 193 6; 194 10; 195 17; 196 12; 
202 13; 204 12; 205 7; 213 5; 215 28; 
216 7; 217 8; 218 10; 227 5; 228 19; 
229 7; 230 7; 240 10; 241 23; 242 16; 
243 83; 244 32; 245 14; 254 26; 255 33; 
256 74; 257 66; 258 347; 259 111; 260 13; 
267 5; 268 10; 269 7; 270 38; 272 999; 
273 460; 274 83; 275 7; 
