Name: N-(-phenylisopropyl)benzaldimine
InChIKey: BPRATDJPJUKYGD-GHRIWEEISA-N
Formula: C16H17N
MW: 223
ExactMass: 223.1361
CASNO: 0
ID: 854
Comment: ENFSI / impurity amphetamine synthesis; For.Sci.Rev. 1:1; 1989 pp 1-11
Num Peaks: 60
38 2; 39 25; 40 2; 41 15; 42 2; 
50 11; 51 36; 52 9; 53 3; 54 15; 
55 1; 62 5; 63 24; 64 9; 65 60; 
66 4; 74 2; 75 4; 76 8; 77 70; 
78 18; 79 36; 80 2; 87 1; 88 1; 
89 64; 90 55; 91 164; 92 13; 101 1; 
102 5; 103 42; 104 32; 105 283; 106 25; 
107 1; 115 22; 116 7; 117 51; 118 7; 
119 1; 128 1; 129 1; 130 27; 132 999; 
133 105; 134 5; 144 1; 146 3; 152 1; 
165 4; 166 2; 167 1; 178 3; 179 3; 
180 3; 181 1; 206 1; 208 2; 222 2; 
