Name: N-(-phenylisopropyl)benzylmethylketimine
InChIKey: MLCJHHSVVPBJSF-CYVLTUHYSA-N
Formula: C18H21N
MW: 251
ExactMass: 251.167399
CASNO: 0
ID: 855
Comment: ENFSI / impurity from amphetamine and BMK (condensation); For.Sci.Rev. 1:1; 1989 pp 1-11
Num Peaks: 56
37 4; 39 34; 40 9; 41 45; 42 31; 
43 5; 44 14; 50 11; 51 32; 52 10; 
53 4; 62 4; 63 22; 64 7; 65 74; 
66 7; 68 25; 69 17; 72 5; 75 7; 
76 7; 77 47; 78 24; 79 21; 87 3; 
89 23; 90 13; 91 903; 92 65; 93 4; 
94 3; 102 8; 103 29; 104 14; 105 17; 
114 4; 115 83; 116 24; 117 111; 118 34; 
119 500; 120 45; 128 8; 129 4; 130 9; 
131 10; 132 11; 134 9; 143 10; 144 19; 
145 8; 158 20; 160 999; 161 121; 162 6; 
251 7; 
