Name: 1-oxo-1-phenyl-2-(-phenylisopropylimino)propane
InChIKey: GERVEJVSEQHXJC-XMHGGMMESA-N
Formula: C18H19NO
MW: 265
ExactMass: 265.146664
CASNO: 0
ID: 857
Comment: ENFSI / For.Sci.Rev. 1:1; 1989 pp 1-11
Num Peaks: 30
39 31; 40 2; 41 83; 42 43; 44 69; 
50 9; 51 79; 52 2; 63 4; 65 45; 
68 9; 77 240; 78 32; 79 17; 89 2; 
91 999; 92 74; 103 28; 104 11; 105 286; 
106 14; 115 46; 116 2; 117 45; 118 14; 
119 632; 120 55; 160 314; 161 31; 174 27; 
