Name: M-ALPHA
Synon: 1-Methylamino-1-(3,4-methylenedioxyphenyl)propane
InChIKey: NLINVDHEDVEOMJ-UHFFFAOYSA-N
Formula: C11H15NO2
MW: 193
ExactMass: 193.110279
CASNO: 0
ID: 859
Comment: ENFSI / NFI/ in house synthesis
Num Peaks: 84
37 1; 38 4; 39 21; 40 3; 41 13; 
42 304; 43 10; 44 6; 50 12; 51 29; 
52 11; 53 15; 54 5; 55 6; 56 18; 
57 11; 59 2; 61 2; 62 11; 63 34; 
64 14; 65 46; 66 7; 67 5; 68 5; 
70 13; 71 2; 72 29; 74 5; 75 5; 
76 8; 77 60; 78 18; 79 18; 80 7; 
82 99; 88 2; 89 16; 90 9; 91 19; 
92 6; 93 24; 94 3; 95 7; 102 4; 
103 18; 104 17; 105 29; 106 13; 107 5; 
108 1; 115 1; 116 1; 117 4; 118 11; 
119 4; 120 3; 121 14; 122 6; 123 11; 
131 6; 132 4; 133 12; 134 7; 135 37; 
136 4; 146 6; 147 18; 148 26; 149 5; 
150 1; 151 3; 161 4; 162 30; 163 20; 
164 999; 165 111; 166 9; 176 3; 177 2; 
190 1; 192 5; 193 5; 194 1; 
