Name: BDB
Synon: 2-Amino-1-(3,4-methylenedioxyphenyl)-butane
InChIKey: VHMRXGAIDDCGDU-UHFFFAOYSA-N
Formula: C11H15NO2
MW: 193
ExactMass: 193.110279
CASNO: 0
ID: 861
Comment: ENFSI / Aarhus/Standard compound from Sigma batch# 69H0642
Num Peaks: 76
41 93; 42 18; 43 19; 44 4; 50 12; 
51 59; 52 14; 53 13; 54 5; 55 3; 
56 20; 57 8; 58 999; 59 35; 61 1; 
62 4; 63 12; 64 2; 65 8; 66 2; 
67 3; 68 1; 70 3; 72 1; 74 2; 
75 3; 76 5; 77 60; 78 21; 79 15; 
80 4; 82 51; 84 5; 89 5; 90 2; 
91 5; 92 1; 93 1; 96 1; 102 1; 
103 3; 104 7; 105 15; 106 22; 107 8; 
108 1; 115 3; 116 2; 117 3; 118 2; 
119 1; 121 4; 122 2; 131 2; 132 1; 
133 1; 134 10; 135 90; 136 159; 137 13; 
138 1; 145 1; 146 1; 147 2; 148 1; 
150 1; 161 1; 162 1; 163 6; 164 22; 
165 2; 176 1; 191 1; 192 1; 193 9; 
194 1; 
