Name: 1-(3-Chlorophenyl)piperazine, acetyl
Synon: mCPP, AC
InChIKey: FGZISPCFLHSBOQ-UHFFFAOYSA-N
Formula: C12H15ClN2O
MW: 238
ExactMass: 238.087291
CASNO: 0
ID: 871
Comment: ENFSI / NFI/Acros A003642401, derivatised
Num Peaks: 126
36 4; 38 8; 39 16; 40 7; 41 33; 
42 80; 43 304; 44 27; 45 5; 50 25; 
51 37; 52 10; 53 3; 54 31; 55 39; 
56 486; 57 150; 58 14; 60 3; 61 4; 
62 5; 63 21; 64 6; 65 10; 66 2; 
67 2; 68 10; 69 14; 70 13; 71 24; 
72 6; 73 11; 74 9; 75 79; 76 21; 
77 61; 78 11; 79 3; 81 4; 83 4; 
84 6; 85 37; 86 11; 87 5; 89 18; 
90 15; 91 21; 92 2; 98 7; 99 36; 
100 3; 101 3; 102 12; 103 13; 104 18; 
105 15; 106 7; 110 3; 111 172; 112 30; 
113 63; 114 10; 115 3; 116 5; 117 39; 
118 19; 119 8; 125 105; 126 12; 127 39; 
128 5; 129 3; 130 28; 131 35; 132 21; 
133 21; 134 2; 137 2; 138 272; 139 246; 
140 202; 141 102; 142 42; 143 10; 144 3; 
145 2; 151 4; 152 26; 153 198; 154 374; 
155 103; 156 114; 157 9; 158 2; 159 5; 
160 7; 161 7; 164 5; 165 5; 166 999; 
167 114; 168 332; 169 38; 170 5; 178 4; 
179 6; 180 4; 181 11; 182 4; 183 2; 
193 7; 194 14; 195 116; 196 20; 197 34; 
198 6; 203 2; 223 42; 224 4; 225 12; 
236 5; 237 7; 238 278; 239 37; 240 82; 
241 13; 
