Name: 1-(4-Methoxyphenyl)piperazine, acetyl
Synon: pMeOPP, AC
InChIKey: AVCQLYXAEKNILW-UHFFFAOYSA-N
Formula: C13H18N2O2
MW: 234
ExactMass: 234.136827
CASNO: 0
ID: 887
Comment: ENFSI / NFI/Acros A012584701, derivatised
Num Peaks: 120
38 3; 39 20; 40 4; 41 17; 42 47; 
43 186; 44 14; 45 1; 50 7; 51 31; 
52 17; 53 8; 54 15; 55 12; 56 284; 
57 82; 58 11; 62 2; 63 16; 64 19; 
65 78; 66 12; 67 3; 68 7; 69 5; 
70 8; 71 18; 72 14; 73 1; 74 2; 
75 2; 76 8; 77 90; 78 38; 79 37; 
80 12; 81 3; 82 1; 83 4; 84 3; 
85 3; 86 6; 87 2; 89 5; 90 6; 
91 69; 92 55; 93 53; 94 8; 95 3; 
98 2; 99 32; 100 2; 102 2; 103 4; 
104 38; 105 18; 106 78; 107 41; 108 14; 
109 3; 112 5; 113 2; 115 1; 116 7; 
117 17; 118 30; 119 30; 120 277; 121 109; 
122 33; 123 11; 124 3; 130 12; 131 12; 
132 30; 133 23; 134 366; 135 145; 136 132; 
137 15; 138 1; 144 7; 145 6; 146 22; 
147 21; 148 46; 149 290; 150 99; 151 9; 
157 2; 158 1; 159 3; 160 17; 161 14; 
162 999; 163 117; 164 14; 165 4; 171 1; 
173 2; 174 4; 175 12; 176 23; 177 19; 
178 2; 189 6; 190 39; 191 90; 192 14; 
193 1; 202 3; 203 2; 219 23; 220 2; 
232 3; 233 6; 234 357; 235 58; 236 5; 
