Name: N-acetylphentermine
InChIKey: AVEJEOTYLAFEDZ-UHFFFAOYSA-N
Formula: C12H17NO
MW: 191
ExactMass: 191.131014
CASNO: 0
ID: 891
Comment: ENFSI / NFI/Sigma F0143, derivatised
Num Peaks: 60
38 1; 39 22; 40 3; 41 25; 42 52; 
43 93; 44 4; 50 4; 51 15; 52 4; 
53 4; 54 2; 55 5; 56 8; 57 16; 
58 999; 59 37; 60 6; 62 3; 63 14; 
64 4; 65 54; 66 3; 70 1; 71 2; 
74 1; 75 1; 76 1; 77 10; 78 5; 
79 2; 84 1; 89 13; 90 5; 91 130; 
92 17; 93 1; 99 2; 100 425; 101 25; 
102 3; 103 4; 104 3; 105 3; 106 1; 
115 25; 116 9; 117 65; 118 9; 119 1; 
127 1; 128 2; 129 2; 130 2; 131 8; 
132 48; 133 8; 134 40; 135 4; 148 1; 
