Name: N-acetyl-2C-I
Synon: N-acetyl-4-Iodo-2,5-dimethoxyphenethylamine
InChIKey: QRPIDJGCEAORLE-UHFFFAOYSA-N
Formula: C12H16INO3
MW: 349
ExactMass: 349.01749
CASNO: 0
ID: 894
Comment: ENFSI / NFI/inhouse synthesis2005.06.20.TV, derivatised
Num Peaks: 150
37 1; 38 6; 39 26; 40 3; 41 6; 
42 20; 43 236; 44 16; 45 2; 49 1; 
50 27; 51 59; 52 15; 53 59; 54 6; 
55 8; 56 5; 57 6; 59 2; 60 2; 
61 3; 62 12; 63 54; 64 39; 65 38; 
66 10; 67 10; 68 3; 69 2; 72 51; 
73 3; 74 11; 75 17; 76 32; 77 159; 
78 44; 79 48; 80 6; 81 2; 82 1; 
86 9; 87 3; 88 3; 89 66; 90 92; 
91 112; 92 60; 93 21; 94 7; 95 3; 
96 1; 101 1; 102 6; 103 28; 104 19; 
105 110; 106 34; 107 30; 108 11; 109 3; 
110 1; 111 3; 115 2; 116 3; 117 7; 
118 42; 119 27; 120 61; 121 31; 122 34; 
123 7; 124 1; 127 9; 128 5; 130 1; 
131 5; 132 13; 133 52; 134 18; 135 33; 
136 15; 137 10; 138 4; 142 1; 146 3; 
147 10; 148 261; 149 49; 150 49; 151 20; 
152 4; 153 1; 160 1; 161 4; 162 6; 
163 14; 164 27; 165 17; 166 1; 167 1; 
176 2; 177 2; 178 3; 179 8; 180 6; 
181 1; 189 1; 191 17; 192 2; 203 1; 
204 3; 205 3; 207 2; 208 1; 217 5; 
218 1; 219 8; 220 2; 222 2; 223 1; 
231 2; 232 28; 233 5; 234 12; 235 2; 
245 1; 247 105; 248 11; 249 5; 259 1; 
260 5; 261 6; 262 3; 263 26; 264 3; 
274 1; 275 135; 276 20; 277 113; 278 22; 
279 1; 288 1; 290 999; 291 112; 292 11; 
302 1; 306 2; 349 123; 350 16; 351 1; 
