Name: N-acetyl-4-tert-butylamphetamine
Synon: N-acetyl-4-t-BA
InChIKey: UXXCNCDKDXMUTC-UHFFFAOYSA-N
Formula: C15H23NO
MW: 233
ExactMass: 233.177964
CASNO: 0
ID: 897
Comment: ENFSI / NFI/inhouse reference, derivatised
Num Peaks: 93
39 15; 40 2; 41 38; 42 28; 43 124; 
44 999; 45 27; 50 2; 51 10; 52 3; 
53 8; 54 1; 55 9; 56 4; 57 39; 
58 4; 59 1; 60 6; 62 1; 63 8; 
64 7; 65 19; 66 3; 67 1; 69 1; 
70 2; 71 1; 75 2; 76 2; 77 20; 
78 8; 79 8; 80 2; 81 1; 85 2; 
86 372; 87 19; 88 1; 89 11; 90 4; 
91 91; 92 10; 93 5; 94 1; 102 6; 
103 15; 104 20; 105 37; 106 4; 107 3; 
109 3; 114 1; 115 78; 116 27; 117 176; 
118 23; 119 18; 120 5; 126 1; 127 8; 
128 24; 129 20; 130 8; 131 52; 132 81; 
133 55; 134 10; 135 1; 141 4; 142 3; 
143 7; 144 4; 145 9; 146 2; 147 52; 
148 7; 149 1; 157 2; 158 6; 159 591; 
160 84; 161 6; 162 1; 172 1; 173 5; 
174 680; 175 93; 176 9; 177 1; 189 2; 
190 3; 218 1; 233 3; 
