Name: N-Methylethylone
InChIKey: LGYQSYWASFBSHJ-TZHYSIJRSA-N
MW: 235
Num peaks: 194
  40    1;  41    7;  42   50;  43   11;  44    5;;  45    1;  46    1;  47    1;  48    1;  49    1;;  50    4;  51    7;  52    2;  53    7;  54    6;;  55    8;  56   49;  57   10;  58  141;  59    5;;  60    1;  61    4;  62   19;  63   57;  64    7;;  65   75;  66    6;  67    1;  68    2;  69    1;;  70   20;  71    6;  72    1;  73    1;  74    5;;  75    2;  76    2;  77    5;  78    2;  79    4;;  80    1;  81    1;  82    1;  83    1;  84    7;;  85    6;  86  999;  87   65;  88    2;  89    2;;  90    2;  91   36;  92    6;  93    1;  94    1;;  95    1;  96    1;  97    1;  98    1;  99    1;; 100    1; 101    1; 102    1; 103    1; 104    1;; 105    1; 106    1; 107    1; 108    1; 109    1;; 110    1; 111    1; 112    1; 113    1; 114    1;; 115    1; 116    1; 117    1; 118    1; 119    9;; 120    6; 121   46; 122    6; 123    1; 124    1;; 125    1; 126    1; 127    1; 128    1; 129    1;; 130    1; 131    1; 132    1; 133    1; 134    1;; 135   12; 136    1; 137    1; 138    1; 139    1;; 140    1; 141    1; 142    1; 143    1; 144    1;; 145    1; 146    1; 147    2; 148    1; 149   52;; 150    5; 151    1; 152    1; 153    1; 154    1;; 155    1; 156    1; 157    1; 158    1; 159    1;; 160    3; 161    1; 162    1; 163    1; 164    1;; 165    1; 166    1; 168    1; 169    1; 170    1;; 171    1; 172    1; 173    1; 174    1; 175    1;; 176    2; 177    2; 178    3; 179    1; 180    1;; 181    1; 182    1; 183    1; 184    1; 185    1;; 186    1; 187    1; 188    1; 189    1; 190    1;; 191    1; 192    1; 193    1; 194    1; 195    1;; 197    1; 198    1; 199    1; 200    1; 201    1;; 202    1; 203    1; 204    2; 205    1; 206    1;; 207    1; 208    1; 209    1; 210    1; 212    1;; 213    1; 214    1; 215    1; 216    1; 217    1;; 218    2; 219    1; 220    1; 221    1; 222    1;; 223    1; 224    1; 225    1; 226    1; 227    1;; 228    1; 229    1; 230    1; 231    1; 232    1;; 233    1; 234    1; 235    1; 236    1;;
