Name: N-Methylethylone
InChIKey: AKDKKEIHDXROHU-UHFFFAOYSA-N
Synon: N-Ethylmethylone
Synon: 3,4-Methylenedioxy-N-ethyl-N-methylcathinone
Synon: 1-(Benzo[d][1,3]dioxol-5-yl)-2-(ethyl(methyl)amino)propan-1-one
Formula: C13H17NO3
MW: 235
ExactMass: 235.120843
DB#: 4937
Comments: Provided by www.caymanchem.com/app/template/landing%2CForensic.vm / Item#23710 Batch#0519716
Num Peaks: 53
41 7; 42 50; 43 11; 44 5; 50 4; 
51 7; 52 2; 53 7; 54 6; 55 8; 
56 49; 57 10; 58 141; 59 5; 61 4; 
62 19; 63 57; 64 7; 65 75; 66 6; 
68 2; 70 20; 71 6; 74 5; 75 2; 
76 2; 77 5; 78 2; 79 4; 84 7; 
85 6; 86 999; 87 65; 88 2; 89 2; 
90 2; 91 36; 92 6; 119 9; 120 6; 
121 46; 122 6; 135 12; 136 1; 147 2; 
149 52; 150 5; 160 3; 176 2; 177 2; 
178 3; 204 2; 218 2; 

